##TITLE=4-Ethylbenzoic acid, 2-(1-adamantyl)ethyl ester
##JCAMP-DX=4.24
##DATA TYPE=MASS SPECTRUM
##ORIGIN=Zaikin V.G., TIPS RAS, Moscow, Russia
##OWNER=NIST Mass Spectrometry Data Center
Collection (C) 2014 copyright by the U.S. Secretary of Commerce
on behalf of the United States of America. All rights reserved.
##$NIST MASS SPEC NO=292200
##MOLFORM=C21 H28 O2
##MW=312
##$NIST SOURCE=MSDC
##XUNITS=M/Z
##YUNITS=RELATIVE INTENSITY
##XFACTOR=1
##YFACTOR=1
##FIRSTX=26
##LASTX=312
##FIRSTY=60
##MAXX=312
##MINX=26
##MAXY=9999
##MINY=30
##NPOINTS=88
##PEAK TABLE=(XY..XY)
26,60 27,210 28,50 29,140
36,80 39,270 40,50 41,540
42,40 43,100 44,170 50,80
51,180 52,70 53,200 54,40
55,400 56,140 57,50 63,90
64,30 65,210 66,130 67,611
68,70 69,170 70,150 71,30
74,30 75,30 76,50 77,1061
78,430 79,2252 80,711 81,540
82,70 83,40 84,160 89,130
90,170 91,1311 92,1491 93,1882
94,581 95,180 96,70 102,50
103,520 104,370 105,2582 106,1471
107,931 108,190 115,50 117,90
118,120 119,981 120,601 121,310
122,40 131,120 132,70 133,4454
134,751 135,6095 136,681 137,40
147,350 148,140 149,100 150,2212
151,510 152,80 161,80 162,9999
163,1391 164,100 177,250 178,40
179,40 191,40 194,30 265,50
282,30 283,40 294,60 312,40
##END=
