##TITLE=(2S,4R)-p-Mentha-[1(7),8]-diene 2-hydroperoxide
##JCAMP-DX=4.24
##DATA TYPE=MASS SPECTRUM
##ORIGIN=P.Schieberle ET AL.J.High Res.Chrom.,10,588(1987)
##OWNER=NIST Mass Spectrometry Data Center
Collection (C) 2014 copyright by the U.S. Secretary of Commerce
on behalf of the United States of America. All rights reserved.
##$NIST MASS SPEC NO=292744
##MOLFORM=C10 H16 O2
##MW=168
##$NIST SOURCE=MSDC
##XUNITS=M/Z
##YUNITS=RELATIVE INTENSITY
##XFACTOR=1
##YFACTOR=1
##FIRSTX=39
##LASTX=152
##FIRSTY=3323
##MAXX=152
##MINX=39
##MAXY=9999
##MINY=180
##NPOINTS=28
##PEAK TABLE=(XY..XY)
39,3323 41,5855 43,2592 53,2562
55,5095 65,951 67,4634 68,1311
69,2622 77,2132 79,5855 80,1281
81,4184 82,1191 91,3453 93,9999
94,1591 95,2162 105,1221 107,3904
108,1862 109,3693 119,1311 134,1231
135,1892 150,1161 151,240 152,180
##END=
