##TITLE=3-Cyclopentylpropionic acid, 1-adamantylmethyl ester
##JCAMP-DX=4.24
##DATA TYPE=MASS SPECTRUM
##ORIGIN=Zaikin V.G., TIPS RAS, Moscow, Russia
##OWNER=NIST Mass Spectrometry Data Center
Collection (C) 2014 copyright by the U.S. Secretary of Commerce
on behalf of the United States of America. All rights reserved.
##$NIST MASS SPEC NO=292269
##MOLFORM=C19 H30 O2
##MW=290
##$NIST SOURCE=MSDC
##XUNITS=M/Z
##YUNITS=RELATIVE INTENSITY
##XFACTOR=1
##YFACTOR=1
##FIRSTX=27
##LASTX=194
##FIRSTY=70
##MAXX=194
##MINX=27
##MAXY=9999
##MINY=30
##NPOINTS=54
##PEAK TABLE=(XY..XY)
27,70 28,30 29,90 39,130
40,30 41,450 42,50 43,70
53,110 54,60 55,581 56,40
57,40 65,50 66,50 67,510
68,70 69,230 70,110 77,200
78,100 79,831 80,290 81,500
82,70 83,90 91,380 92,831
93,971 94,180 95,120 97,40
104,30 105,300 106,260 107,530
108,50 119,140 120,50 121,60
122,50 125,80 133,160 134,40
135,9999 136,931 137,40 140,260
141,60 148,4004 149,4124 150,410
193,360 194,50
##END=
