##TITLE=o-Toluic acid, hexyl ester
##JCAMP-DX=4.24
##DATA TYPE=MASS SPECTRUM
##ORIGIN=Zaikin V.G., TIPS RAS, Moscow, Russia
##OWNER=NIST Mass Spectrometry Data Center
Collection (C) 2014 copyright by the U.S. Secretary of Commerce
on behalf of the United States of America. All rights reserved.
##$NIST MASS SPEC NO=292378
##MOLFORM=C14 H20 O2
##MW=220
##$NIST SOURCE=MSDC
##XUNITS=M/Z
##YUNITS=RELATIVE INTENSITY
##XFACTOR=1
##YFACTOR=1
##FIRSTX=27
##LASTX=222
##FIRSTY=30
##MAXX=222
##MINX=27
##MAXY=9999
##MINY=10
##NPOINTS=57
##PEAK TABLE=(XY..XY)
27,30 28,10 29,20 35,30
36,250 38,80 39,160 41,180
42,50 43,440 44,100 45,70
50,70 51,110 52,50 53,40
55,200 56,210 57,140 59,60
62,50 63,190 64,70 65,681
66,50 67,40 69,150 77,240
78,40 79,140 83,40 84,280
85,180 89,420 90,791 91,3583
92,450 93,200 105,140 107,40
118,7317 119,7547 120,751 121,60
122,40 133,40 134,30 135,470
136,9999 137,3843 138,380 139,30
149,60 152,60 220,2452 221,430
222,40
##END=
