##TITLE=4-Ethylbenzoic acid, 4-hexadecyl ester
##JCAMP-DX=4.24
##DATA TYPE=MASS SPECTRUM
##ORIGIN=Zaikin V.G., TIPS RAS, Moscow, Russia
##OWNER=NIST Mass Spectrometry Data Center
Collection (C) 2014 copyright by the U.S. Secretary of Commerce
on behalf of the United States of America. All rights reserved.
##$NIST MASS SPEC NO=292203
##MOLFORM=C25 H42 O2
##MW=374
##$NIST SOURCE=MSDC
##XUNITS=M/Z
##YUNITS=RELATIVE INTENSITY
##XFACTOR=1
##YFACTOR=1
##FIRSTX=29
##LASTX=331
##FIRSTY=50
##MAXX=331
##MINX=29
##MAXY=9999
##MINY=20
##NPOINTS=86
##PEAK TABLE=(XY..XY)
29,50 39,50 41,250 42,70
43,280 51,30 53,40 54,70
55,530 56,270 57,460 64,30
65,40 67,150 68,130 69,581
70,420 71,330 77,230 78,50
79,500 80,40 81,140 82,250
83,801 84,430 85,270 89,40
90,60 91,100 95,80 96,280
97,991 98,360 99,110 102,30
103,290 104,120 105,911 106,110
107,90 109,40 110,170 111,761
112,280 113,50 118,30 123,50
124,110 125,450 126,210 127,30
131,100 132,60 133,9999 134,1101
135,440 136,50 137,30 138,80
139,210 140,160 148,210 149,80
150,821 151,9188 152,1071 153,230
154,130 161,20 162,40 166,30
167,80 168,80 180,30 181,120
182,70 195,40 196,190 197,30
205,40 224,1722 225,300 241,300
242,50 331,30
##END=
