##TITLE=5-Bromovaleric acid, tetradecyl ester
##JCAMP-DX=4.24
##DATA TYPE=MASS SPECTRUM
##ORIGIN=Zaikin V.G., TIPS RAS, Moscow, Russia
##OWNER=NIST Mass Spectrometry Data Center
Collection (C) 2014 copyright by the U.S. Secretary of Commerce
on behalf of the United States of America. All rights reserved.
##$NIST MASS SPEC NO=292291
##MOLFORM=C19 H37 Br O2
##MW=376
##$NIST SOURCE=MSDC
##XUNITS=M/Z
##YUNITS=RELATIVE INTENSITY
##XFACTOR=1
##YFACTOR=1
##FIRSTX=26
##LASTX=311
##FIRSTY=180
##MAXX=311
##MINX=26
##MAXY=9999
##MINY=20
##NPOINTS=113
##PEAK TABLE=(XY..XY)
26,180 27,1031 28,20 29,2192
30,50 31,50 36,170 38,80
39,791 40,170 41,4694 42,1491
43,6326 44,340 45,60 50,30
51,40 52,30 53,390 54,1021
55,9999 56,4294 57,6526 58,270
59,290 60,40 65,30 66,80
67,1031 68,1541 69,5185 70,3733
71,3173 72,160 73,581 74,40
77,30 79,160 80,210 81,641
82,2272 83,5815 84,2582 85,1862
86,110 87,60 91,350 93,120
95,260 96,911 97,4244 98,1591
99,410 100,350 101,4054 102,260
103,190 107,80 109,180 110,410
111,2192 112,1031 113,220 115,40
116,30 119,901 120,50 121,290
123,30 124,210 125,1031 126,671
127,120 129,30 135,941 136,490
137,3753 138,370 139,1091 140,410
141,80 152,50 153,160 154,240
155,50 157,160 162,30 163,1031
164,80 165,1021 166,80 167,80
168,581 169,90 180,410 181,2863
182,861 183,2823 184,130 192,110
193,30 194,50 196,601 197,100
207,60 209,60 236,30 238,30
241,140 255,210 256,30 297,60
311,70
##END=
