##TITLE=m-Toluic acid, hexadecyl ester
##JCAMP-DX=4.24
##DATA TYPE=MASS SPECTRUM
##ORIGIN=Zaikin V.G., TIPS RAS, Moscow, Russia
##OWNER=NIST Mass Spectrometry Data Center
Collection (C) 2014 copyright by the U.S. Secretary of Commerce
on behalf of the United States of America. All rights reserved.
##$NIST MASS SPEC NO=292362
##MOLFORM=C24 H40 O2
##MW=360
##$NIST SOURCE=MSDC
##XUNITS=M/Z
##YUNITS=RELATIVE INTENSITY
##XFACTOR=1
##YFACTOR=1
##FIRSTX=26
##LASTX=361
##FIRSTY=100
##MAXX=361
##MINX=26
##MAXY=9999
##MINY=20
##NPOINTS=71
##PEAK TABLE=(XY..XY)
26,100 27,340 28,40 29,751
36,50 38,30 39,430 40,90
41,2032 42,510 43,2602 44,170
50,50 51,80 52,30 53,130
54,410 55,2332 56,1011 57,1581
58,60 63,110 64,40 65,611
66,60 67,500 68,530 69,1461
70,771 71,540 77,130 79,60
81,250 82,460 83,1111 84,440
85,260 89,160 90,190 91,2682
92,390 93,611 94,50 95,120
96,210 97,791 98,230 99,40
105,60 109,40 110,70 111,340
112,130 118,80 119,4624 120,460
121,50 124,30 125,130 126,70
135,70 136,7076 137,9999 138,831
139,90 140,40 149,60 196,40
224,140 360,50 361,20
##END=
