##TITLE=o-Methoxybenzoic acid, 2-isopropoxyphenyl ester
##JCAMP-DX=4.24
##DATA TYPE=MASS SPECTRUM
##ORIGIN=Zaikin V.G., TIPS RAS, Moscow, Russia
##OWNER=NIST Mass Spectrometry Data Center
Collection (C) 2014 copyright by the U.S. Secretary of Commerce
on behalf of the United States of America. All rights reserved.
##$NIST MASS SPEC NO=292619
##MOLFORM=C17 H18 O4
##MW=286
##$NIST SOURCE=MSDC
##XUNITS=M/Z
##YUNITS=RELATIVE INTENSITY
##XFACTOR=1
##YFACTOR=1
##FIRSTX=28
##LASTX=287
##FIRSTY=10
##MAXX=287
##MINX=28
##MAXY=9999
##MINY=10
##NPOINTS=26
##PEAK TABLE=(XY..XY)
28,10 39,30 41,40 43,40
51,60 52,50 63,50 64,80
65,30 76,50 77,711 78,60
79,50 81,90 92,390 93,40
105,60 109,110 110,60 120,90
121,60 135,9999 136,771 137,60
286,290 287,50
##END=
