##TITLE=m-Toluic acid, pentadecyl ester
##JCAMP-DX=4.24
##DATA TYPE=MASS SPECTRUM
##ORIGIN=Zaikin V.G., TIPS RAS, Moscow, Russia
##OWNER=NIST Mass Spectrometry Data Center
Collection (C) 2014 copyright by the U.S. Secretary of Commerce
on behalf of the United States of America. All rights reserved.
##$NIST MASS SPEC NO=292361
##MOLFORM=C23 H38 O2
##MW=346
##$NIST SOURCE=MSDC
##XUNITS=M/Z
##YUNITS=RELATIVE INTENSITY
##XFACTOR=1
##YFACTOR=1
##FIRSTX=26
##LASTX=346
##FIRSTY=30
##MAXX=346
##MINX=26
##MAXY=9999
##MINY=30
##NPOINTS=61
##PEAK TABLE=(XY..XY)
26,30 27,100 28,40 29,220
39,130 41,641 42,160 43,801
51,30 53,50 54,140 55,861
56,390 57,571 63,40 65,270
66,30 67,200 68,230 69,661
70,380 71,240 77,50 81,110
82,230 83,631 84,270 85,130
89,90 90,110 91,1772 92,240
93,380 94,30 95,60 96,120
97,520 98,170 105,30 110,50
111,250 112,110 118,60 119,4864
120,410 121,40 125,110 126,70
135,50 136,8728 137,9999 138,901
139,90 140,40 149,60 154,30
177,30 182,70 210,230 211,30
346,80
##END=
