##TITLE=2,3,4-Trifluorobenzoic acid, 2-methyloct-5-yn-4-yl ester
##JCAMP-DX=4.24
##DATA TYPE=MASS SPECTRUM
##ORIGIN=Zaikin V.G., TIPS RAS, Moscow, Russia
##OWNER=NIST Mass Spectrometry Data Center
Collection (C) 2014 copyright by the U.S. Secretary of Commerce
on behalf of the United States of America. All rights reserved.
##$NIST MASS SPEC NO=292556
##MOLFORM=C16 H17 F3 O2
##MW=298
##$NIST SOURCE=MSDC
##XUNITS=M/Z
##YUNITS=RELATIVE INTENSITY
##XFACTOR=1
##YFACTOR=1
##FIRSTX=26
##LASTX=283
##FIRSTY=40
##MAXX=283
##MINX=26
##MAXY=9999
##MINY=30
##NPOINTS=71
##PEAK TABLE=(XY..XY)
26,40 27,480 28,170 29,440
31,30 36,130 38,70 39,440
40,90 41,921 42,70 43,691
44,90 50,50 51,110 52,90
53,230 54,30 55,390 56,60
57,170 61,30 62,60 63,60
65,170 66,100 67,210 68,80
69,260 75,40 77,350 78,80
79,1041 80,270 81,691 82,50
83,100 91,450 92,90 93,1301
94,230 95,80 97,50 98,50
105,110 107,1391 108,110 111,30
112,70 121,50 122,360 123,60
124,40 130,50 131,1221 132,160
139,170 159,9999 160,711 161,40
176,510 177,70 213,40 227,80
228,90 241,70 242,70 255,1391
256,220 269,40 283,60
##END=
