##TITLE=trans-(3-Trifluoromethyl)cinnamin acid, undecyl ester
##JCAMP-DX=4.24
##DATA TYPE=MASS SPECTRUM
##ORIGIN=Zaikin V.G., TIPS RAS, Moscow, Russia
##OWNER=NIST Mass Spectrometry Data Center
Collection (C) 2014 copyright by the U.S. Secretary of Commerce
on behalf of the United States of America. All rights reserved.
##$NIST MASS SPEC NO=292264
##MOLFORM=C21 H29 F3 O2
##MW=370
##$NIST SOURCE=MSDC
##XUNITS=M/Z
##YUNITS=RELATIVE INTENSITY
##XFACTOR=1
##YFACTOR=1
##FIRSTX=26
##LASTX=372
##FIRSTY=40
##MAXX=372
##MINX=26
##MAXY=9999
##MINY=10
##NPOINTS=166
##PEAK TABLE=(XY..XY)
26,40 27,190 28,210 29,380
31,10 32,10 37,10 38,20
39,200 40,40 41,1011 42,330
43,1111 44,40 45,10 50,60
51,70 52,20 53,80 54,210
55,1411 56,891 57,721 58,30
62,10 63,40 65,10 66,20
67,290 68,410 69,1241 70,901
71,360 72,20 73,10 74,50
75,130 76,70 77,40 79,20
80,10 81,140 82,420 83,1181
84,671 85,180 86,10 87,10
89,10 90,10 91,50 93,10
94,10 95,160 96,230 97,1101
98,370 99,50 100,40 101,100
102,450 103,90 107,10 109,60
110,100 111,410 112,170 113,30
114,10 115,10 118,10 119,80
120,120 121,30 122,10 123,30
124,60 125,150 126,290 127,80
128,10 129,20 131,80 132,10
133,40 138,10 140,20 141,10
143,10 144,20 145,270 146,60
147,310 148,30 149,20 150,20
151,2382 152,440 153,90 154,220
155,30 159,120 160,20 165,10
167,20 168,60 169,250 170,420
171,2272 172,721 173,100 175,70
177,10 179,30 180,60 181,140
182,20 183,10 184,10 185,20
186,30 187,20 188,120 189,10
193,10 195,10 196,20 197,981
198,350 199,9999 200,981 201,90
202,10 211,80 212,30 213,10
214,30 215,2362 216,8167 217,7867
218,861 219,80 225,10 227,10
229,10 230,30 231,10 237,10
242,10 243,30 244,20 254,10
256,10 257,581 258,90 271,500
272,90 273,10 298,10 310,10
351,90 352,20 353,20 370,460
371,120 372,10
##END=
