##TITLE=2,3,4-Trifluorobenzoic acid, 2,7-dimethyloct-7-en-5-yn-4-yl ester
##JCAMP-DX=4.24
##DATA TYPE=MASS SPECTRUM
##ORIGIN=Zaikin V.G., TIPS RAS, Moscow, Russia
##OWNER=NIST Mass Spectrometry Data Center
Collection (C) 2014 copyright by the U.S. Secretary of Commerce
on behalf of the United States of America. All rights reserved.
##$NIST MASS SPEC NO=292557
##MOLFORM=C17 H17 F3 O2
##MW=310
##$NIST SOURCE=MSDC
##XUNITS=M/Z
##YUNITS=RELATIVE INTENSITY
##XFACTOR=1
##YFACTOR=1
##FIRSTX=26
##LASTX=310
##FIRSTY=40
##MAXX=310
##MINX=26
##MAXY=9999
##MINY=30
##NPOINTS=78
##PEAK TABLE=(XY..XY)
26,40 27,480 28,120 29,310
31,30 36,130 38,80 39,440
40,90 41,921 42,60 43,661
44,100 50,80 51,200 52,110
53,180 55,200 56,30 57,200
61,30 62,70 63,110 64,40
65,220 66,70 67,140 68,90
69,130 74,30 75,50 77,460
78,120 79,370 80,50 81,540
82,40 83,40 85,30 91,891
92,320 93,300 94,40 95,80
96,40 103,60 104,40 105,190
106,40 107,80 109,120 111,30
112,70 117,80 119,1261 120,120
123,30 130,40 131,1121 132,150
133,80 134,210 135,40 136,30
151,70 159,9999 160,711 161,30
176,561 177,50 225,30 239,30
253,30 254,40 267,3143 268,470
269,40 310,140
##END=
