##TITLE=p-Toluic acid, 2-isopropoxyphenyl ester
##JCAMP-DX=4.24
##DATA TYPE=MASS SPECTRUM
##ORIGIN=Zaikin V.G., TIPS RAS, Moscow, Russia
##OWNER=NIST Mass Spectrometry Data Center
Collection (C) 2014 copyright by the U.S. Secretary of Commerce
on behalf of the United States of America. All rights reserved.
##$NIST MASS SPEC NO=292645
##MOLFORM=C17 H18 O3
##MW=270
##$NIST SOURCE=MSDC
##XUNITS=M/Z
##YUNITS=RELATIVE INTENSITY
##XFACTOR=1
##YFACTOR=1
##FIRSTX=27
##LASTX=271
##FIRSTY=40
##MAXX=271
##MINX=27
##MAXY=9999
##MINY=30
##NPOINTS=26
##PEAK TABLE=(XY..XY)
27,40 28,30 39,80 41,80
43,50 51,40 52,60 63,60
64,30 65,330 80,30 81,100
89,100 90,100 91,1431 92,120
109,110 110,90 118,50 119,9999
120,761 121,70 136,30 228,40
270,671 271,120
##END=
