##TITLE=m-Toluic acid, tridecyl ester
##JCAMP-DX=4.24
##DATA TYPE=MASS SPECTRUM
##ORIGIN=Zaikin V.G., TIPS RAS, Moscow, Russia
##OWNER=NIST Mass Spectrometry Data Center
Collection (C) 2014 copyright by the U.S. Secretary of Commerce
on behalf of the United States of America. All rights reserved.
##$NIST MASS SPEC NO=292359
##MOLFORM=C21 H34 O2
##MW=318
##$NIST SOURCE=MSDC
##XUNITS=M/Z
##YUNITS=RELATIVE INTENSITY
##XFACTOR=1
##YFACTOR=1
##FIRSTX=27
##LASTX=319
##FIRSTY=90
##MAXX=319
##MINX=27
##MAXY=9999
##MINY=20
##NPOINTS=60
##PEAK TABLE=(XY..XY)
27,90 28,40 29,200 39,130
41,591 42,150 43,631 51,30
53,40 54,120 55,711 56,380
57,400 63,50 65,300 66,20
67,160 68,190 69,571 70,390
71,160 77,60 81,80 82,180
83,500 84,260 85,90 89,110
90,130 91,1962 92,260 93,370
94,30 95,30 96,90 97,400
98,160 105,30 110,40 111,200
112,100 118,70 119,5085 120,440
121,40 125,80 126,60 135,50
136,8578 137,9999 138,791 139,80
140,30 149,70 154,90 177,30
182,280 183,40 318,130 319,30
##END=
