##TITLE=m-Toluic acid, dodec-9-ynyl ester
##JCAMP-DX=4.24
##DATA TYPE=MASS SPECTRUM
##ORIGIN=Zaikin V.G., TIPS RAS, Moscow, Russia
##OWNER=NIST Mass Spectrometry Data Center
Collection (C) 2014 copyright by the U.S. Secretary of Commerce
on behalf of the United States of America. All rights reserved.
##$NIST MASS SPEC NO=292238
##MOLFORM=C20 H28 O2
##MW=300
##$NIST SOURCE=MSDC
##XUNITS=M/Z
##YUNITS=RELATIVE INTENSITY
##XFACTOR=1
##YFACTOR=1
##FIRSTX=26
##LASTX=300
##FIRSTY=60
##MAXX=300
##MINX=26
##MAXY=9999
##MINY=30
##NPOINTS=85
##PEAK TABLE=(XY..XY)
26,60 27,180 28,90 29,240
36,40 38,30 39,520 40,140
41,1411 42,160 43,270 44,60
50,80 51,170 52,110 53,420
54,390 55,1461 56,120 57,80
62,40 63,170 64,60 65,1051
66,510 67,2372 68,4134 69,611
70,40 71,30 77,500 78,170
79,2062 80,861 81,1341 82,2592
83,400 84,30 89,290 90,330
91,4944 92,641 93,2382 94,741
95,931 96,601 97,791 98,60
105,200 106,50 107,1121 108,550
109,380 110,100 117,30 118,140
119,9999 120,901 121,1111 122,550
123,140 128,30 129,30 131,30
133,40 134,40 135,1261 136,1661
137,5615 138,500 139,40 143,30
148,30 149,160 150,30 157,30
163,50 164,731 165,100 219,400
220,60 233,831 234,130 285,30
300,70
##END=
