##TITLE=2,3,4-Trifluorobenzoic acid, undec-2-enyl ester
##JCAMP-DX=4.24
##DATA TYPE=MASS SPECTRUM
##ORIGIN=Zaikin V.G., TIPS RAS, Moscow, Russia
##OWNER=NIST Mass Spectrometry Data Center
Collection (C) 2014 copyright by the U.S. Secretary of Commerce
on behalf of the United States of America. All rights reserved.
##$NIST MASS SPEC NO=292559
##MOLFORM=C18 H23 F3 O2
##MW=328
##$NIST SOURCE=MSDC
##XUNITS=M/Z
##YUNITS=RELATIVE INTENSITY
##XFACTOR=1
##YFACTOR=1
##FIRSTX=27
##LASTX=271
##FIRSTY=80
##MAXX=271
##MINX=27
##MAXY=9999
##MINY=40
##NPOINTS=53
##PEAK TABLE=(XY..XY)
27,80 29,160 39,110 41,460
42,90 43,390 53,100 54,681
55,661 56,210 57,260 66,40
67,460 68,430 69,390 70,160
71,60 79,70 80,40 81,490
82,520 83,250 84,60 95,390
96,430 97,180 98,40 109,180
110,260 111,50 123,80 124,320
125,40 131,520 132,70 152,290
153,40 159,9999 160,641 161,40
169,140 174,40 176,70 177,210
187,90 216,60 217,40 229,80
230,110 231,80 244,40 257,40
271,40
##END=
