##TITLE=3-Trifluoromethylcinnamic acid, 3,5-difluorophenyl ester
##JCAMP-DX=4.24
##DATA TYPE=MASS SPECTRUM
##ORIGIN=Zaikin V.G., TIPS RAS, Moscow, Russia
##OWNER=NIST Mass Spectrometry Data Center
Collection (C) 2014 copyright by the U.S. Secretary of Commerce
on behalf of the United States of America. All rights reserved.
##$NIST MASS SPEC NO=292633
##MOLFORM=C16 H9 F5 O2
##MW=328
##$NIST SOURCE=MSDC
##XUNITS=M/Z
##YUNITS=RELATIVE INTENSITY
##XFACTOR=1
##YFACTOR=1
##FIRSTX=28
##LASTX=310
##FIRSTY=20
##MAXX=310
##MINX=28
##MAXY=9999
##MINY=20
##NPOINTS=37
##PEAK TABLE=(XY..XY)
28,20 50,50 51,90 57,40
63,50 69,30 74,40 75,150
76,70 81,30 95,80 99,30
101,270 102,360 103,30 113,30
120,90 125,70 126,30 129,30
130,80 145,200 151,1742 152,220
169,160 170,140 171,1742 172,180
197,30 198,30 199,9999 200,941
201,70 215,80 216,100 309,280
310,50
##END=
