##TITLE=3-Fluorobenzoic acid, but-3-yn-2-yl ester
##JCAMP-DX=4.24
##DATA TYPE=MASS SPECTRUM
##ORIGIN=Zaikin V.G., TIPS RAS, Moscow, Russia
##OWNER=NIST Mass Spectrometry Data Center
Collection (C) 2014 copyright by the U.S. Secretary of Commerce
on behalf of the United States of America. All rights reserved.
##$NIST MASS SPEC NO=292600
##MOLFORM=C11 H9 F O2
##MW=192
##$NIST SOURCE=MSDC
##XUNITS=M/Z
##YUNITS=RELATIVE INTENSITY
##XFACTOR=1
##YFACTOR=1
##FIRSTX=26
##LASTX=193
##FIRSTY=30
##MAXX=193
##MINX=26
##MAXY=9999
##MINY=20
##NPOINTS=40
##PEAK TABLE=(XY..XY)
26,30 27,270 28,20 39,50
41,40 43,30 44,60 50,240
51,250 52,380 53,1001 54,40
57,30 68,60 69,250 70,50
74,90 75,631 76,60 79,60
93,30 94,150 95,2232 96,250
97,90 122,30 123,9999 124,781
125,40 127,30 133,90 140,911
141,170 146,70 147,120 149,120
163,70 164,80 192,1141 193,130
##END=
