##TITLE=4-Ethylbenzoic acid, heptadecyl ester
##JCAMP-DX=4.24
##DATA TYPE=MASS SPECTRUM
##ORIGIN=Zaikin V.G., TIPS RAS, Moscow, Russia
##OWNER=NIST Mass Spectrometry Data Center
Collection (C) 2014 copyright by the U.S. Secretary of Commerce
on behalf of the United States of America. All rights reserved.
##$NIST MASS SPEC NO=292204
##MOLFORM=C26 H44 O2
##MW=388
##$NIST SOURCE=MSDC
##XUNITS=M/Z
##YUNITS=RELATIVE INTENSITY
##XFACTOR=1
##YFACTOR=1
##FIRSTX=29
##LASTX=389
##FIRSTY=70
##MAXX=389
##MINX=29
##MAXY=9999
##MINY=20
##NPOINTS=63
##PEAK TABLE=(XY..XY)
29,70 39,40 41,220 42,50
43,350 51,40 54,60 55,410
56,150 57,330 65,30 67,100
68,130 69,340 70,170 71,160
75,20 77,140 78,50 79,410
80,30 81,80 82,130 83,360
84,120 85,110 89,30 90,60
91,190 95,30 97,300 98,90
99,30 103,110 104,80 105,1331
106,220 107,100 110,40 111,200
112,60 123,30 125,100 126,50
131,50 132,40 133,2772 134,310
135,350 136,40 139,30 140,30
148,30 149,40 150,5965 151,9999
152,1041 153,100 210,50 238,140
371,30 388,330 389,100
##END=
