##TITLE=Phenylacetic acid, 3-chloroprop-2-enyl ester
##JCAMP-DX=4.24
##DATA TYPE=MASS SPECTRUM
##ORIGIN=Zaikin V.G., TIPS RAS, Moscow, Russia
##OWNER=NIST Mass Spectrometry Data Center
Collection (C) 2014 copyright by the U.S. Secretary of Commerce
on behalf of the United States of America. All rights reserved.
##$NIST MASS SPEC NO=292539
##MOLFORM=C11 H11 Cl O2
##MW=210
##$NIST SOURCE=MSDC
##XUNITS=M/Z
##YUNITS=RELATIVE INTENSITY
##XFACTOR=1
##YFACTOR=1
##FIRSTX=26
##LASTX=213
##FIRSTY=40
##MAXX=213
##MINX=26
##MAXY=9999
##MINY=30
##NPOINTS=47
##PEAK TABLE=(XY..XY)
26,40 27,70 28,70 36,200
38,130 39,571 40,50 41,130
44,160 45,40 49,140 50,90
51,190 52,70 61,30 62,90
63,270 64,100 65,851 66,50
69,130 75,1361 76,50 77,460
78,70 79,80 89,470 90,420
91,9999 92,1591 93,90 105,40
118,430 119,310 120,30 129,80
136,390 137,30 154,110 156,30
164,50 175,1041 176,120 210,911
211,110 212,300 213,30
##END=
