##TITLE=2,3,4-Trifluorobenzoic acid, 3-methylbut-2-enyl ester
##JCAMP-DX=4.24
##DATA TYPE=MASS SPECTRUM
##ORIGIN=Zaikin V.G., TIPS RAS, Moscow, Russia
##OWNER=NIST Mass Spectrometry Data Center
Collection (C) 2014 copyright by the U.S. Secretary of Commerce
on behalf of the United States of America. All rights reserved.
##$NIST MASS SPEC NO=292552
##MOLFORM=C12 H11 F3 O2
##MW=244
##$NIST SOURCE=MSDC
##XUNITS=M/Z
##YUNITS=RELATIVE INTENSITY
##XFACTOR=1
##YFACTOR=1
##FIRSTX=27
##LASTX=244
##FIRSTY=70
##MAXX=244
##MINX=27
##MAXY=9999
##MINY=30
##NPOINTS=38
##PEAK TABLE=(XY..XY)
27,70 28,30 29,70 36,50
39,190 40,120 41,921 42,100
44,30 51,40 52,30 53,450
54,50 55,50 57,120 62,40
65,30 66,30 67,1581 68,3333
69,1672 70,90 75,30 80,30
81,581 82,30 83,40 85,370
112,60 130,50 131,1311 132,150
159,9999 160,671 161,50 176,200
177,90 244,140
##END=
