##TITLE=o-Anisic acid, hex-4-yn-3-yl ester
##JCAMP-DX=4.24
##DATA TYPE=MASS SPECTRUM
##ORIGIN=Zaikin V.G., TIPS RAS, Moscow, Russia
##OWNER=NIST Mass Spectrometry Data Center
Collection (C) 2014 copyright by the U.S. Secretary of Commerce
on behalf of the United States of America. All rights reserved.
##$NIST MASS SPEC NO=292574
##MOLFORM=C14 H16 O3
##MW=232
##$NIST SOURCE=MSDC
##XUNITS=M/Z
##YUNITS=RELATIVE INTENSITY
##XFACTOR=1
##YFACTOR=1
##FIRSTX=28
##LASTX=232
##FIRSTY=30
##MAXX=232
##MINX=28
##MAXY=9999
##MINY=30
##NPOINTS=49
##PEAK TABLE=(XY..XY)
28,30 39,90 41,120 50,40
51,120 52,40 53,230 55,30
63,100 64,110 65,100 66,40
67,30 76,60 77,791 78,110
79,731 80,240 81,270 92,400
93,40 97,100 105,380 106,60
107,50 108,70 120,100 121,120
122,30 123,360 124,30 133,50
134,60 135,9999 136,731 137,80
145,30 152,150 153,280 159,80
162,60 173,170 175,40 176,40
203,130 204,450 205,50 217,80
232,80
##END=
