##TITLE=1-Methyl-2-dimethyl-(allyl)-silyloxybenzene
##JCAMP-DX=4.24
##DATA TYPE=MASS SPECTRUM
##ORIGIN=Zaikin V.G., TIPS RAS, Moscow, Russia
##OWNER=NIST Mass Spectrometry Data Center
Collection (C) 2014 copyright by the U.S. Secretary of Commerce
on behalf of the United States of America. All rights reserved.
##$NIST MASS SPEC NO=292677
##MOLFORM=C12 H18 O Si
##MW=206
##$NIST SOURCE=MSDC
##XUNITS=M/Z
##YUNITS=RELATIVE INTENSITY
##XFACTOR=1
##YFACTOR=1
##FIRSTX=27
##LASTX=208
##FIRSTY=40
##MAXX=208
##MINX=27
##MAXY=9999
##MINY=20
##NPOINTS=80
##PEAK TABLE=(XY..XY)
27,40 28,20 31,50 36,110
38,30 39,170 41,80 43,230
44,170 45,150 47,60 50,30
51,80 52,50 53,30 55,50
57,30 59,490 60,30 61,90
63,70 65,360 66,20 67,90
68,50 69,40 71,50 73,30
74,90 75,561 76,40 77,190
78,50 79,150 81,60 82,550
83,120 89,160 90,80 91,4954
92,400 93,30 94,30 95,50
97,30 99,30 103,90 105,180
107,40 109,30 110,40 115,30
121,110 123,30 130,60 131,50
133,80 134,30 135,2422 136,320
137,180 145,30 147,150 148,70
149,1351 150,200 151,130 161,110
163,601 164,290 165,9999 166,1481
167,440 168,30 175,30 191,200
192,50 206,2042 207,350 208,30
##END=
