##TITLE=2,6-Difluorobenzoic acid, octyl ester
##JCAMP-DX=4.24
##DATA TYPE=MASS SPECTRUM
##ORIGIN=Zaikin V.G., TIPS RAS, Moscow, Russia
##OWNER=NIST Mass Spectrometry Data Center
Collection (C) 2014 copyright by the U.S. Secretary of Commerce
on behalf of the United States of America. All rights reserved.
##$NIST MASS SPEC NO=292392
##MOLFORM=C15 H20 F2 O2
##MW=270
##$NIST SOURCE=MSDC
##XUNITS=M/Z
##YUNITS=RELATIVE INTENSITY
##XFACTOR=1
##YFACTOR=1
##FIRSTX=27
##LASTX=161
##FIRSTY=180
##MAXX=161
##MINX=27
##MAXY=9999
##MINY=10
##NPOINTS=42
##PEAK TABLE=(XY..XY)
27,180 28,10 29,310 39,170
40,30 41,761 42,420 43,621
44,70 53,60 54,110 55,881
56,881 57,310 62,40 63,370
67,110 68,180 69,801 70,1011
71,140 81,40 82,150 83,651
84,651 85,40 93,70 94,80
97,80 111,30 112,641 113,1141
114,210 140,60 141,9218 142,641
143,60 156,30 158,591 159,9999
160,651 161,50
##END=
