##TITLE=3-Trifluoromethylcinnamic acid, 2-isopropoxyphenyl ester
##JCAMP-DX=4.24
##DATA TYPE=MASS SPECTRUM
##ORIGIN=Zaikin V.G., TIPS RAS, Moscow, Russia
##OWNER=NIST Mass Spectrometry Data Center
Collection (C) 2014 copyright by the U.S. Secretary of Commerce
on behalf of the United States of America. All rights reserved.
##$NIST MASS SPEC NO=292638
##MOLFORM=C19 H17 F3 O3
##MW=350
##$NIST SOURCE=MSDC
##XUNITS=M/Z
##YUNITS=RELATIVE INTENSITY
##XFACTOR=1
##YFACTOR=1
##FIRSTX=27
##LASTX=351
##FIRSTY=40
##MAXX=351
##MINX=27
##MAXY=9999
##MINY=10
##NPOINTS=36
##PEAK TABLE=(XY..XY)
27,40 28,10 39,30 41,60
43,70 51,40 52,70 53,30
75,40 80,50 81,130 95,30
101,30 102,160 109,150 110,420
111,40 120,30 121,40 145,80
151,911 152,250 169,60 170,90
171,1041 172,110 198,30 199,9999
200,891 201,60 215,80 216,100
331,140 332,30 350,550 351,110
##END=
