##TITLE=p-Toluic acid, 2,6-dimethylnon-1-en-3-yn-5-yl ester
##JCAMP-DX=4.24
##DATA TYPE=MASS SPECTRUM
##ORIGIN=Zaikin V.G., TIPS RAS, Moscow, Russia
##OWNER=NIST Mass Spectrometry Data Center
Collection (C) 2014 copyright by the U.S. Secretary of Commerce
on behalf of the United States of America. All rights reserved.
##$NIST MASS SPEC NO=292507
##MOLFORM=C19 H24 O2
##MW=284
##$NIST SOURCE=MSDC
##XUNITS=M/Z
##YUNITS=RELATIVE INTENSITY
##XFACTOR=1
##YFACTOR=1
##FIRSTX=27
##LASTX=284
##FIRSTY=110
##MAXX=284
##MINX=27
##MAXY=9999
##MINY=30
##NPOINTS=66
##PEAK TABLE=(XY..XY)
27,110 28,40 29,110 39,200
40,30 41,360 42,30 43,210
50,30 51,100 52,50 53,120
55,140 63,110 64,40 65,520
66,60 67,80 69,130 77,370
78,110 79,220 80,30 81,70
82,100 83,60 89,130 90,130
91,2762 92,340 93,220 94,30
95,140 103,70 104,50 105,410
106,380 107,180 109,30 115,30
117,70 118,80 119,9999 120,1491
121,120 123,230 124,30 133,641
134,70 135,40 136,520 137,90
147,30 148,701 149,90 150,30
161,60 165,210 201,30 213,80
214,130 241,500 242,90 255,30
269,80 284,40
##END=
