##TITLE=4-Cyanobenzoic acid, 3,5-difluorophenyl ester
##JCAMP-DX=4.24
##DATA TYPE=MASS SPECTRUM
##ORIGIN=Zaikin V.G., TIPS RAS, Moscow, Russia
##OWNER=NIST Mass Spectrometry Data Center
Collection (C) 2014 copyright by the U.S. Secretary of Commerce
on behalf of the United States of America. All rights reserved.
##$NIST MASS SPEC NO=292655
##MOLFORM=C14 H7 F2 N O2
##MW=259
##$NIST SOURCE=MSDC
##XUNITS=M/Z
##YUNITS=RELATIVE INTENSITY
##XFACTOR=1
##YFACTOR=1
##FIRSTX=27
##LASTX=259
##FIRSTY=50
##MAXX=259
##MINX=27
##MAXY=9999
##MINY=30
##NPOINTS=31
##PEAK TABLE=(XY..XY)
27,50 28,40 36,30 38,30
39,40 44,40 50,250 51,440
52,70 57,70 62,30 63,110
74,110 75,691 76,400 77,30
81,60 82,40 99,50 100,40
101,440 102,3143 103,280 113,40
129,90 130,9999 131,851 132,50
147,240 151,60 259,200
##END=
