##TITLE=15-Trimethylsilyloxydehydroabietic acid, trimethylsilyl ester
##JCAMP-DX=4.24
##DATA TYPE=MASS SPECTRUM
##ORIGIN=K.Van den Berg ET AL. J.Mass Spectr., 35,512(2000)
##OWNER=NIST Mass Spectrometry Data Center
Collection (C) 2014 copyright by the U.S. Secretary of Commerce
on behalf of the United States of America. All rights reserved.
##$NIST MASS SPEC NO=292800
##MOLFORM=C26 H44 O3 Si2
##MW=460
##$NIST SOURCE=MSDC
##XUNITS=M/Z
##YUNITS=RELATIVE INTENSITY
##XFACTOR=1
##YFACTOR=1
##FIRSTX=41
##LASTX=461
##FIRSTY=90
##MAXX=461
##MINX=41
##MAXY=9999
##MINY=30
##NPOINTS=254
##PEAK TABLE=(XY..XY)
41,90 43,110 45,40 47,40
55,130 59,40 61,40 67,70
69,130 73,1672 74,120 75,741
76,30 77,90 78,30 79,70
81,90 86,40 90,30 91,110
94,40 95,70 96,40 97,30
100,40 101,40 102,30 103,30
105,130 107,90 108,30 109,40
110,30 115,40 116,30 117,190
118,40 120,90 121,30 122,30
123,30 125,30 126,30 127,30
128,40 129,90 130,70 131,230
132,90 141,30 142,70 143,130
144,70 145,130 146,50 147,230
148,30 149,40 150,40 151,70
152,30 153,40 154,50 155,90
156,70 157,130 158,30 159,190
160,30 161,120 164,90 165,90
166,80 167,40 168,40 170,120
171,200 172,70 173,130 174,30
175,90 177,30 178,40 180,30
181,70 183,130 184,80 185,90
186,30 187,120 188,30 189,90
190,70 191,90 192,50 193,50
195,50 196,40 197,70 198,30
199,30 200,30 201,70 203,230
204,80 205,30 206,30 208,30
209,30 212,70 213,70 214,30
215,200 216,50 217,70 218,70
219,70 220,50 221,50 222,30
224,90 225,90 226,70 227,50
230,200 231,90 232,90 234,30
236,40 237,440 238,120 239,120
240,30 241,50 242,30 244,280
245,70 246,90 247,50 248,70
249,30 251,40 252,30 253,130
254,70 256,280 257,1021 258,280
259,130 260,30 262,90 263,50
264,30 266,30 267,30 271,70
272,320 273,340 274,70 276,120
277,30 278,50 281,30 282,30
283,30 285,70 286,50 287,30
289,160 290,120 291,70 295,30
296,30 297,30 299,30 301,40
302,30 303,340 304,70 305,30
309,30 310,70 311,30 312,90
313,120 314,50 315,30 317,120
318,30 319,30 320,30 321,30
322,30 326,50 327,450 328,120
329,30 330,30 331,70 332,540
333,230 334,30 336,30 338,30
341,50 342,30 343,30 345,30
346,30 347,90 348,120 349,50
350,50 351,30 352,30 353,30
354,30 355,210 356,50 357,90
358,30 359,50 361,130 362,30
363,30 364,30 365,30 367,30
368,30 369,30 370,230 371,190
372,120 373,70 374,30 375,280
376,120 377,50 384,30 385,30
390,641 391,160 392,70 393,120
394,30 444,90 445,9999 446,3964
447,1661 448,340 449,90 459,50
460,210 461,90
##END=
