##TITLE=o-Toluic acid, heptadecyl ester
##JCAMP-DX=4.24
##DATA TYPE=MASS SPECTRUM
##ORIGIN=Zaikin V.G., TIPS RAS, Moscow, Russia
##OWNER=NIST Mass Spectrometry Data Center
Collection (C) 2014 copyright by the U.S. Secretary of Commerce
on behalf of the United States of America. All rights reserved.
##$NIST MASS SPEC NO=292231
##MOLFORM=C25 H42 O2
##MW=374
##$NIST SOURCE=MSDC
##XUNITS=M/Z
##YUNITS=RELATIVE INTENSITY
##XFACTOR=1
##YFACTOR=1
##FIRSTX=26
##LASTX=375
##FIRSTY=30
##MAXX=375
##MINX=26
##MAXY=9999
##MINY=20
##NPOINTS=84
##PEAK TABLE=(XY..XY)
26,30 27,110 28,90 29,230
36,80 38,30 39,170 40,30
41,711 42,170 43,1131 44,130
50,30 51,40 53,50 54,110
55,951 56,340 57,1191 58,50
59,50 63,60 65,260 66,30
67,190 68,180 69,671 70,290
71,711 72,30 73,20 77,120
79,70 81,120 82,220 83,571
84,200 85,490 86,30 89,130
90,270 91,1391 92,190 93,210
94,30 95,70 96,150 97,510
98,130 99,100 105,100 109,30
110,60 111,280 112,90 113,50
118,2662 119,2863 120,290 121,30
123,30 124,40 125,140 126,70
127,30 133,60 134,30 135,260
136,9999 137,6116 138,571 139,90
140,50 149,40 153,30 154,30
191,50 193,30 210,60 238,160
239,30 282,40 374,581 375,160
##END=
