##TITLE=m-Methoxybenzoic acid, 2-methylphenyl ester
##JCAMP-DX=4.24
##DATA TYPE=MASS SPECTRUM
##ORIGIN=Zaikin V.G., TIPS RAS, Moscow, Russia
##OWNER=NIST Mass Spectrometry Data Center
Collection (C) 2014 copyright by the U.S. Secretary of Commerce
on behalf of the United States of America. All rights reserved.
##$NIST MASS SPEC NO=292628
##MOLFORM=C15 H14 O3
##MW=242
##$NIST SOURCE=MSDC
##XUNITS=M/Z
##YUNITS=RELATIVE INTENSITY
##XFACTOR=1
##YFACTOR=1
##FIRSTX=28
##LASTX=243
##FIRSTY=20
##MAXX=243
##MINX=28
##MAXY=9999
##MINY=20
##NPOINTS=25
##PEAK TABLE=(XY..XY)
28,20 39,60 50,60 51,80
52,30 53,40 63,170 64,280
65,70 76,120 77,971 78,140
79,80 91,30 92,701 93,50
104,30 107,1481 108,160 135,9999
136,771 137,60 152,80 242,601
243,100
##END=
