##TITLE=5-Chlorovaleric acid, 2,6-dimethylnon-1-en-3-yn-5-yl ester
##JCAMP-DX=4.24
##DATA TYPE=MASS SPECTRUM
##ORIGIN=Zaikin V.G., TIPS RAS, Moscow, Russia
##OWNER=NIST Mass Spectrometry Data Center
Collection (C) 2014 copyright by the U.S. Secretary of Commerce
on behalf of the United States of America. All rights reserved.
##$NIST MASS SPEC NO=292480
##MOLFORM=C16 H25 Cl O2
##MW=284
##$NIST SOURCE=MSDC
##XUNITS=M/Z
##YUNITS=RELATIVE INTENSITY
##XFACTOR=1
##YFACTOR=1
##FIRSTX=26
##LASTX=286
##FIRSTY=160
##MAXX=286
##MINX=26
##MAXY=9999
##MINY=10
##NPOINTS=130
##PEAK TABLE=(XY..XY)
26,160 27,1121 28,10 29,1421
30,30 35,30 36,330 38,170
39,1001 40,250 41,2132 42,410
43,1651 44,300 45,110 49,90
50,120 51,380 52,230 53,631
54,170 55,6126 56,370 57,280
58,60 59,40 60,100 62,90
63,370 64,80 65,571 66,280
67,450 68,50 69,701 70,120
71,350 73,290 74,50 75,60
76,50 77,1401 78,731 79,1011
80,160 81,601 82,591 83,891
84,110 85,40 87,40 89,80
90,50 91,6776 92,821 93,2242
94,230 95,1471 96,510 97,170
98,60 99,60 100,90 101,70
102,30 103,250 104,160 105,1501
106,1441 107,1051 108,180 109,3113
110,380 111,370 112,30 115,110
116,40 117,230 118,120 119,9158
120,731 121,2873 122,190 123,2172
124,9999 125,991 126,70 131,80
133,2502 134,310 135,80 136,561
137,1511 138,230 139,30 141,40
147,150 148,1972 149,430 150,60
151,1341 152,160 161,40 165,1091
166,2132 167,310 168,30 179,70
185,110 186,30 187,40 193,500
194,70 201,40 213,430 214,230
215,170 216,70 241,3243 242,550
243,1131 244,170 249,40 255,70
269,500 270,80 271,160 284,270
285,60 286,80
##END=
