##TITLE=m-Toluic acid, hex-4-yn-3-yl ester
##JCAMP-DX=4.24
##DATA TYPE=MASS SPECTRUM
##ORIGIN=Zaikin V.G., TIPS RAS, Moscow, Russia
##OWNER=NIST Mass Spectrometry Data Center
Collection (C) 2014 copyright by the U.S. Secretary of Commerce
on behalf of the United States of America. All rights reserved.
##$NIST MASS SPEC NO=292496
##MOLFORM=C14 H16 O2
##MW=216
##$NIST SOURCE=MSDC
##XUNITS=M/Z
##YUNITS=RELATIVE INTENSITY
##XFACTOR=1
##YFACTOR=1
##FIRSTX=27
##LASTX=216
##FIRSTY=140
##MAXX=216
##MINX=27
##MAXY=9999
##MINY=20
##NPOINTS=56
##PEAK TABLE=(XY..XY)
27,140 28,20 29,60 38,70
39,390 40,60 41,370 43,40
44,70 50,80 51,160 52,100
53,420 54,30 55,60 62,40
63,170 64,50 65,791 66,110
67,40 69,60 75,30 77,230
78,50 79,1531 80,550 81,430
82,30 89,200 90,160 91,2162
92,230 93,80 97,300 118,50
119,9999 120,851 121,50 128,30
135,50 136,390 137,200 143,40
146,110 157,40 159,40 173,70
175,50 187,220 188,400 189,50
200,30 201,500 202,60 216,180
##END=
