##TITLE=p-Toluic acid, tridecyl ester
##JCAMP-DX=4.24
##DATA TYPE=MASS SPECTRUM
##ORIGIN=Zaikin V.G., TIPS RAS, Moscow, Russia
##OWNER=NIST Mass Spectrometry Data Center
Collection (C) 2014 copyright by the U.S. Secretary of Commerce
on behalf of the United States of America. All rights reserved.
##$NIST MASS SPEC NO=292405
##MOLFORM=C21 H34 O2
##MW=318
##$NIST SOURCE=MSDC
##XUNITS=M/Z
##YUNITS=RELATIVE INTENSITY
##XFACTOR=1
##YFACTOR=1
##FIRSTX=26
##LASTX=318
##FIRSTY=30
##MAXX=318
##MINX=26
##MAXY=9999
##MINY=20
##NPOINTS=59
##PEAK TABLE=(XY..XY)
26,30 27,100 28,20 29,220
39,150 40,30 41,631 42,170
43,671 44,40 51,30 53,50
54,130 55,761 56,400 57,430
63,50 65,330 66,30 67,170
68,200 69,581 70,390 71,160
77,60 81,80 82,190 83,480
84,250 85,80 89,110 90,130
91,1631 92,230 93,290 95,30
96,90 97,360 98,140 105,30
107,30 110,30 111,170 112,80
118,50 119,4564 120,400 121,40
125,60 126,40 135,30 136,6095
137,9999 138,731 139,70 149,40
154,60 182,160 318,50
##END=
