##TITLE=4-Butylbenzoic acid, 2,6-dimethylnon-1-en-3-yn-5-yl ester
##JCAMP-DX=4.24
##DATA TYPE=MASS SPECTRUM
##ORIGIN=Zaikin V.G., TIPS RAS, Moscow, Russia
##OWNER=NIST Mass Spectrometry Data Center
Collection (C) 2014 copyright by the U.S. Secretary of Commerce
on behalf of the United States of America. All rights reserved.
##$NIST MASS SPEC NO=292526
##MOLFORM=C22 H30 O2
##MW=326
##$NIST SOURCE=MSDC
##XUNITS=M/Z
##YUNITS=RELATIVE INTENSITY
##XFACTOR=1
##YFACTOR=1
##FIRSTX=26
##LASTX=326
##FIRSTY=40
##MAXX=326
##MINX=26
##MAXY=9999
##MINY=30
##NPOINTS=83
##PEAK TABLE=(XY..XY)
26,40 27,290 28,100 29,250
36,120 38,40 39,280 40,50
41,601 42,60 43,340 44,120
50,60 51,150 52,60 53,120
55,250 57,40 63,110 64,40
65,260 66,40 67,80 69,120
75,30 76,40 77,530 78,150
79,270 80,30 81,60 82,90
89,200 90,410 91,2112 92,821
93,200 94,30 95,70 102,40
103,190 104,110 105,450 106,280
107,360 108,30 115,100 116,40
117,90 118,320 119,470 120,120
121,30 122,30 123,240 125,30
128,30 131,190 132,30 133,631
134,80 135,1561 136,1371 137,130
147,30 148,480 149,140 150,30
151,30 159,80 161,9999 162,1171
163,90 165,100 178,981 179,130
203,30 255,40 256,70 283,280
284,50 311,30 326,30
##END=
