##TITLE=5-Bromovaleric acid, pentadecyl ester
##JCAMP-DX=4.24
##DATA TYPE=MASS SPECTRUM
##ORIGIN=Zaikin V.G., TIPS RAS, Moscow, Russia
##OWNER=NIST Mass Spectrometry Data Center
Collection (C) 2014 copyright by the U.S. Secretary of Commerce
on behalf of the United States of America. All rights reserved.
##$NIST MASS SPEC NO=292292
##MOLFORM=C20 H39 Br O2
##MW=390
##$NIST SOURCE=MSDC
##XUNITS=M/Z
##YUNITS=RELATIVE INTENSITY
##XFACTOR=1
##YFACTOR=1
##FIRSTX=26
##LASTX=325
##FIRSTY=140
##MAXX=325
##MINX=26
##MAXY=9999
##MINY=20
##NPOINTS=115
##PEAK TABLE=(XY..XY)
26,140 27,821 28,20 29,1772
30,30 31,40 36,150 38,80
39,681 40,160 41,4134 42,1331
43,6045 44,330 45,90 51,40
52,30 53,380 54,1051 55,9999
56,4134 57,6926 58,310 59,300
60,40 65,40 66,90 67,1201
68,1782 69,5835 70,3984 71,3753
72,190 73,661 74,50 77,30
79,170 80,220 81,821 82,2833
83,7216 84,2953 85,2482 86,140
87,90 91,480 93,160 95,380
96,1221 97,5805 98,1892 99,561
100,420 101,5005 102,370 103,240
107,100 109,250 110,581 111,3153
112,1331 113,290 115,50 116,30
118,30 119,1161 120,70 121,390
123,60 124,330 125,1531 126,911
127,200 129,40 135,1221 136,791
137,5445 138,591 139,1621 140,591
141,140 152,120 153,270 154,430
155,100 157,240 162,50 163,1571
164,130 165,1501 166,140 167,150
168,270 169,60 177,30 180,801
181,4914 182,1712 183,4824 184,230
192,140 193,40 194,50 207,90
209,90 210,841 211,150 236,60
238,50 255,280 256,30 269,270
270,40 311,110 325,70
##END=
