##TITLE=3-Trifluoromethylcinnamic acid, 2-bromo-4-fluorophenyl ester
##JCAMP-DX=4.24
##DATA TYPE=MASS SPECTRUM
##ORIGIN=Zaikin V.G., TIPS RAS, Moscow, Russia
##OWNER=NIST Mass Spectrometry Data Center
Collection (C) 2014 copyright by the U.S. Secretary of Commerce
on behalf of the United States of America. All rights reserved.
##$NIST MASS SPEC NO=292637
##MOLFORM=C16 H9 Br F4 O2
##MW=388
##$NIST SOURCE=MSDC
##XUNITS=M/Z
##YUNITS=RELATIVE INTENSITY
##XFACTOR=1
##YFACTOR=1
##FIRSTX=28
##LASTX=371
##FIRSTY=10
##MAXX=371
##MINX=28
##MAXY=9999
##MINY=10
##NPOINTS=40
##PEAK TABLE=(XY..XY)
28,10 50,40 51,40 57,50
63,50 74,30 75,90 76,40
81,90 82,110 83,30 94,30
95,70 101,60 102,290 103,30
110,30 120,70 125,60 126,30
145,170 151,1481 152,180 161,120
163,120 169,130 170,130 171,1361
172,140 189,60 190,70 191,60
192,70 199,9999 200,901 201,60
215,50 216,60 369,100 371,90
##END=
