##TITLE=3-Cyclopentylpropionic acid, undec-2-enyl ester
##JCAMP-DX=4.24
##DATA TYPE=MASS SPECTRUM
##ORIGIN=Zaikin V.G., TIPS RAS, Moscow, Russia
##OWNER=NIST Mass Spectrometry Data Center
Collection (C) 2014 copyright by the U.S. Secretary of Commerce
on behalf of the United States of America. All rights reserved.
##$NIST MASS SPEC NO=292470
##MOLFORM=C19 H34 O2
##MW=294
##$NIST SOURCE=MSDC
##XUNITS=M/Z
##YUNITS=RELATIVE INTENSITY
##XFACTOR=1
##YFACTOR=1
##FIRSTX=26
##LASTX=294
##FIRSTY=60
##MAXX=294
##MINX=26
##MAXY=9999
##MINY=30
##NPOINTS=106
##PEAK TABLE=(XY..XY)
26,60 27,350 28,270 29,671
36,40 39,540 40,110 41,2402
42,360 43,1531 44,110 51,40
52,40 53,400 54,2072 55,5725
56,601 57,711 58,50 59,30
60,120 61,30 65,100 66,160
67,1932 68,1431 69,2512 70,370
71,270 72,120 73,330 74,60
77,90 78,30 79,1772 80,631
81,3974 82,1972 83,2562 84,240
85,130 86,60 91,60 93,90
94,130 95,2042 96,1521 97,2742
98,280 99,130 100,190 101,40
105,160 106,40 107,5195 108,500
109,601 110,691 111,320 112,50
113,120 114,310 115,40 121,50
122,320 123,3533 124,1391 125,9999
126,881 127,340 128,150 137,50
138,50 139,30 140,120 141,1221
142,400 143,440 144,30 151,60
152,731 153,150 154,60 155,90
156,80 168,40 169,390 170,811
171,120 183,30 195,400 196,130
197,200 212,130 213,30 223,280
224,40 225,2823 226,440 227,40
237,210 238,30 251,200 252,30
265,110 294,80
##END=
