##TITLE=p-Anisic acid, cyclobutyl ester
##JCAMP-DX=4.24
##DATA TYPE=MASS SPECTRUM
##ORIGIN=Zaikin V.G., TIPS RAS, Moscow, Russia
##OWNER=NIST Mass Spectrometry Data Center
Collection (C) 2014 copyright by the U.S. Secretary of Commerce
on behalf of the United States of America. All rights reserved.
##$NIST MASS SPEC NO=292456
##MOLFORM=C12 H14 O3
##MW=206
##$NIST SOURCE=MSDC
##XUNITS=M/Z
##YUNITS=RELATIVE INTENSITY
##XFACTOR=1
##YFACTOR=1
##FIRSTX=26
##LASTX=206
##FIRSTY=30
##MAXX=206
##MINX=26
##MAXY=9999
##MINY=20
##NPOINTS=34
##PEAK TABLE=(XY..XY)
26,30 27,110 28,20 29,60
38,50 39,90 41,30 50,90
51,60 53,50 55,110 62,30
63,190 64,300 65,50 74,30
75,40 76,110 77,841 78,70
79,40 92,751 93,60 104,50
107,440 108,40 121,70 135,9999
136,1131 137,90 150,30 152,130
178,190 206,210
##END=
