##TITLE=4-Ethylbenzoic acid, 1-adamantylmethyl ester
##JCAMP-DX=4.24
##DATA TYPE=MASS SPECTRUM
##ORIGIN=Zaikin V.G., TIPS RAS, Moscow, Russia
##OWNER=NIST Mass Spectrometry Data Center
Collection (C) 2014 copyright by the U.S. Secretary of Commerce
on behalf of the United States of America. All rights reserved.
##$NIST MASS SPEC NO=292199
##MOLFORM=C20 H26 O2
##MW=298
##$NIST SOURCE=MSDC
##XUNITS=M/Z
##YUNITS=RELATIVE INTENSITY
##XFACTOR=1
##YFACTOR=1
##FIRSTX=27
##LASTX=300
##FIRSTY=40
##MAXX=300
##MINX=27
##MAXY=9999
##MINY=20
##NPOINTS=66
##PEAK TABLE=(XY..XY)
27,40 28,50 36,50 39,90
41,150 43,20 44,80 50,30
51,70 53,90 55,170 57,30
63,40 65,100 66,50 67,350
68,30 69,80 70,160 76,30
77,611 78,240 79,1411 80,440
81,370 82,30 89,80 90,100
91,711 92,1631 93,1251 94,300
95,60 102,30 103,320 104,190
105,1271 106,691 107,681 108,60
117,30 118,30 119,360 120,140
121,30 131,60 132,30 133,2983
134,390 135,9999 136,1121 137,60
146,50 147,50 148,8548 149,1171
150,200 151,60 165,40 269,150
270,30 283,30 297,30 298,1722
299,400 300,50
##END=
