##TITLE=3-Cyclopentylpropionic acid, pentadecyl ester
##JCAMP-DX=4.24
##DATA TYPE=MASS SPECTRUM
##ORIGIN=Zaikin V.G., TIPS RAS, Moscow, Russia
##OWNER=NIST Mass Spectrometry Data Center
Collection (C) 2014 copyright by the U.S. Secretary of Commerce
on behalf of the United States of America. All rights reserved.
##$NIST MASS SPEC NO=292339
##MOLFORM=C23 H44 O2
##MW=352
##$NIST SOURCE=MSDC
##XUNITS=M/Z
##YUNITS=RELATIVE INTENSITY
##XFACTOR=1
##YFACTOR=1
##FIRSTX=26
##LASTX=352
##FIRSTY=40
##MAXX=352
##MINX=26
##MAXY=9999
##MINY=10
##NPOINTS=104
##PEAK TABLE=(XY..XY)
26,40 27,110 28,10 29,220
36,120 38,30 39,180 40,110
41,901 42,240 43,1141 44,220
53,110 54,260 55,2042 56,801
57,1692 58,90 60,130 61,320
65,30 66,70 67,801 68,611
69,1862 70,1021 71,1291 72,80
73,851 74,130 75,30 77,50
79,390 80,270 81,881 82,1331
83,3473 84,1021 85,981 86,60
87,30 91,40 93,40 94,50
95,530 96,821 97,2612 98,811
99,300 100,120 101,80 105,50
106,60 107,881 108,90 109,100
110,270 111,1341 112,581 113,220
114,170 115,70 116,270 117,30
122,120 123,380 124,651 125,3313
126,691 127,190 129,50 130,50
138,110 139,300 140,350 141,400
142,741 143,9999 144,991 145,80
152,80 153,170 154,230 155,110
166,40 167,100 168,150 169,80
180,40 181,60 182,781 183,160
198,60 210,1561 211,571 212,70
241,30 255,561 256,90 270,180
271,100 283,821 284,170 352,50
##END=
