##TITLE=4-Cyanobenzoic acid, 2-(1-adamantyl)ethyl ester
##JCAMP-DX=4.24
##DATA TYPE=MASS SPECTRUM
##ORIGIN=Zaikin V.G., TIPS RAS, Moscow, Russia
##OWNER=NIST Mass Spectrometry Data Center
Collection (C) 2014 copyright by the U.S. Secretary of Commerce
on behalf of the United States of America. All rights reserved.
##$NIST MASS SPEC NO=292451
##MOLFORM=C20 H23 N O2
##MW=309
##$NIST SOURCE=MSDC
##XUNITS=M/Z
##YUNITS=RELATIVE INTENSITY
##XFACTOR=1
##YFACTOR=1
##FIRSTX=27
##LASTX=309
##FIRSTY=50
##MAXX=309
##MINX=27
##MAXY=9999
##MINY=10
##NPOINTS=58
##PEAK TABLE=(XY..XY)
27,50 28,10 29,40 39,90
41,240 43,30 44,40 50,50
51,90 52,30 53,100 55,210
56,40 65,70 66,40 67,360
68,30 69,90 70,30 75,110
76,90 77,290 78,110 79,941
80,210 81,310 82,30 84,30
91,490 92,390 93,1011 94,190
95,70 102,801 103,180 104,80
105,520 106,330 107,460 108,70
117,30 119,270 120,150 121,80
130,931 131,100 133,150 134,90
135,9999 136,971 137,50 147,160
148,30 162,3693 163,480 164,30
174,70 309,30
##END=
