##TITLE=1-Isopropoxy-2-di-tert-butyl-silyloxybenzene
##JCAMP-DX=4.24
##DATA TYPE=MASS SPECTRUM
##ORIGIN=Zaikin V.G., TIPS RAS, Moscow, Russia
##OWNER=NIST Mass Spectrometry Data Center
Collection (C) 2014 copyright by the U.S. Secretary of Commerce
on behalf of the United States of America. All rights reserved.
##$NIST MASS SPEC NO=292694
##MOLFORM=C17 H30 O2 Si
##MW=294
##$NIST SOURCE=MSDC
##XUNITS=M/Z
##YUNITS=RELATIVE INTENSITY
##XFACTOR=1
##YFACTOR=1
##FIRSTX=27
##LASTX=295
##FIRSTY=60
##MAXX=295
##MINX=27
##MAXY=9999
##MINY=20
##NPOINTS=54
##PEAK TABLE=(XY..XY)
27,60 28,40 29,110 39,70
41,350 42,30 43,641 44,30
45,90 56,40 57,841 58,30
59,130 61,140 65,90 73,140
75,370 76,30 77,80 91,140
92,40 93,90 94,80 95,30
103,120 121,90 135,110 136,400
137,591 138,390 139,210 140,30
149,50 151,2342 152,350 153,631
154,90 167,130 179,50 180,40
193,50 194,220 195,9999 196,1491
197,450 198,40 235,20 237,1511
238,280 239,80 250,30 251,80
294,140 295,30
##END=
