##TITLE=4-Cyanobenzoic acid, heptadecyl ester
##JCAMP-DX=4.24
##DATA TYPE=MASS SPECTRUM
##ORIGIN=Zaikin V.G., TIPS RAS, Moscow, Russia
##OWNER=NIST Mass Spectrometry Data Center
Collection (C) 2014 copyright by the U.S. Secretary of Commerce
on behalf of the United States of America. All rights reserved.
##$NIST MASS SPEC NO=292455
##MOLFORM=C25 H39 N O2
##MW=385
##$NIST SOURCE=MSDC
##XUNITS=M/Z
##YUNITS=RELATIVE INTENSITY
##XFACTOR=1
##YFACTOR=1
##FIRSTX=26
##LASTX=387
##FIRSTY=140
##MAXX=387
##MINX=26
##MAXY=9999
##MINY=20
##NPOINTS=206
##PEAK TABLE=(XY..XY)
26,140 27,430 28,20 29,981
36,50 37,40 38,60 39,500
40,160 41,3003 42,971 43,4494
44,350 45,30 50,200 51,280
52,70 53,220 54,851 55,4994
56,2762 57,4524 58,210 63,40
65,60 66,90 67,1151 68,1481
69,4894 70,2853 71,2272 72,120
73,40 74,70 75,430 76,390
77,140 78,30 79,120 80,60
81,771 82,2002 83,5655 84,2112
85,1431 86,90 91,60 93,40
94,30 95,450 96,1001 97,4924
98,1451 99,290 100,30 101,120
102,3643 103,1071 104,290 105,60
109,180 110,440 111,2472 112,961
113,170 117,60 118,40 119,90
123,90 124,230 125,1141 126,631
127,100 129,70 130,9999 131,1651
132,250 133,80 135,50 136,30
137,50 138,150 139,390 140,420
141,70 144,220 145,270 146,130
147,821 148,8998 149,2102 150,821
151,110 152,100 153,190 154,280
155,50 158,180 159,440 160,100
161,110 162,30 163,30 164,130
166,70 167,110 168,200 169,30
172,100 173,140 174,100 175,160
176,971 177,180 178,170 180,50
181,60 182,160 185,60 186,90
187,160 188,330 189,320 190,180
191,70 192,50 195,30 196,70
200,80 201,170 202,550 203,340
204,130 205,70 210,490 211,70
214,60 215,150 216,240 217,170
218,140 219,50 228,60 229,90
230,190 231,100 232,130 233,60
236,50 238,430 239,70 242,60
243,90 244,200 245,80 246,100
247,40 256,70 257,100 258,220
259,90 260,90 261,40 270,70
271,80 272,280 273,230 274,110
275,30 284,100 285,80 286,420
287,581 288,180 289,30 298,160
299,70 300,711 301,1121 302,300
303,40 312,80 313,80 314,1341
315,1551 316,380 317,50 328,2052
329,1752 330,430 331,60 340,140
341,110 342,2492 343,1521 344,450
345,70 356,2042 357,1001 358,170
370,400 371,100 384,691 385,1611
386,480 387,70
##END=
