##TITLE=3-Trifluoromethylcinnamic acid, phenyl ester
##JCAMP-DX=4.24
##DATA TYPE=MASS SPECTRUM
##ORIGIN=Zaikin V.G., TIPS RAS, Moscow, Russia
##OWNER=NIST Mass Spectrometry Data Center
Collection (C) 2014 copyright by the U.S. Secretary of Commerce
on behalf of the United States of America. All rights reserved.
##$NIST MASS SPEC NO=292634
##MOLFORM=C16 H11 F3 O2
##MW=292
##$NIST SOURCE=MSDC
##XUNITS=M/Z
##YUNITS=RELATIVE INTENSITY
##XFACTOR=1
##YFACTOR=1
##FIRSTX=28
##LASTX=293
##FIRSTY=30
##MAXX=293
##MINX=28
##MAXY=9999
##MINY=20
##NPOINTS=37
##PEAK TABLE=(XY..XY)
28,30 39,70 50,30 51,50
63,40 65,120 74,30 75,80
76,40 77,40 93,40 94,100
95,70 101,60 102,260 103,20
120,60 125,50 126,30 145,170
151,1491 152,200 169,130 170,120
171,1491 172,170 197,30 198,30
199,9999 200,951 201,70 215,90
216,120 273,210 274,30 292,160
293,30
##END=
