##TITLE=p-Anisic acid, heptadecyl ester
##JCAMP-DX=4.24
##DATA TYPE=MASS SPECTRUM
##ORIGIN=Zaikin V.G., TIPS RAS, Moscow, Russia
##OWNER=NIST Mass Spectrometry Data Center
Collection (C) 2014 copyright by the U.S. Secretary of Commerce
on behalf of the United States of America. All rights reserved.
##$NIST MASS SPEC NO=292463
##MOLFORM=C25 H42 O3
##MW=390
##$NIST SOURCE=MSDC
##XUNITS=M/Z
##YUNITS=RELATIVE INTENSITY
##XFACTOR=1
##YFACTOR=1
##FIRSTX=27
##LASTX=391
##FIRSTY=40
##MAXX=391
##MINX=27
##MAXY=9999
##MINY=30
##NPOINTS=37
##PEAK TABLE=(XY..XY)
27,40 28,30 29,90 39,50
41,270 42,60 43,360 54,50
55,360 56,110 57,220 64,30
67,70 68,60 69,230 70,80
71,80 77,190 81,50 82,60
83,170 84,50 85,40 92,140
97,110 107,110 108,30 109,80
111,40 121,30 135,2272 136,210
152,9999 153,3053 154,260 390,230
391,60
##END=
