##TITLE=3-Bromobenzoic acid, 3,5-difluorophenyl ester
##JCAMP-DX=4.24
##DATA TYPE=MASS SPECTRUM
##ORIGIN=Zaikin V.G., TIPS RAS, Moscow, Russia
##OWNER=NIST Mass Spectrometry Data Center
Collection (C) 2014 copyright by the U.S. Secretary of Commerce
on behalf of the United States of America. All rights reserved.
##$NIST MASS SPEC NO=292662
##MOLFORM=C13 H7 Br F2 O2
##MW=312
##$NIST SOURCE=MSDC
##XUNITS=M/Z
##YUNITS=RELATIVE INTENSITY
##XFACTOR=1
##YFACTOR=1
##FIRSTX=28
##LASTX=314
##FIRSTY=10
##MAXX=314
##MINX=28
##MAXY=9999
##MINY=10
##NPOINTS=29
##PEAK TABLE=(XY..XY)
28,10 36,30 50,70 74,120
75,460 76,561 77,50 101,180
102,30 104,110 105,30 129,70
130,110 131,30 155,2292 156,200
157,2252 158,160 177,30 183,9999
184,751 185,9719 186,701 187,40
200,80 202,80 312,190 313,30
314,190
##END=
