##TITLE=Valeric acid, 2,7-dimethyloct-7-en-5-yn-4-yl ester
##JCAMP-DX=4.24
##DATA TYPE=MASS SPECTRUM
##ORIGIN=Zaikin V.G., TIPS RAS, Moscow, Russia
##OWNER=NIST Mass Spectrometry Data Center
Collection (C) 2014 copyright by the U.S. Secretary of Commerce
on behalf of the United States of America. All rights reserved.
##$NIST MASS SPEC NO=292489
##MOLFORM=C15 H24 O2
##MW=236
##$NIST SOURCE=MSDC
##XUNITS=M/Z
##YUNITS=RELATIVE INTENSITY
##XFACTOR=1
##YFACTOR=1
##FIRSTX=26
##LASTX=237
##FIRSTY=160
##MAXX=237
##MINX=26
##MAXY=9999
##MINY=10
##NPOINTS=97
##PEAK TABLE=(XY..XY)
26,160 27,1481 28,10 29,2752
30,50 39,1371 40,300 41,4534
42,300 43,2392 44,250 45,90
50,190 51,611 52,340 53,671
54,70 55,1341 56,510 57,9999
58,430 59,50 60,270 62,50
63,260 64,150 65,801 66,320
67,881 68,260 69,530 70,80
71,20 73,100 74,40 75,60
76,50 77,1792 78,440 79,1551
80,230 81,1742 82,190 83,240
84,160 85,7307 86,360 89,80
90,70 91,3453 92,1231 93,1611
94,270 95,1982 96,591 97,290
98,20 103,230 104,140 105,861
106,170 107,661 108,280 109,4294
110,2282 111,220 115,90 117,310
118,50 119,5165 120,530 121,100
123,400 124,70 131,90 133,370
134,490 135,210 136,120 137,941
138,140 151,520 152,1301 153,160
159,260 165,50 167,40 176,160
179,370 180,110 193,7887 194,1011
195,80 221,50 231,30 236,320
237,40
##END=
