##TITLE=3-Bromobenzoic acid, 2-bromo-4-fluorophenyl ester
##JCAMP-DX=4.24
##DATA TYPE=MASS SPECTRUM
##ORIGIN=Zaikin V.G., TIPS RAS, Moscow, Russia
##OWNER=NIST Mass Spectrometry Data Center
Collection (C) 2014 copyright by the U.S. Secretary of Commerce
on behalf of the United States of America. All rights reserved.
##$NIST MASS SPEC NO=292666
##MOLFORM=C13 H7 Br2 F O2
##MW=372
##$NIST SOURCE=MSDC
##XUNITS=M/Z
##YUNITS=RELATIVE INTENSITY
##XFACTOR=1
##YFACTOR=1
##FIRSTX=28
##LASTX=376
##FIRSTY=10
##MAXX=376
##MINX=28
##MAXY=9999
##MINY=10
##NPOINTS=38
##PEAK TABLE=(XY..XY)
28,10 38,30 50,390 51,50
56,30 57,60 62,30 63,60
74,190 75,671 76,881 77,70
81,140 82,180 83,40 94,50
104,140 110,50 129,30 155,1792
156,140 157,1742 158,120 161,190
163,190 183,9999 184,631 185,9749
186,601 187,30 189,60 190,110
191,70 192,110 372,150 374,290
375,40 376,150
##END=
