##TITLE=trans-(3-Trifluoromethyl)cinnamin acid, dodec-9-ynyl ester
##JCAMP-DX=4.24
##DATA TYPE=MASS SPECTRUM
##ORIGIN=Zaikin V.G., TIPS RAS, Moscow, Russia
##OWNER=NIST Mass Spectrometry Data Center
Collection (C) 2014 copyright by the U.S. Secretary of Commerce
on behalf of the United States of America. All rights reserved.
##$NIST MASS SPEC NO=292265
##MOLFORM=C22 H27 F3 O2
##MW=380
##$NIST SOURCE=MSDC
##XUNITS=M/Z
##YUNITS=RELATIVE INTENSITY
##XFACTOR=1
##YFACTOR=1
##FIRSTX=26
##LASTX=382
##FIRSTY=50
##MAXX=382
##MINX=26
##MAXY=9999
##MINY=10
##NPOINTS=253
##PEAK TABLE=(XY..XY)
26,50 27,150 28,230 29,200
31,10 32,40 37,10 38,30
39,330 40,100 41,1171 42,150
43,270 44,60 45,10 49,10
50,110 51,150 52,90 53,370
54,390 55,1451 56,130 57,120
61,10 62,30 63,70 64,10
65,220 66,400 67,2282 68,4094
69,651 70,60 71,80 73,10
74,60 75,160 76,90 77,350
78,120 79,1762 80,641 81,1231
82,2172 83,340 84,30 85,50
86,10 87,10 89,10 90,20
91,390 92,90 93,1481 94,500
95,951 96,370 97,490 98,60
99,100 100,20 101,120 102,520
103,120 104,10 105,130 106,40
107,901 108,360 109,380 110,90
111,40 112,10 113,10 114,10
115,30 116,10 117,20 118,10
119,120 120,170 121,751 122,320
123,110 124,20 125,120 126,70
127,50 128,20 129,30 130,20
131,90 132,20 133,110 134,30
135,801 136,220 137,60 138,30
139,30 140,20 141,20 143,20
144,20 145,320 146,70 147,140
148,40 149,100 150,40 151,2742
152,380 153,140 154,20 155,10
157,10 158,10 159,160 160,20
161,130 162,30 163,100 164,160
165,50 166,10 167,30 168,30
169,290 170,430 171,2512 172,500
173,90 175,60 176,10 177,50
178,20 179,40 180,50 181,90
182,10 183,30 184,10 185,40
186,110 187,30 188,50 189,10
191,10 193,30 194,10 195,20
196,20 197,761 198,220 199,9999
200,1011 201,80 202,10 203,20
205,10 206,10 210,20 211,40
212,10 213,30 214,20 215,701
216,701 217,1792 218,210 219,30
220,10 221,180 222,30 223,80
224,60 225,70 226,20 227,20
228,10 229,10 231,10 233,20
234,10 235,180 236,40 237,110
238,90 239,70 240,50 241,30
242,10 243,10 247,10 249,30
250,10 251,90 252,40 253,60
254,60 255,60 256,20 257,10
262,10 263,30 264,10 265,40
266,60 267,90 268,90 269,410
270,90 271,10 273,10 277,20
279,50 280,20 282,170 283,160
284,30 291,10 293,30 294,10
295,60 296,60 297,10 299,60
300,10 305,10 307,20 309,20
313,90 314,10 319,10 321,10
323,70 324,20 335,10 336,10
337,30 338,10 351,60 352,490
353,110 354,10 361,10 364,10
365,10 379,10 380,360 381,80
382,10
##END=
