##TITLE=4-Ethylbenzoic acid, cyclobutyl ester
##JCAMP-DX=4.24
##DATA TYPE=MASS SPECTRUM
##ORIGIN=Zaikin V.G., TIPS RAS, Moscow, Russia
##OWNER=NIST Mass Spectrometry Data Center
Collection (C) 2014 copyright by the U.S. Secretary of Commerce
on behalf of the United States of America. All rights reserved.
##$NIST MASS SPEC NO=292196
##MOLFORM=C13 H16 O2
##MW=204
##$NIST SOURCE=MSDC
##XUNITS=M/Z
##YUNITS=RELATIVE INTENSITY
##XFACTOR=1
##YFACTOR=1
##FIRSTX=27
##LASTX=204
##FIRSTY=30
##MAXX=204
##MINX=27
##MAXY=9999
##MINY=30
##NPOINTS=39
##PEAK TABLE=(XY..XY)
27,30 28,160 36,230 38,70
39,40 40,30 44,210 50,40
51,50 52,30 63,30 65,30
77,180 78,50 79,150 89,40
90,30 91,120 92,30 94,60
103,190 104,80 105,791 106,90
107,100 119,30 131,80 132,40
133,9999 134,1201 135,460 136,40
147,791 148,200 149,50 150,310
151,40 176,60 204,70
##END=
