##TITLE=3-Cyclopentylpropionic acid, 2-(1-adamantyl)ethyl ester
##JCAMP-DX=4.24
##DATA TYPE=MASS SPECTRUM
##ORIGIN=Zaikin V.G., TIPS RAS, Moscow, Russia
##OWNER=NIST Mass Spectrometry Data Center
Collection (C) 2014 copyright by the U.S. Secretary of Commerce
on behalf of the United States of America. All rights reserved.
##$NIST MASS SPEC NO=292270
##MOLFORM=C20 H32 O2
##MW=304
##$NIST SOURCE=MSDC
##XUNITS=M/Z
##YUNITS=RELATIVE INTENSITY
##XFACTOR=1
##YFACTOR=1
##FIRSTX=26
##LASTX=235
##FIRSTY=30
##MAXX=235
##MINX=26
##MAXY=9999
##MINY=30
##NPOINTS=71
##PEAK TABLE=(XY..XY)
26,30 27,100 28,40 29,110
39,170 40,40 41,581 42,60
43,100 44,40 51,30 53,130
54,80 55,731 56,110 57,50
60,30 65,70 66,70 67,571
68,100 69,300 70,90 73,50
77,230 78,140 79,1031 80,420
81,631 82,110 83,190 84,110
91,490 92,721 93,1201 94,290
95,230 96,50 97,80 104,80
105,651 106,631 107,721 108,120
117,30 118,30 119,460 120,290
121,240 122,30 124,70 125,170
133,260 134,180 135,9999 136,931
137,40 141,30 142,30 147,150
161,150 162,7016 163,2122 164,220
169,160 179,120 204,50 207,1902
208,210 217,30 235,80
##END=
