##TITLE=3-Bromobenzoic acid, 2-methylphenyl ester
##JCAMP-DX=4.24
##DATA TYPE=MASS SPECTRUM
##ORIGIN=Zaikin V.G., TIPS RAS, Moscow, Russia
##OWNER=NIST Mass Spectrometry Data Center
Collection (C) 2014 copyright by the U.S. Secretary of Commerce
on behalf of the United States of America. All rights reserved.
##$NIST MASS SPEC NO=292664
##MOLFORM=C14 H11 Br O2
##MW=290
##$NIST SOURCE=MSDC
##XUNITS=M/Z
##YUNITS=RELATIVE INTENSITY
##XFACTOR=1
##YFACTOR=1
##FIRSTX=27
##LASTX=293
##FIRSTY=60
##MAXX=293
##MINX=27
##MAXY=9999
##MINY=10
##NPOINTS=38
##PEAK TABLE=(XY..XY)
27,60 28,10 38,40 39,150
50,480 51,240 52,120 53,90
63,70 65,120 74,180 75,761
76,1111 77,641 78,250 79,130
89,40 90,40 91,80 104,220
105,50 107,250 108,120 155,1932
156,150 157,1892 158,130 183,9999
184,661 185,9589 186,621 187,30
200,90 202,90 290,811 291,120
292,801 293,120
##END=
