##TITLE=2,6-Difluorobenzoic acid, octadecyl ester
##JCAMP-DX=4.24
##DATA TYPE=MASS SPECTRUM
##ORIGIN=Zaikin V.G., TIPS RAS, Moscow, Russia
##OWNER=NIST Mass Spectrometry Data Center
Collection (C) 2014 copyright by the U.S. Secretary of Commerce
on behalf of the United States of America. All rights reserved.
##$NIST MASS SPEC NO=292397
##MOLFORM=C25 H40 F2 O2
##MW=410
##$NIST SOURCE=MSDC
##XUNITS=M/Z
##YUNITS=RELATIVE INTENSITY
##XFACTOR=1
##YFACTOR=1
##FIRSTX=27
##LASTX=390
##FIRSTY=70
##MAXX=390
##MINX=27
##MAXY=9999
##MINY=20
##NPOINTS=59
##PEAK TABLE=(XY..XY)
27,70 28,20 29,180 39,90
41,591 42,180 43,891 44,60
53,40 54,180 55,991 56,500
57,891 58,40 63,100 67,240
68,270 69,911 70,510 71,440
81,160 82,320 83,981 84,370
85,270 94,30 95,100 96,190
97,881 98,240 99,50 109,40
110,80 111,460 112,170 113,360
114,90 124,50 125,220 126,110
138,30 139,90 140,80 141,3373
142,260 153,40 154,50 158,290
159,9999 160,651 161,50 167,30
168,40 182,30 196,40 224,110
252,140 360,40 390,60
##END=
