##TITLE=m-Toluic acid, 1-adamantylmethyl ester
##JCAMP-DX=4.24
##DATA TYPE=MASS SPECTRUM
##ORIGIN=Zaikin V.G., TIPS RAS, Moscow, Russia
##OWNER=NIST Mass Spectrometry Data Center
Collection (C) 2014 copyright by the U.S. Secretary of Commerce
on behalf of the United States of America. All rights reserved.
##$NIST MASS SPEC NO=292235
##MOLFORM=C19 H24 O2
##MW=284
##$NIST SOURCE=MSDC
##XUNITS=M/Z
##YUNITS=RELATIVE INTENSITY
##XFACTOR=1
##YFACTOR=1
##FIRSTX=27
##LASTX=286
##FIRSTY=40
##MAXX=286
##MINX=27
##MAXY=9999
##MINY=20
##NPOINTS=56
##PEAK TABLE=(XY..XY)
27,40 28,20 29,50 39,170
40,30 41,280 43,30 50,30
51,60 52,30 53,120 55,240
56,30 57,40 63,70 64,30
65,410 66,70 67,410 68,30
69,100 70,130 77,360 78,160
79,1151 80,360 81,380 82,30
89,130 90,120 91,2192 92,1361
93,1221 94,230 95,40 104,40
105,470 106,410 107,561 108,50
118,30 119,1912 120,260 121,30
133,290 134,70 135,9999 136,961
137,70 147,30 148,7106 149,821
150,60 284,1611 285,320 286,30
##END=
