##TITLE=4-Butylbenzoic acid, cyclobutyl ester
##JCAMP-DX=4.24
##DATA TYPE=MASS SPECTRUM
##ORIGIN=Zaikin V.G., TIPS RAS, Moscow, Russia
##OWNER=NIST Mass Spectrometry Data Center
Collection (C) 2014 copyright by the U.S. Secretary of Commerce
on behalf of the United States of America. All rights reserved.
##$NIST MASS SPEC NO=292205
##MOLFORM=C15 H20 O2
##MW=232
##$NIST SOURCE=MSDC
##XUNITS=M/Z
##YUNITS=RELATIVE INTENSITY
##XFACTOR=1
##YFACTOR=1
##FIRSTX=28
##LASTX=205
##FIRSTY=80
##MAXX=205
##MINX=28
##MAXY=9999
##MINY=30
##NPOINTS=70
##PEAK TABLE=(XY..XY)
28,80 29,220 36,100 38,30
39,220 40,30 41,330 42,70
43,270 44,90 50,50 51,110
52,30 53,80 54,40 55,591
56,90 57,160 58,30 63,90
64,30 65,210 67,40 69,170
70,60 71,100 72,30 76,60
77,260 78,90 79,110 83,150
84,30 85,40 89,240 90,390
91,1591 92,310 93,30 102,30
103,150 104,110 105,180 107,80
111,80 115,100 116,40 117,70
118,150 119,130 125,30 128,30
131,110 133,380 134,50 135,561
136,370 137,30 147,50 149,40
159,60 161,9999 162,1111 163,80
176,50 178,280 179,40 189,40
204,330 205,40
##END=
