##TITLE=p-Toluic acid, but-3-yn-2-yl ester
##JCAMP-DX=4.24
##DATA TYPE=MASS SPECTRUM
##ORIGIN=Zaikin V.G., TIPS RAS, Moscow, Russia
##OWNER=NIST Mass Spectrometry Data Center
Collection (C) 2014 copyright by the U.S. Secretary of Commerce
on behalf of the United States of America. All rights reserved.
##$NIST MASS SPEC NO=292501
##MOLFORM=C12 H12 O2
##MW=188
##$NIST SOURCE=MSDC
##XUNITS=M/Z
##YUNITS=RELATIVE INTENSITY
##XFACTOR=1
##YFACTOR=1
##FIRSTX=26
##LASTX=189
##FIRSTY=40
##MAXX=189
##MINX=26
##MAXY=9999
##MINY=20
##NPOINTS=49
##PEAK TABLE=(XY..XY)
26,40 27,270 28,20 35,30
36,240 38,130 39,320 40,30
41,90 43,30 44,100 45,40
50,170 51,280 52,200 53,621
54,30 59,30 62,70 63,260
64,70 65,801 66,50 77,110
79,100 89,290 90,200 91,2983
92,390 93,100 105,40 107,70
115,30 118,60 119,9999 120,851
121,50 127,40 128,140 129,440
130,50 135,80 136,1271 137,220
143,170 145,30 173,50 188,971
189,120
##END=
