##TITLE=m-Anisic acid, hex-4-yn-3-yl ester
##JCAMP-DX=4.24
##DATA TYPE=MASS SPECTRUM
##ORIGIN=Zaikin V.G., TIPS RAS, Moscow, Russia
##OWNER=NIST Mass Spectrometry Data Center
Collection (C) 2014 copyright by the U.S. Secretary of Commerce
on behalf of the United States of America. All rights reserved.
##$NIST MASS SPEC NO=292594
##MOLFORM=C14 H16 O3
##MW=232
##$NIST SOURCE=MSDC
##XUNITS=M/Z
##YUNITS=RELATIVE INTENSITY
##XFACTOR=1
##YFACTOR=1
##FIRSTX=27
##LASTX=233
##FIRSTY=30
##MAXX=233
##MINX=27
##MAXY=9999
##MINY=20
##NPOINTS=56
##PEAK TABLE=(XY..XY)
27,30 28,20 38,30 39,130
41,170 50,60 51,90 52,50
53,350 55,50 63,200 64,280
65,180 66,70 67,30 69,30
75,30 76,110 77,821 78,120
79,1081 80,340 81,480 82,30
92,721 93,60 97,210 104,20
105,80 107,861 108,200 109,110
122,30 135,9999 136,941 137,90
151,50 152,1321 153,230 159,90
160,30 161,40 162,70 172,20
173,40 175,100 176,80 187,70
189,100 203,490 204,661 205,80
217,611 218,90 232,510 233,70
##END=
