##TITLE=2,6-Difluorobenzoic acid, pentadecyl ester
##JCAMP-DX=4.24
##DATA TYPE=MASS SPECTRUM
##ORIGIN=Zaikin V.G., TIPS RAS, Moscow, Russia
##OWNER=NIST Mass Spectrometry Data Center
Collection (C) 2014 copyright by the U.S. Secretary of Commerce
on behalf of the United States of America. All rights reserved.
##$NIST MASS SPEC NO=292395
##MOLFORM=C22 H34 F2 O2
##MW=368
##$NIST SOURCE=MSDC
##XUNITS=M/Z
##YUNITS=RELATIVE INTENSITY
##XFACTOR=1
##YFACTOR=1
##FIRSTX=27
##LASTX=348
##FIRSTY=90
##MAXX=348
##MINX=27
##MAXY=9999
##MINY=30
##NPOINTS=59
##PEAK TABLE=(XY..XY)
27,90 28,30 29,230 39,110
41,691 42,210 43,921 44,60
53,50 54,200 55,1071 56,611
57,801 58,30 63,140 67,240
68,280 69,951 70,621 71,370
81,140 82,320 83,1001 84,440
85,220 93,30 94,40 95,80
96,170 97,851 98,290 99,40
110,80 111,450 112,190 113,500
114,110 124,40 125,200 126,120
138,30 139,70 140,80 141,4574
142,350 143,30 153,30 154,60
156,30 158,350 159,9999 160,681
161,50 168,30 182,190 196,30
210,260 211,40 348,30
##END=
