##TITLE=Valeric acid, tridec-2-ynyl ester
##JCAMP-DX=4.24
##DATA TYPE=MASS SPECTRUM
##ORIGIN=Zaikin V.G., TIPS RAS, Moscow, Russia
##OWNER=NIST Mass Spectrometry Data Center
Collection (C) 2014 copyright by the U.S. Secretary of Commerce
on behalf of the United States of America. All rights reserved.
##$NIST MASS SPEC NO=292492
##MOLFORM=C18 H32 O2
##MW=280
##$NIST SOURCE=MSDC
##XUNITS=M/Z
##YUNITS=RELATIVE INTENSITY
##XFACTOR=1
##YFACTOR=1
##FIRSTX=26
##LASTX=251
##FIRSTY=30
##MAXX=251
##MINX=26
##MAXY=9999
##MINY=30
##NPOINTS=90
##PEAK TABLE=(XY..XY)
26,30 27,260 28,280 29,701
39,250 40,60 41,1191 42,150
43,771 51,80 52,220 53,280
54,200 55,871 56,220 57,4264
58,190 59,50 60,50 65,150
66,190 67,651 68,160 69,380
70,260 71,220 72,30 73,30
77,290 78,100 79,861 80,260
81,621 82,230 83,340 84,250
85,9999 86,530 87,40 91,310
92,60 93,530 94,270 95,651
96,210 97,450 98,100 99,60
100,90 101,60 103,250 105,70
107,230 108,130 109,210 110,100
111,1431 112,190 113,100 114,90
121,220 122,60 123,60 124,80
125,280 126,60 127,60 128,60
135,150 136,90 137,40 138,110
139,90 140,60 149,70 151,80
152,220 153,571 154,190 155,40
167,80 177,70 178,60 181,70
195,150 196,150 197,30 223,30
237,30 251,90
##END=
