##TITLE=m-Toluic acid, undecyl ester
##JCAMP-DX=4.24
##DATA TYPE=MASS SPECTRUM
##ORIGIN=Zaikin V.G., TIPS RAS, Moscow, Russia
##OWNER=NIST Mass Spectrometry Data Center
Collection (C) 2014 copyright by the U.S. Secretary of Commerce
on behalf of the United States of America. All rights reserved.
##$NIST MASS SPEC NO=292237
##MOLFORM=C19 H30 O2
##MW=290
##$NIST SOURCE=MSDC
##XUNITS=M/Z
##YUNITS=RELATIVE INTENSITY
##XFACTOR=1
##YFACTOR=1
##FIRSTX=27
##LASTX=290
##FIRSTY=90
##MAXX=290
##MINX=27
##MAXY=9999
##MINY=20
##NPOINTS=59
##PEAK TABLE=(XY..XY)
27,90 28,70 29,190 39,180
40,30 41,641 42,170 43,591
50,20 51,50 53,60 54,110
55,741 56,440 57,340 63,90
64,30 65,470 66,40 67,160
68,190 69,571 70,460 71,130
77,90 79,30 81,60 82,170
83,440 84,330 85,70 89,190
90,200 91,2923 92,390 93,470
94,30 96,80 97,390 98,170
105,50 111,170 112,80 118,90
119,6646 120,530 121,50 125,80
126,140 135,90 136,9178 137,9999
138,721 139,60 149,70 154,320
155,30 177,20 290,90
##END=
