##TITLE=3-Cyclopentylpropionic acid, tridec-2-ynyl ester
##JCAMP-DX=4.24
##DATA TYPE=MASS SPECTRUM
##ORIGIN=Zaikin V.G., TIPS RAS, Moscow, Russia
##OWNER=NIST Mass Spectrometry Data Center
Collection (C) 2014 copyright by the U.S. Secretary of Commerce
on behalf of the United States of America. All rights reserved.
##$NIST MASS SPEC NO=292471
##MOLFORM=C21 H36 O2
##MW=320
##$NIST SOURCE=MSDC
##XUNITS=M/Z
##YUNITS=RELATIVE INTENSITY
##XFACTOR=1
##YFACTOR=1
##FIRSTX=26
##LASTX=320
##FIRSTY=80
##MAXX=320
##MINX=26
##MAXY=9999
##MINY=30
##NPOINTS=124
##PEAK TABLE=(XY..XY)
26,80 27,530 28,370 29,921
38,30 39,721 40,190 41,2863
42,430 43,2262 44,110 50,50
51,160 52,500 53,841 54,581
55,6396 56,530 57,801 58,60
59,50 60,90 63,30 65,370
66,440 67,2132 68,520 69,2122
70,340 71,380 72,50 73,130
74,30 77,671 78,230 79,4424
80,1221 81,4864 82,911 83,1021
84,270 85,120 86,40 91,721
92,150 93,1191 94,681 95,2462
96,591 97,3393 98,330 99,160
100,130 101,60 105,310 106,120
107,9398 108,1091 109,470 110,160
111,2612 112,360 113,140 114,160
115,80 119,80 120,40 121,591
122,230 123,1742 124,571 125,9999
126,921 127,130 128,130 129,50
133,70 134,40 135,360 136,180
137,100 138,230 139,140 140,60
141,540 142,60 143,150 147,30
149,170 150,70 151,230 152,350
153,140 154,30 155,30 163,50
165,140 166,30 167,70 168,70
175,30 177,150 178,190 179,110
180,110 181,130 182,40 193,871
194,390 195,380 196,410 197,170
221,60 223,50 224,50 235,30
237,60 251,230 252,30 263,40
277,40 291,50 302,40 320,40
##END=
