##TITLE=m-Toluic acid, heptadecyl ester
##JCAMP-DX=4.24
##DATA TYPE=MASS SPECTRUM
##ORIGIN=Zaikin V.G., TIPS RAS, Moscow, Russia
##OWNER=NIST Mass Spectrometry Data Center
Collection (C) 2014 copyright by the U.S. Secretary of Commerce
on behalf of the United States of America. All rights reserved.
##$NIST MASS SPEC NO=292240
##MOLFORM=C25 H42 O2
##MW=374
##$NIST SOURCE=MSDC
##XUNITS=M/Z
##YUNITS=RELATIVE INTENSITY
##XFACTOR=1
##YFACTOR=1
##FIRSTX=26
##LASTX=375
##FIRSTY=30
##MAXX=375
##MINX=26
##MAXY=9999
##MINY=30
##NPOINTS=82
##PEAK TABLE=(XY..XY)
26,30 27,100 28,70 29,190
36,70 39,160 40,30 41,591
42,150 43,761 44,70 51,40
53,50 54,140 55,801 56,340
57,601 59,30 63,50 65,230
66,30 67,210 68,230 69,621
70,320 71,270 77,100 79,50
81,140 82,270 83,631 84,230
85,170 89,90 90,100 91,1471
92,270 93,390 94,50 95,80
96,170 97,581 98,160 99,30
105,70 109,30 110,70 111,310
112,110 118,60 119,3113 120,350
121,40 123,30 124,40 125,160
126,80 133,50 134,30 135,130
136,6426 137,9999 138,891 139,130
140,50 149,60 150,30 152,30
153,40 154,40 168,30 177,40
191,40 192,30 193,30 194,30
210,70 238,260 239,50 282,30
374,160 375,50
##END=
