##TITLE=3-Trifluoromethylcinnamic acid, 2-chlorophenyl ester
##JCAMP-DX=4.24
##DATA TYPE=MASS SPECTRUM
##ORIGIN=Zaikin V.G., TIPS RAS, Moscow, Russia
##OWNER=NIST Mass Spectrometry Data Center
Collection (C) 2014 copyright by the U.S. Secretary of Commerce
on behalf of the United States of America. All rights reserved.
##$NIST MASS SPEC NO=292636
##MOLFORM=C16 H10 Cl F3 O2
##MW=326
##$NIST SOURCE=MSDC
##XUNITS=M/Z
##YUNITS=RELATIVE INTENSITY
##XFACTOR=1
##YFACTOR=1
##FIRSTX=28
##LASTX=326
##FIRSTY=10
##MAXX=326
##MINX=28
##MAXY=9999
##MINY=10
##NPOINTS=35
##PEAK TABLE=(XY..XY)
28,10 39,40 50,40 51,40
63,90 64,50 73,70 74,30
75,120 76,40 95,60 99,160
101,100 102,270 120,60 125,50
126,30 127,50 128,90 130,30
145,160 151,1361 152,170 169,120
170,110 171,1361 172,140 199,9999
200,901 201,60 215,70 216,90
307,140 309,40 326,50
##END=
