##TITLE=m-Methoxybenzoic acid, 5-fluoro-2-nitrophenyl ester
##JCAMP-DX=4.24
##DATA TYPE=MASS SPECTRUM
##ORIGIN=Zaikin V.G., TIPS RAS, Moscow, Russia
##OWNER=NIST Mass Spectrometry Data Center
Collection (C) 2014 copyright by the U.S. Secretary of Commerce
on behalf of the United States of America. All rights reserved.
##$NIST MASS SPEC NO=292632
##MOLFORM=C14 H10 F N O5
##MW=291
##$NIST SOURCE=MSDC
##XUNITS=M/Z
##YUNITS=RELATIVE INTENSITY
##XFACTOR=1
##YFACTOR=1
##FIRSTX=28
##LASTX=292
##FIRSTY=10
##MAXX=292
##MINX=28
##MAXY=9999
##MINY=10
##NPOINTS=27
##PEAK TABLE=(XY..XY)
28,10 30,30 50,50 51,40
63,170 64,240 65,30 75,30
76,120 77,731 78,60 79,40
81,50 82,50 92,661 93,50
107,1401 108,120 127,30 135,9999
136,731 137,70 152,140 157,30
243,40 291,500 292,80
##END=
