##TITLE=5-Bromovaleric acid, 2,7-dimethyloct-7-en-5-yn-4-yl ester
##JCAMP-DX=4.24
##DATA TYPE=MASS SPECTRUM
##ORIGIN=Zaikin V.G., TIPS RAS, Moscow, Russia
##OWNER=NIST Mass Spectrometry Data Center
Collection (C) 2014 copyright by the U.S. Secretary of Commerce
on behalf of the United States of America. All rights reserved.
##$NIST MASS SPEC NO=292568
##MOLFORM=C15 H23 Br O2
##MW=314
##$NIST SOURCE=MSDC
##XUNITS=M/Z
##YUNITS=RELATIVE INTENSITY
##XFACTOR=1
##YFACTOR=1
##FIRSTX=25
##LASTX=317
##FIRSTY=20
##MAXX=317
##MINX=25
##MAXY=9999
##MINY=10
##NPOINTS=124
##PEAK TABLE=(XY..XY)
25,20 26,280 27,2272 28,10
29,1922 30,20 31,40 35,20
39,2202 40,510 41,4574 42,651
43,3863 44,701 45,120 49,20
50,330 51,991 52,550 53,1301
54,230 55,2072 56,871 57,731
58,50 59,130 60,20 61,20
62,110 63,460 64,310 65,1531
66,651 67,1371 68,390 69,1211
70,150 71,60 73,240 74,90
75,100 76,110 77,3063 78,791
79,2602 80,601 81,2893 82,510
83,811 84,230 85,220 89,170
90,150 91,6636 92,2572 93,2873
94,490 95,3593 96,1191 97,540
98,40 100,50 101,290 102,110
103,380 104,280 105,1581 106,420
107,1521 108,641 109,9178 110,5385
111,460 112,10 115,180 116,40
117,550 118,130 119,9999 120,1031
121,150 122,20 123,611 124,150
125,10 131,40 133,701 134,1331
135,5125 136,400 137,6296 138,340
151,971 152,3073 153,340 154,20
161,40 162,60 163,2823 164,200
165,2712 166,120 179,591 180,70
191,40 193,100 229,40 231,40
235,60 245,20 257,100 258,50
259,100 260,50 271,6956 272,871
273,6736 274,821 275,60 301,20
314,260 315,50 316,270 317,20
##END=
