##TITLE=2,6-Difluorobenzoic acid, 3-chloroprop-2-enyl ester
##JCAMP-DX=4.24
##DATA TYPE=MASS SPECTRUM
##ORIGIN=Zaikin V.G., TIPS RAS, Moscow, Russia
##OWNER=NIST Mass Spectrometry Data Center
Collection (C) 2014 copyright by the U.S. Secretary of Commerce
on behalf of the United States of America. All rights reserved.
##$NIST MASS SPEC NO=292590
##MOLFORM=C10 H7 Cl F2 O2
##MW=232
##$NIST SOURCE=MSDC
##XUNITS=M/Z
##YUNITS=RELATIVE INTENSITY
##XFACTOR=1
##YFACTOR=1
##FIRSTX=27
##LASTX=234
##FIRSTY=50
##MAXX=234
##MINX=27
##MAXY=9999
##MINY=30
##NPOINTS=49
##PEAK TABLE=(XY..XY)
27,50 28,40 36,100 38,70
39,340 41,50 44,60 49,120
50,40 51,40 57,30 61,30
62,60 63,530 64,30 67,50
68,170 69,90 73,30 74,50
75,781 76,30 77,240 79,30
81,30 87,30 91,170 93,140
94,80 112,70 113,1051 114,160
127,60 133,70 140,30 141,9999
142,771 143,50 151,30 153,130
158,210 159,70 169,50 187,30
197,1461 198,160 203,40 232,110
234,40
##END=
