##TITLE=3-Cyclopentylpropionic acid, 2-methyloct-5-yn-4-yl ester
##JCAMP-DX=4.24
##DATA TYPE=MASS SPECTRUM
##ORIGIN=Zaikin V.G., TIPS RAS, Moscow, Russia
##OWNER=NIST Mass Spectrometry Data Center
Collection (C) 2014 copyright by the U.S. Secretary of Commerce
on behalf of the United States of America. All rights reserved.
##$NIST MASS SPEC NO=292469
##MOLFORM=C17 H28 O2
##MW=264
##$NIST SOURCE=MSDC
##XUNITS=M/Z
##YUNITS=RELATIVE INTENSITY
##XFACTOR=1
##YFACTOR=1
##FIRSTX=26
##LASTX=265
##FIRSTY=60
##MAXX=265
##MINX=26
##MAXY=9999
##MINY=30
##NPOINTS=99
##PEAK TABLE=(XY..XY)
26,60 27,480 28,230 29,581
39,731 40,170 41,2472 42,270
43,1521 44,110 50,50 51,150
52,120 53,621 54,300 55,4714
56,330 57,550 58,30 60,120
63,50 65,360 66,340 67,1381
68,520 69,1752 70,160 71,130
73,170 74,50 77,781 78,220
79,3853 80,1241 81,4254 82,540
83,841 84,110 85,220 91,1121
92,220 93,4244 94,741 95,1121
96,180 97,1651 98,1351 99,150
100,40 105,440 106,90 107,9999
108,891 109,170 110,60 111,881
112,170 113,30 114,50 119,30
121,300 122,1461 123,1661 124,310
125,6166 126,561 127,60 135,30
138,40 139,761 140,4474 141,851
142,90 143,100 149,60 151,80
153,70 161,30 165,80 166,30
167,871 168,200 169,40 179,140
181,70 182,110 193,100 194,60
195,80 203,60 221,6075 222,1081
223,120 235,90 246,50 249,460
250,70 264,430 265,70
##END=
