##TITLE=4-Butylbenzoic acid, 2-(1-adamantyl)ethyl ester
##JCAMP-DX=4.24
##DATA TYPE=MASS SPECTRUM
##ORIGIN=Zaikin V.G., TIPS RAS, Moscow, Russia
##OWNER=NIST Mass Spectrometry Data Center
Collection (C) 2014 copyright by the U.S. Secretary of Commerce
on behalf of the United States of America. All rights reserved.
##$NIST MASS SPEC NO=292209
##MOLFORM=C23 H32 O2
##MW=340
##$NIST SOURCE=MSDC
##XUNITS=M/Z
##YUNITS=RELATIVE INTENSITY
##XFACTOR=1
##YFACTOR=1
##FIRSTX=26
##LASTX=323
##FIRSTY=30
##MAXX=323
##MINX=26
##MAXY=9999
##MINY=20
##NPOINTS=89
##PEAK TABLE=(XY..XY)
26,30 27,100 28,30 29,90
39,160 40,30 41,400 42,40
43,130 44,70 50,40 51,80
52,30 53,120 54,30 55,360
56,110 57,60 63,60 64,20
65,190 66,90 67,480 68,40
69,150 70,110 71,30 76,30
77,510 78,270 79,1341 80,550
81,490 82,60 83,40 84,140
89,190 90,510 91,2302 92,1661
93,1682 94,460 95,180 96,30
102,40 103,200 104,250 105,1401
106,1101 107,921 108,190 115,110
116,50 117,140 118,350 119,981
120,550 121,290 122,30 128,30
131,180 132,40 133,691 134,400
135,7327 136,2152 137,170 147,320
148,70 149,90 159,50 160,30
161,5965 162,9999 163,1421 164,100
176,50 177,30 178,5425 179,1051
180,110 191,50 205,340 206,40
265,70 283,40 297,40 322,110
323,20
##END=
