##TITLE=1-Isopropoxy-2-dimethyl-(isopropyl)-silyloxybenzene
##JCAMP-DX=4.24
##DATA TYPE=MASS SPECTRUM
##ORIGIN=Zaikin V.G., TIPS RAS, Moscow, Russia
##OWNER=NIST Mass Spectrometry Data Center
Collection (C) 2014 copyright by the U.S. Secretary of Commerce
on behalf of the United States of America. All rights reserved.
##$NIST MASS SPEC NO=292674
##MOLFORM=C14 H24 O2 Si
##MW=252
##$NIST SOURCE=MSDC
##XUNITS=M/Z
##YUNITS=RELATIVE INTENSITY
##XFACTOR=1
##YFACTOR=1
##FIRSTX=28
##LASTX=253
##FIRSTY=40
##MAXX=253
##MINX=28
##MAXY=9999
##MINY=30
##NPOINTS=32
##PEAK TABLE=(XY..XY)
28,40 41,100 43,290 45,30
59,170 61,40 65,30 73,250
75,991 76,80 77,80 91,280
92,40 107,30 135,50 136,530
137,170 138,30 149,270 150,40
151,1822 152,290 153,110 166,340
167,9999 168,1251 169,420 170,30
210,130 211,40 252,290 253,60
##END=
