##TITLE=5-Bromovaleric acid, octadecyl ester
##JCAMP-DX=4.24
##DATA TYPE=MASS SPECTRUM
##ORIGIN=Zaikin V.G., TIPS RAS, Moscow, Russia
##OWNER=NIST Mass Spectrometry Data Center
Collection (C) 2014 copyright by the U.S. Secretary of Commerce
on behalf of the United States of America. All rights reserved.
##$NIST MASS SPEC NO=292294
##MOLFORM=C23 H45 Br O2
##MW=432
##$NIST SOURCE=MSDC
##XUNITS=M/Z
##YUNITS=RELATIVE INTENSITY
##XFACTOR=1
##YFACTOR=1
##FIRSTX=26
##LASTX=429
##FIRSTY=260
##MAXX=429
##MINX=26
##MAXY=9999
##MINY=30
##NPOINTS=144
##PEAK TABLE=(XY..XY)
26,260 27,871 28,40 29,1591
31,30 35,270 36,2122 37,70
38,681 39,941 40,210 41,4804
42,1702 43,6376 44,1551 45,40
50,100 51,110 52,120 53,370
54,1131 55,9999 56,3813 57,7897
58,310 59,210 65,30 66,60
67,1471 68,1792 69,6266 70,3243
71,4404 72,160 73,1001 74,70
75,110 77,260 78,80 79,751
80,1081 81,1381 82,3773 83,7707
84,2442 85,3213 86,130 87,40
91,180 93,70 94,30 95,571
96,1461 97,6486 98,1722 99,691
100,931 101,5755 102,621 103,1521
104,40 105,40 107,50 109,290
110,601 111,3503 112,1201 113,350
115,70 117,30 119,140 123,70
124,310 125,1752 126,741 127,210
129,30 131,40 133,260 135,1862
136,90 137,1992 138,340 139,721
140,561 141,130 147,120 149,40
151,40 152,130 153,350 154,400
155,90 157,200 158,30 162,40
163,2212 164,150 165,1932 166,120
167,210 168,300 169,80 177,90
178,30 179,70 180,1772 181,9358
182,2312 183,9168 184,460 191,360
192,40 193,360 194,80 195,90
196,150 197,30 221,90 223,50
224,851 225,130 236,50 238,70
250,160 252,1161 253,260 265,40
267,210 268,30 269,40 284,30
297,731 298,110 335,30 341,160
353,310 354,30 355,160 357,30
401,30 415,50 417,30 429,40
##END=
