##TITLE=o-Toluic acid, tridecyl ester
##JCAMP-DX=4.24
##DATA TYPE=MASS SPECTRUM
##ORIGIN=Zaikin V.G., TIPS RAS, Moscow, Russia
##OWNER=NIST Mass Spectrometry Data Center
Collection (C) 2014 copyright by the U.S. Secretary of Commerce
on behalf of the United States of America. All rights reserved.
##$NIST MASS SPEC NO=292382
##MOLFORM=C21 H34 O2
##MW=318
##$NIST SOURCE=MSDC
##XUNITS=M/Z
##YUNITS=RELATIVE INTENSITY
##XFACTOR=1
##YFACTOR=1
##FIRSTX=27
##LASTX=320
##FIRSTY=50
##MAXX=320
##MINX=27
##MAXY=9999
##MINY=20
##NPOINTS=65
##PEAK TABLE=(XY..XY)
27,50 28,20 29,120 36,80
39,110 41,450 42,120 43,691
44,70 51,30 53,40 54,70
55,611 56,250 57,871 58,40
63,50 65,280 67,110 68,110
69,420 70,240 71,540 72,30
77,90 79,60 81,60 82,120
83,340 84,160 85,340 89,130
90,270 91,1531 92,200 93,160
95,30 96,80 97,280 98,110
99,40 105,60 107,30 110,30
111,160 112,70 118,2933 119,3373
120,340 121,30 125,80 126,50
135,300 136,9999 137,5165 138,460
139,60 149,30 152,60 154,80
182,180 183,30 318,941 319,240
320,30
##END=
