##TITLE=trans-(3-Trifluoromethyl)cinnamin acid, heptadecyl ester
##JCAMP-DX=4.24
##DATA TYPE=MASS SPECTRUM
##ORIGIN=Zaikin V.G., TIPS RAS, Moscow, Russia
##OWNER=NIST Mass Spectrometry Data Center
Collection (C) 2014 copyright by the U.S. Secretary of Commerce
on behalf of the United States of America. All rights reserved.
##$NIST MASS SPEC NO=292267
##MOLFORM=C27 H41 F3 O2
##MW=454
##$NIST SOURCE=MSDC
##XUNITS=M/Z
##YUNITS=RELATIVE INTENSITY
##XFACTOR=1
##YFACTOR=1
##FIRSTX=26
##LASTX=457
##FIRSTY=50
##MAXX=457
##MINX=26
##MAXY=9999
##MINY=10
##NPOINTS=196
##PEAK TABLE=(XY..XY)
26,50 27,160 28,300 29,370
32,60 36,10 37,10 38,20
39,190 40,40 41,1171 42,350
43,1852 44,60 45,10 50,50
51,60 52,10 53,90 54,360
55,2002 56,881 57,1772 58,70
62,10 63,20 65,20 66,50
67,550 68,681 69,1932 70,871
71,921 72,50 73,10 74,30
75,80 76,40 77,40 78,10
79,50 80,30 81,420 82,1031
83,2222 84,641 85,601 86,40
91,40 93,10 94,30 95,360
96,781 97,2022 98,450 99,140
100,40 101,60 102,290 103,70
107,10 108,10 109,210 110,350
111,1051 112,300 113,80 114,10
115,10 119,50 120,80 121,20
122,20 123,160 124,250 125,490
126,190 127,90 128,10 129,20
131,70 132,10 133,40 135,10
136,10 137,120 138,160 139,180
140,130 141,40 143,10 144,10
145,180 146,60 147,240 148,20
149,20 150,10 151,1601 152,320
153,110 154,90 155,20 156,10
157,10 159,150 160,20 165,30
166,80 167,60 168,70 169,170
170,300 171,1722 172,821 173,120
174,10 175,70 177,20 179,60
180,110 181,130 182,40 183,10
184,10 185,30 186,30 187,20
188,80 189,10 193,20 194,50
195,20 196,30 197,1091 198,350
199,8117 200,881 201,110 202,20
208,90 209,20 210,100 211,30
212,30 213,10 214,40 215,1581
216,7757 217,9999 218,1301 219,160
220,10 225,10 226,10 227,20
229,10 230,50 231,10 235,10
236,671 237,150 238,100 239,20
240,10 241,10 242,20 243,30
244,20 251,10 253,40 254,10
255,80 256,30 257,691 258,110
259,10 267,10 270,10 271,661
272,120 273,10 277,20 281,50
282,10 295,130 296,20 394,20
395,10 408,10 414,10 436,20
437,20 454,310 456,100 457,10
##END=
