##TITLE=5-Chlorovaleric acid, heptadecyl ester
##JCAMP-DX=4.24
##DATA TYPE=MASS SPECTRUM
##ORIGIN=Zaikin V.G., TIPS RAS, Moscow, Russia
##OWNER=NIST Mass Spectrometry Data Center
Collection (C) 2014 copyright by the U.S. Secretary of Commerce
on behalf of the United States of America. All rights reserved.
##$NIST MASS SPEC NO=292249
##MOLFORM=C22 H43 Cl O2
##MW=374
##$NIST SOURCE=MSDC
##XUNITS=M/Z
##YUNITS=RELATIVE INTENSITY
##XFACTOR=1
##YFACTOR=1
##FIRSTX=26
##LASTX=339
##FIRSTY=100
##MAXX=339
##MINX=26
##MAXY=9999
##MINY=10
##NPOINTS=112
##PEAK TABLE=(XY..XY)
26,100 27,360 28,10 29,711
36,120 38,40 39,340 40,80
41,1762 42,591 43,2793 44,190
45,30 51,20 53,170 54,540
55,4384 56,1892 57,3453 58,190
59,100 60,50 63,70 65,40
66,50 67,691 68,951 69,3093
70,2002 71,2072 72,120 73,330
74,30 77,30 79,60 80,30
81,460 82,1531 83,4484 84,1551
85,1381 86,90 87,80 91,1121
92,60 93,380 94,30 95,290
96,771 97,3673 98,1111 99,350
100,320 101,1491 102,90 103,60
109,120 110,360 111,2022 112,791
113,210 115,30 116,70 118,80
119,2372 120,160 121,791 122,40
123,60 124,220 125,1001 126,561
127,140 134,40 135,60 136,1641
137,9999 138,1101 139,3153 140,400
141,100 147,30 152,90 153,200
154,270 155,70 157,70 163,30
166,60 167,120 168,200 169,50
174,30 177,50 180,40 181,70
182,150 183,40 192,230 193,30
194,90 195,40 196,80 197,30
210,540 211,120 236,40 238,520
239,120 283,400 284,70 339,100
##END=
