##TITLE=p-Toluic acid, 2-chlorophenyl ester
##JCAMP-DX=4.24
##DATA TYPE=MASS SPECTRUM
##ORIGIN=Zaikin V.G., TIPS RAS, Moscow, Russia
##OWNER=NIST Mass Spectrometry Data Center
Collection (C) 2014 copyright by the U.S. Secretary of Commerce
on behalf of the United States of America. All rights reserved.
##$NIST MASS SPEC NO=292643
##MOLFORM=C14 H11 Cl O2
##MW=246
##$NIST SOURCE=MSDC
##XUNITS=M/Z
##YUNITS=RELATIVE INTENSITY
##XFACTOR=1
##YFACTOR=1
##FIRSTX=28
##LASTX=248
##FIRSTY=10
##MAXX=248
##MINX=28
##MAXY=9999
##MINY=10
##NPOINTS=27
##PEAK TABLE=(XY..XY)
28,10 38,30 39,170 41,50
50,50 51,70 62,50 63,210
64,90 65,591 66,30 73,80
75,50 89,190 90,130 91,2152
92,170 99,120 101,40 118,50
119,9999 120,721 121,40 127,30
128,70 246,110 248,30
##END=
