##TITLE=Diisopropyl-silyloxybenzene
##JCAMP-DX=4.24
##DATA TYPE=MASS SPECTRUM
##ORIGIN=Zaikin V.G., TIPS RAS, Moscow, Russia
##OWNER=NIST Mass Spectrometry Data Center
Collection (C) 2014 copyright by the U.S. Secretary of Commerce
on behalf of the United States of America. All rights reserved.
##$NIST MASS SPEC NO=292687
##MOLFORM=C12 H20 O Si
##MW=208
##$NIST SOURCE=MSDC
##XUNITS=M/Z
##YUNITS=RELATIVE INTENSITY
##XFACTOR=1
##YFACTOR=1
##FIRSTX=27
##LASTX=209
##FIRSTY=40
##MAXX=209
##MINX=27
##MAXY=9999
##MINY=20
##NPOINTS=38
##PEAK TABLE=(XY..XY)
27,40 28,20 39,50 41,60
43,100 45,190 51,150 59,60
61,150 68,30 71,40 75,30
76,30 77,811 78,240 79,110
81,40 91,100 105,50 109,160
119,30 121,1101 122,140 123,400
124,110 135,120 137,9999 138,1051
139,360 149,80 151,140 163,160
164,150 165,1872 166,460 167,110
208,2202 209,350
##END=
