##TITLE=o-Toluic acid, hexadecyl ester
##JCAMP-DX=4.24
##DATA TYPE=MASS SPECTRUM
##ORIGIN=Zaikin V.G., TIPS RAS, Moscow, Russia
##OWNER=NIST Mass Spectrometry Data Center
Collection (C) 2014 copyright by the U.S. Secretary of Commerce
on behalf of the United States of America. All rights reserved.
##$NIST MASS SPEC NO=292385
##MOLFORM=C24 H40 O2
##MW=360
##$NIST SOURCE=MSDC
##XUNITS=M/Z
##YUNITS=RELATIVE INTENSITY
##XFACTOR=1
##YFACTOR=1
##FIRSTX=27
##LASTX=362
##FIRSTY=70
##MAXX=362
##MINX=27
##MAXY=9999
##MINY=10
##NPOINTS=62
##PEAK TABLE=(XY..XY)
27,70 28,10 29,180 36,30
39,120 41,581 42,150 43,981
44,80 51,20 53,40 54,90
55,811 56,290 57,1101 58,50
63,40 65,230 67,140 68,130
69,561 70,260 71,631 72,30
77,70 79,50 81,80 82,160
83,440 84,160 85,420 89,100
90,220 91,1241 92,160 93,160
95,40 96,90 97,370 98,100
99,70 105,50 110,40 111,190
112,70 113,40 118,2222 119,2813
120,260 125,90 126,50 135,210
136,9999 137,5555 138,480 139,60
140,30 196,50 224,120 360,741
361,210 362,30
##END=
