##TITLE=p-Toluic acid, pentadecyl ester
##JCAMP-DX=4.24
##DATA TYPE=MASS SPECTRUM
##ORIGIN=Zaikin V.G., TIPS RAS, Moscow, Russia
##OWNER=NIST Mass Spectrometry Data Center
Collection (C) 2014 copyright by the U.S. Secretary of Commerce
on behalf of the United States of America. All rights reserved.
##$NIST MASS SPEC NO=292407
##MOLFORM=C23 H38 O2
##MW=346
##$NIST SOURCE=MSDC
##XUNITS=M/Z
##YUNITS=RELATIVE INTENSITY
##XFACTOR=1
##YFACTOR=1
##FIRSTX=27
##LASTX=347
##FIRSTY=50
##MAXX=347
##MINX=27
##MAXY=9999
##MINY=20
##NPOINTS=52
##PEAK TABLE=(XY..XY)
27,50 28,20 29,110 39,70
41,360 42,90 43,450 44,30
54,90 55,500 56,230 57,330
65,170 67,120 68,140 69,400
70,230 71,140 77,30 81,70
82,150 83,380 84,160 85,80
89,60 90,70 91,981 92,140
93,200 95,40 96,80 97,320
98,100 110,30 111,150 112,60
118,40 119,3213 120,300 121,30
125,70 126,40 136,5535 137,9999
138,751 139,80 140,30 149,30
182,40 210,170 346,140 347,40
##END=
