##TITLE=3-Trifluoromethylcinnamic acid, 2-methylphenyl ester
##JCAMP-DX=4.24
##DATA TYPE=MASS SPECTRUM
##ORIGIN=Zaikin V.G., TIPS RAS, Moscow, Russia
##OWNER=NIST Mass Spectrometry Data Center
Collection (C) 2014 copyright by the U.S. Secretary of Commerce
on behalf of the United States of America. All rights reserved.
##$NIST MASS SPEC NO=292635
##MOLFORM=C17 H13 F3 O2
##MW=306
##$NIST SOURCE=MSDC
##XUNITS=M/Z
##YUNITS=RELATIVE INTENSITY
##XFACTOR=1
##YFACTOR=1
##FIRSTX=28
##LASTX=307
##FIRSTY=20
##MAXX=307
##MINX=28
##MAXY=9999
##MINY=20
##NPOINTS=36
##PEAK TABLE=(XY..XY)
28,20 39,50 50,40 51,80
52,30 53,30 63,30 75,70
76,30 77,190 78,60 79,50
91,30 95,50 101,50 102,230
107,140 108,90 120,50 125,40
145,130 151,1241 152,160 169,90
170,100 171,1291 172,140 199,9999
200,861 201,50 215,70 216,90
287,170 288,30 306,230 307,40
##END=
