##TITLE=2,6-Difluorobenzoic acid, tetradecyl ester
##JCAMP-DX=4.24
##DATA TYPE=MASS SPECTRUM
##ORIGIN=Zaikin V.G., TIPS RAS, Moscow, Russia
##OWNER=NIST Mass Spectrometry Data Center
Collection (C) 2014 copyright by the U.S. Secretary of Commerce
on behalf of the United States of America. All rights reserved.
##$NIST MASS SPEC NO=292394
##MOLFORM=C21 H32 F2 O2
##MW=354
##$NIST SOURCE=MSDC
##XUNITS=M/Z
##YUNITS=RELATIVE INTENSITY
##XFACTOR=1
##YFACTOR=1
##FIRSTX=26
##LASTX=197
##FIRSTY=40
##MAXX=197
##MINX=26
##MAXY=9999
##MINY=20
##NPOINTS=60
##PEAK TABLE=(XY..XY)
26,40 27,180 28,20 29,410
39,190 40,40 41,1131 42,360
43,1451 44,90 53,80 54,310
55,1682 56,1001 57,1171 58,50
63,270 67,360 68,420 69,1451
70,991 71,500 79,30 81,190
82,450 83,1411 84,651 85,270
93,50 94,60 95,90 96,210
97,1091 98,400 99,40 109,20
110,100 111,540 112,250 113,721
114,160 124,50 125,230 126,140
139,70 140,90 141,5795 142,390
143,40 153,30 154,40 156,30
158,400 159,9999 160,621 161,50
168,210 169,30 196,250 197,30
##END=
