##TITLE=trans-(3-Trifluoromethyl)cinnamin acid, 4-hexadecyl ester
##JCAMP-DX=4.24
##DATA TYPE=MASS SPECTRUM
##ORIGIN=Zaikin V.G., TIPS RAS, Moscow, Russia
##OWNER=NIST Mass Spectrometry Data Center
Collection (C) 2014 copyright by the U.S. Secretary of Commerce
on behalf of the United States of America. All rights reserved.
##$NIST MASS SPEC NO=292266
##MOLFORM=C26 H39 F3 O2
##MW=440
##$NIST SOURCE=MSDC
##XUNITS=M/Z
##YUNITS=RELATIVE INTENSITY
##XFACTOR=1
##YFACTOR=1
##FIRSTX=26
##LASTX=441
##FIRSTY=10
##MAXX=441
##MINX=26
##MAXY=9999
##MINY=10
##NPOINTS=116
##PEAK TABLE=(XY..XY)
26,10 27,60 28,90 29,110
32,10 39,60 40,10 41,350
42,100 43,520 44,20 50,10
51,20 53,20 54,80 55,530
56,290 57,520 58,30 63,10
66,10 67,110 68,100 69,500
70,340 71,290 72,20 74,10
75,30 76,10 77,10 79,10
81,90 82,170 83,550 84,290
85,190 86,20 91,10 95,60
96,130 97,611 98,210 99,60
101,20 102,120 103,20 109,20
110,80 111,410 112,150 113,30
119,10 120,30 123,10 124,50
125,230 126,110 127,20 131,10
133,10 138,30 139,90 140,80
141,10 145,70 146,10 147,30
151,681 152,110 153,50 154,60
155,10 159,20 166,10 167,30
168,30 169,60 170,110 171,781
172,220 173,20 175,10 179,10
180,30 181,40 182,20 188,10
195,10 196,80 197,190 198,60
199,9999 200,891 201,60 214,70
215,200 216,360 217,1631 218,200
219,10 222,60 223,40 224,631
225,110 226,10 228,10 241,70
242,30 271,10 281,90 282,10
299,20 313,10 440,40 441,10
##END=
