##TITLE=p-Toluic acid, hex-4-yn-3-yl ester
##JCAMP-DX=4.24
##DATA TYPE=MASS SPECTRUM
##ORIGIN=Zaikin V.G., TIPS RAS, Moscow, Russia
##OWNER=NIST Mass Spectrometry Data Center
Collection (C) 2014 copyright by the U.S. Secretary of Commerce
on behalf of the United States of America. All rights reserved.
##$NIST MASS SPEC NO=292504
##MOLFORM=C14 H16 O2
##MW=216
##$NIST SOURCE=MSDC
##XUNITS=M/Z
##YUNITS=RELATIVE INTENSITY
##XFACTOR=1
##YFACTOR=1
##FIRSTX=27
##LASTX=216
##FIRSTY=80
##MAXX=216
##MINX=27
##MAXY=9999
##MINY=10
##NPOINTS=53
##PEAK TABLE=(XY..XY)
27,80 28,10 29,30 36,30
38,30 39,240 40,40 41,260
50,50 51,110 52,80 53,330
55,50 62,20 63,120 64,30
65,601 66,90 67,30 69,30
77,190 78,40 79,1521 80,571
81,380 89,160 90,130 91,1702
92,160 93,70 97,270 100,30
118,40 119,9999 120,1011 121,60
128,30 135,40 136,120 137,260
143,50 144,20 146,120 157,40
159,40 160,30 173,40 187,230
188,581 189,70 201,470 202,60
216,180
##END=
