##TITLE=4-Butylbenzoic acid, heptadecyl ester
##JCAMP-DX=4.24
##DATA TYPE=MASS SPECTRUM
##ORIGIN=Zaikin V.G., TIPS RAS, Moscow, Russia
##OWNER=NIST Mass Spectrometry Data Center
Collection (C) 2014 copyright by the U.S. Secretary of Commerce
on behalf of the United States of America. All rights reserved.
##$NIST MASS SPEC NO=292213
##MOLFORM=C28 H48 O2
##MW=416
##$NIST SOURCE=MSDC
##XUNITS=M/Z
##YUNITS=RELATIVE INTENSITY
##XFACTOR=1
##YFACTOR=1
##FIRSTX=27
##LASTX=417
##FIRSTY=60
##MAXX=417
##MINX=27
##MAXY=9999
##MINY=30
##NPOINTS=69
##PEAK TABLE=(XY..XY)
27,60 28,50 29,120 39,80
41,410 42,100 43,581 53,30
54,80 55,631 56,230 57,571
65,40 67,140 68,140 69,470
70,200 71,200 77,60 79,60
81,90 82,150 83,410 84,140
85,110 89,50 90,160 91,681
92,410 93,50 95,50 96,80
97,330 98,90 103,40 104,30
105,110 107,70 110,30 111,150
112,50 115,30 117,40 118,150
119,130 123,140 125,60 126,30
131,100 133,180 134,30 135,460
136,2142 137,300 138,30 149,70
161,2522 162,310 163,40 176,30
177,40 178,5235 179,9999 180,971
181,90 191,40 238,50 416,140
417,50
##END=
