##TITLE=5-Chlorovaleric acid, but-3-yn-2-yl ester
##JCAMP-DX=4.24
##DATA TYPE=MASS SPECTRUM
##ORIGIN=Zaikin V.G., TIPS RAS, Moscow, Russia
##OWNER=NIST Mass Spectrometry Data Center
Collection (C) 2014 copyright by the U.S. Secretary of Commerce
on behalf of the United States of America. All rights reserved.
##$NIST MASS SPEC NO=292473
##MOLFORM=C9 H13 Cl O2
##MW=188
##$NIST SOURCE=MSDC
##XUNITS=M/Z
##YUNITS=RELATIVE INTENSITY
##XFACTOR=1
##YFACTOR=1
##FIRSTX=26
##LASTX=190
##FIRSTY=150
##MAXX=190
##MINX=26
##MAXY=9999
##MINY=10
##NPOINTS=81
##PEAK TABLE=(XY..XY)
26,150 27,1271 28,10 29,661
31,10 36,140 37,20 38,110
39,420 40,60 41,480 42,270
43,510 44,110 45,130 49,150
50,250 51,510 52,1331 53,4074
54,410 55,4014 56,240 57,160
58,80 59,200 60,130 62,80
63,260 64,30 65,80 67,50
69,601 70,250 71,80 73,450
74,40 75,50 77,20 79,60
81,30 82,70 83,841 84,260
85,20 87,100 88,50 89,50
90,50 91,3633 92,180 93,1201
94,50 95,20 97,520 98,40
99,130 100,530 101,711 102,40
107,40 109,20 111,60 112,100
117,20 118,140 119,9999 120,561
121,3013 122,160 125,150 135,30
136,70 137,220 138,30 139,60
145,30 153,60 173,30 188,70
190,20
##END=
