##TITLE=o-Methoxybenzoic acid, heptyl ester
##JCAMP-DX=4.24
##DATA TYPE=MASS SPECTRUM
##ORIGIN=Zaikin V.G., TIPS RAS, Moscow, Russia
##OWNER=NIST Mass Spectrometry Data Center
Collection (C) 2014 copyright by the U.S. Secretary of Commerce
on behalf of the United States of America. All rights reserved.
##$NIST MASS SPEC NO=292299
##MOLFORM=C15 H22 O3
##MW=250
##$NIST SOURCE=MSDC
##XUNITS=M/Z
##YUNITS=RELATIVE INTENSITY
##XFACTOR=1
##YFACTOR=1
##FIRSTX=26
##LASTX=252
##FIRSTY=20
##MAXX=252
##MINX=26
##MAXY=9999
##MINY=10
##NPOINTS=77
##PEAK TABLE=(XY..XY)
26,20 27,110 29,200 30,10
36,30 38,40 39,130 40,20
41,360 42,90 43,200 44,30
50,60 51,130 52,20 53,40
54,20 55,240 56,120 57,200
62,20 63,120 64,140 65,90
66,10 67,20 68,20 69,80
70,80 71,10 74,20 75,20
76,110 77,1261 78,170 79,230
80,10 81,30 83,10 90,20
91,20 92,611 93,80 94,30
98,20 104,50 105,891 106,220
107,140 108,60 109,10 118,20
119,40 120,210 121,230 122,110
123,2232 124,170 125,10 133,741
134,430 135,9999 136,811 137,70
138,10 151,210 152,2532 153,2642
154,240 155,20 165,20 179,10
180,40 221,30 250,1001 251,180
252,10
##END=
