##TITLE=3-Cyclopentylpropionic acid, hexyl ester
##JCAMP-DX=4.24
##DATA TYPE=MASS SPECTRUM
##ORIGIN=Zaikin V.G., TIPS RAS, Moscow, Russia
##OWNER=NIST Mass Spectrometry Data Center
Collection (C) 2014 copyright by the U.S. Secretary of Commerce
on behalf of the United States of America. All rights reserved.
##$NIST MASS SPEC NO=292334
##MOLFORM=C14 H26 O2
##MW=226
##$NIST SOURCE=MSDC
##XUNITS=M/Z
##YUNITS=RELATIVE INTENSITY
##XFACTOR=1
##YFACTOR=1
##FIRSTX=26
##LASTX=227
##FIRSTY=80
##MAXX=227
##MINX=26
##MAXY=9999
##MINY=20
##NPOINTS=92
##PEAK TABLE=(XY..XY)
26,80 27,420 28,20 29,611
31,30 36,150 38,80 39,621
40,210 41,2472 42,941 43,3643
44,340 45,50 50,30 51,60
52,40 53,390 54,510 55,4404
56,3763 57,871 58,100 59,90
60,1091 61,2752 62,80 63,20
65,110 66,140 67,1631 68,711
69,2582 70,280 71,140 72,60
73,3393 74,701 75,150 77,100
78,40 79,1101 80,671 81,1932
82,1361 83,4614 84,7507 85,2072
86,140 87,120 91,70 93,60
94,60 95,931 96,851 97,1421
98,130 99,240 100,360 101,210
102,50 105,90 106,160 107,2412
108,230 109,40 113,140 114,430
115,180 116,70 121,30 122,160
123,641 124,941 125,8658 126,851
127,120 129,220 140,50 141,450
142,621 143,9999 144,1201 145,370
146,30 155,50 157,1321 158,150
169,90 183,90 226,30 227,30
##END=
