##TITLE=o-Toluic acid, 2,6-dimethylnon-1-en-3-yn-5-yl ester
##JCAMP-DX=4.24
##DATA TYPE=MASS SPECTRUM
##ORIGIN=Zaikin V.G., TIPS RAS, Moscow, Russia
##OWNER=NIST Mass Spectrometry Data Center
Collection (C) 2014 copyright by the U.S. Secretary of Commerce
on behalf of the United States of America. All rights reserved.
##$NIST MASS SPEC NO=292516
##MOLFORM=C19 H24 O2
##MW=284
##$NIST SOURCE=MSDC
##XUNITS=M/Z
##YUNITS=RELATIVE INTENSITY
##XFACTOR=1
##YFACTOR=1
##FIRSTX=28
##LASTX=284
##FIRSTY=10
##MAXX=284
##MINX=28
##MAXY=9999
##MINY=10
##NPOINTS=48
##PEAK TABLE=(XY..XY)
28,10 36,40 39,60 41,80
43,40 51,40 53,40 55,50
63,60 65,230 67,30 69,60
77,200 78,50 79,120 81,30
82,40 89,90 90,140 91,1511
92,200 93,140 95,80 103,30
105,230 106,210 107,130 117,30
118,180 119,9999 120,911 121,80
123,100 133,400 134,50 135,30
136,280 137,50 148,460 149,60
165,180 185,30 213,40 214,90
241,370 242,70 269,60 284,30
##END=
