##TITLE=4-Ethylbenzoic acid, hexadecyl ester
##JCAMP-DX=4.24
##DATA TYPE=MASS SPECTRUM
##ORIGIN=Zaikin V.G., TIPS RAS, Moscow, Russia
##OWNER=NIST Mass Spectrometry Data Center
Collection (C) 2014 copyright by the U.S. Secretary of Commerce
on behalf of the United States of America. All rights reserved.
##$NIST MASS SPEC NO=292350
##MOLFORM=C25 H42 O2
##MW=374
##$NIST SOURCE=MSDC
##XUNITS=M/Z
##YUNITS=RELATIVE INTENSITY
##XFACTOR=1
##YFACTOR=1
##FIRSTX=27
##LASTX=376
##FIRSTY=70
##MAXX=376
##MINX=27
##MAXY=9999
##MINY=20
##NPOINTS=68
##PEAK TABLE=(XY..XY)
27,70 28,50 29,140 39,70
41,400 42,100 43,561 44,30
51,30 53,30 54,90 55,601
56,240 57,410 67,140 68,160
69,450 70,230 71,170 77,200
78,50 79,420 80,30 81,90
82,160 83,420 84,160 85,100
89,40 90,70 91,200 95,50
96,80 97,340 98,100 103,180
104,100 105,1321 106,170 107,70
110,30 111,160 112,70 119,40
123,30 125,70 126,40 131,50
132,40 133,3693 134,350 135,390
136,50 137,30 140,30 148,40
149,40 150,7267 151,9999 152,981
153,90 163,40 191,30 196,30
224,110 357,20 374,180 376,50
##END=
