##TITLE=3-Bromobenzoic acid, 2-isopropoxyphenyl ester
##JCAMP-DX=4.24
##DATA TYPE=MASS SPECTRUM
##ORIGIN=Zaikin V.G., TIPS RAS, Moscow, Russia
##OWNER=NIST Mass Spectrometry Data Center
Collection (C) 2014 copyright by the U.S. Secretary of Commerce
on behalf of the United States of America. All rights reserved.
##$NIST MASS SPEC NO=292667
##MOLFORM=C16 H15 Br O3
##MW=334
##$NIST SOURCE=MSDC
##XUNITS=M/Z
##YUNITS=RELATIVE INTENSITY
##XFACTOR=1
##YFACTOR=1
##FIRSTX=27
##LASTX=337
##FIRSTY=80
##MAXX=337
##MINX=27
##MAXY=9999
##MINY=20
##NPOINTS=42
##PEAK TABLE=(XY..XY)
27,80 28,20 39,60 41,120
43,140 50,170 51,70 52,160
53,50 63,30 64,30 65,40
74,60 75,300 76,500 77,70
80,110 81,230 104,230 105,30
109,220 110,190 111,50 121,40
135,30 155,1101 156,90 157,1061
158,80 183,9999 184,591 185,9599
186,571 187,30 292,450 293,70
294,450 295,60 334,490 335,80
336,480 337,80
##END=
