##TITLE=2-Chlorobenzoic acid, dodec-9-ynyl ester
##JCAMP-DX=4.24
##DATA TYPE=MASS SPECTRUM
##ORIGIN=Zaikin V.G., TIPS RAS, Moscow, Russia
##OWNER=NIST Mass Spectrometry Data Center
Collection (C) 2014 copyright by the U.S. Secretary of Commerce
on behalf of the United States of America. All rights reserved.
##$NIST MASS SPEC NO=292281
##MOLFORM=C19 H25 Cl O2
##MW=320
##$NIST SOURCE=MSDC
##XUNITS=M/Z
##YUNITS=RELATIVE INTENSITY
##XFACTOR=1
##YFACTOR=1
##FIRSTX=26
##LASTX=255
##FIRSTY=40
##MAXX=255
##MINX=26
##MAXY=9999
##MINY=30
##NPOINTS=93
##PEAK TABLE=(XY..XY)
26,40 27,150 28,80 29,200
36,110 38,70 39,370 40,120
41,1351 42,160 43,280 44,110
50,180 51,190 52,90 53,460
54,510 55,1752 56,150 57,90
63,50 65,320 66,530 67,2993
68,5075 69,761 70,50 71,40
74,90 75,701 76,350 77,781
78,220 79,2452 80,1071 81,1692
82,3043 83,430 84,30 85,70
91,490 92,140 93,2302 94,841
95,1311 96,661 97,991 98,80
104,160 105,390 106,70 107,1401
108,701 109,561 110,230 111,2192
112,270 113,801 114,80 115,50
119,60 120,30 121,1271 122,621
123,160 128,30 133,40 135,1461
136,390 137,40 138,30 139,9999
140,771 141,3183 142,260 148,50
149,140 156,571 157,5405 158,611
159,1832 160,140 161,50 163,50
164,390 165,50 178,30 181,40
239,100 241,30 253,330 254,40
255,110
##END=
