##TITLE=3-Cyclopentylpropionic acid, dodec-9-ynyl ester
##JCAMP-DX=4.24
##DATA TYPE=MASS SPECTRUM
##ORIGIN=Zaikin V.G., TIPS RAS, Moscow, Russia
##OWNER=NIST Mass Spectrometry Data Center
Collection (C) 2014 copyright by the U.S. Secretary of Commerce
on behalf of the United States of America. All rights reserved.
##$NIST MASS SPEC NO=292272
##MOLFORM=C20 H34 O2
##MW=306
##$NIST SOURCE=MSDC
##XUNITS=M/Z
##YUNITS=RELATIVE INTENSITY
##XFACTOR=1
##YFACTOR=1
##FIRSTX=26
##LASTX=277
##FIRSTY=180
##MAXX=277
##MINX=26
##MAXY=9999
##MINY=20
##NPOINTS=113
##PEAK TABLE=(XY..XY)
26,180 27,581 28,300 29,761
31,40 36,30 37,30 38,70
39,981 40,300 41,3984 42,530
43,951 44,150 45,40 50,80
51,160 52,160 53,851 54,911
55,6776 56,540 57,390 58,40
59,30 60,300 61,70 63,60
65,450 66,831 67,5895 68,9999
69,2662 70,250 71,240 73,631
74,130 77,581 78,270 79,3833
80,1832 81,4684 82,6386 83,2562
84,240 85,130 86,30 87,40
91,601 92,170 93,2953 94,1371
95,3393 96,1561 97,3133 98,350
99,130 100,100 101,70 105,230
106,120 107,3213 108,1141 109,1832
110,530 111,180 112,70 113,80
114,110 115,70 119,80 120,60
121,1972 122,1071 123,1051 124,340
125,3053 126,400 127,70 133,60
134,40 135,2552 136,661 137,140
138,60 139,120 140,170 141,480
142,120 143,3023 144,270 149,350
150,50 151,30 153,60 163,160
164,671 165,180 166,30 167,30
177,40 179,30 180,30 181,100
182,50 183,30 195,30 196,70
223,30 225,120 237,30 239,180
277,20
##END=
