##TITLE=p-Toluic acid, undecyl ester
##JCAMP-DX=4.24
##DATA TYPE=MASS SPECTRUM
##ORIGIN=Zaikin V.G., TIPS RAS, Moscow, Russia
##OWNER=NIST Mass Spectrometry Data Center
Collection (C) 2014 copyright by the U.S. Secretary of Commerce
on behalf of the United States of America. All rights reserved.
##$NIST MASS SPEC NO=292219
##MOLFORM=C19 H30 O2
##MW=290
##$NIST SOURCE=MSDC
##XUNITS=M/Z
##YUNITS=RELATIVE INTENSITY
##XFACTOR=1
##YFACTOR=1
##FIRSTX=27
##LASTX=290
##FIRSTY=130
##MAXX=290
##MINX=27
##MAXY=9999
##MINY=20
##NPOINTS=56
##PEAK TABLE=(XY..XY)
27,130 28,100 29,260 39,190
40,30 41,651 42,180 43,571
51,50 53,60 54,100 55,661
56,390 57,280 63,80 64,20
65,430 66,30 67,140 68,150
69,460 70,370 71,100 77,70
81,50 82,130 83,330 84,240
85,50 89,160 90,170 91,2102
92,290 93,310 96,50 97,270
98,120 105,40 107,50 111,110
112,50 118,60 119,6406 120,510
121,50 125,50 126,90 135,40
136,7106 137,9999 138,701 139,60
149,50 154,180 177,30 290,40
##END=
