##TITLE=5-Bromovaleric acid, tridecyl ester
##JCAMP-DX=4.24
##DATA TYPE=MASS SPECTRUM
##ORIGIN=Zaikin V.G., TIPS RAS, Moscow, Russia
##OWNER=NIST Mass Spectrometry Data Center
Collection (C) 2014 copyright by the U.S. Secretary of Commerce
on behalf of the United States of America. All rights reserved.
##$NIST MASS SPEC NO=292290
##MOLFORM=C18 H35 Br O2
##MW=362
##$NIST SOURCE=MSDC
##XUNITS=M/Z
##YUNITS=RELATIVE INTENSITY
##XFACTOR=1
##YFACTOR=1
##FIRSTX=26
##LASTX=284
##FIRSTY=90
##MAXX=284
##MINX=26
##MAXY=9999
##MINY=10
##NPOINTS=116
##PEAK TABLE=(XY..XY)
26,90 27,631 28,10 29,1321
31,30 36,230 38,70 39,581
40,130 41,3533 42,1161 43,4674
44,300 45,70 51,30 52,20
53,330 54,851 55,9048 56,4054
57,5815 58,270 59,270 60,30
65,30 66,70 67,1011 68,1561
69,5465 70,4374 71,3363 72,180
73,661 74,50 77,40 79,180
80,210 81,681 82,2682 83,7086
84,3503 85,2262 86,130 87,70
91,30 95,280 96,1201 97,5585
98,2472 99,571 100,460 101,6806
102,460 103,270 107,180 108,30
109,270 110,571 111,3213 112,1702
113,330 115,60 123,40 124,300
125,1621 126,991 127,210 129,50
133,30 135,2532 136,120 137,2462
138,250 139,601 140,631 141,130
143,30 152,90 153,260 154,2022
155,300 157,470 158,40 162,110
163,3643 164,320 165,3593 166,210
171,60 178,40 179,40 180,1421
181,9999 182,4654 183,9879 184,581
185,40 191,50 193,60 197,60
199,80 207,40 209,40 218,30
220,30 221,80 223,80 227,791
228,110 236,210 238,190 253,50
255,60 265,100 283,460 284,90
##END=
