##TITLE=m-Toluic acid, 3-methylbut-2-enyl ester
##JCAMP-DX=4.24
##DATA TYPE=MASS SPECTRUM
##ORIGIN=Zaikin V.G., TIPS RAS, Moscow, Russia
##OWNER=NIST Mass Spectrometry Data Center
Collection (C) 2014 copyright by the U.S. Secretary of Commerce
on behalf of the United States of America. All rights reserved.
##$NIST MASS SPEC NO=292495
##MOLFORM=C13 H16 O2
##MW=204
##$NIST SOURCE=MSDC
##XUNITS=M/Z
##YUNITS=RELATIVE INTENSITY
##XFACTOR=1
##YFACTOR=1
##FIRSTX=26
##LASTX=205
##FIRSTY=30
##MAXX=205
##MINX=26
##MAXY=9999
##MINY=20
##NPOINTS=62
##PEAK TABLE=(XY..XY)
26,30 27,280 28,60 29,150
38,90 39,671 40,200 41,2082
42,150 43,90 44,90 50,90
51,180 52,80 53,561 54,60
55,70 57,30 62,50 63,230
64,70 65,961 66,80 67,1311
68,3954 69,3283 70,170 77,100
79,50 83,30 84,30 85,500
86,20 89,270 90,180 91,2993
92,420 93,170 105,80 107,30
117,30 118,60 119,9999 120,921
121,70 135,150 136,711 137,470
138,40 143,40 145,200 148,70
149,50 159,180 161,70 171,50
175,40 181,40 186,40 196,60
204,671 205,90
##END=
