##TITLE=4-Ethylbenzoic acid, tridecyl ester
##JCAMP-DX=4.24
##DATA TYPE=MASS SPECTRUM
##ORIGIN=Zaikin V.G., TIPS RAS, Moscow, Russia
##OWNER=NIST Mass Spectrometry Data Center
Collection (C) 2014 copyright by the U.S. Secretary of Commerce
on behalf of the United States of America. All rights reserved.
##$NIST MASS SPEC NO=292347
##MOLFORM=C22 H36 O2
##MW=332
##$NIST SOURCE=MSDC
##XUNITS=M/Z
##YUNITS=RELATIVE INTENSITY
##XFACTOR=1
##YFACTOR=1
##FIRSTX=27
##LASTX=333
##FIRSTY=30
##MAXX=333
##MINX=27
##MAXY=9999
##MINY=20
##NPOINTS=64
##PEAK TABLE=(XY..XY)
27,30 28,20 29,70 36,30
39,40 41,240 42,60 43,280
44,40 53,30 54,60 55,370
56,180 57,210 67,90 68,110
69,310 70,200 71,90 77,230
78,60 79,430 80,30 81,50
82,100 83,280 84,140 85,50
89,50 90,80 91,210 96,50
97,230 98,90 103,230 104,120
105,1461 106,190 107,80 111,110
112,60 118,30 119,40 125,50
126,30 131,50 132,40 133,3924
134,400 135,460 136,50 148,40
149,40 150,6236 151,9999 152,851
153,80 154,50 163,50 182,130
191,30 315,30 332,110 333,30
##END=
