##TITLE=2- Chloropropionic acid, pentadecyl ester
##JCAMP-DX=4.24
##DATA TYPE=MASS SPECTRUM
##ORIGIN=Zaikin V.G., TIPS RAS, Moscow, Russia
##OWNER=NIST Mass Spectrometry Data Center
Collection (C) 2014 copyright by the U.S. Secretary of Commerce
on behalf of the United States of America. All rights reserved.
##$NIST MASS SPEC NO=292441
##MOLFORM=C18 H35 Cl O2
##MW=318
##$NIST SOURCE=MSDC
##XUNITS=M/Z
##YUNITS=RELATIVE INTENSITY
##XFACTOR=1
##YFACTOR=1
##FIRSTX=26
##LASTX=256
##FIRSTY=200
##MAXX=256
##MINX=26
##MAXY=9999
##MINY=10
##NPOINTS=102
##PEAK TABLE=(XY..XY)
26,200 27,1041 28,10 29,1641
30,30 31,90 35,60 36,370
37,40 38,180 39,701 40,180
41,5085 42,1601 43,7797 44,350
45,120 50,30 51,50 52,40
53,370 54,1031 55,8438 56,5375
57,9999 58,470 62,60 63,2102
64,140 65,701 66,160 67,1551
68,2322 69,7777 70,5105 71,5615
72,340 73,250 74,1451 75,581
77,70 79,180 80,150 81,971
82,3813 83,8988 84,3713 85,3803
86,240 90,50 91,861 92,50
93,300 94,40 95,571 96,1992
97,7427 98,2482 99,941 100,70
108,2382 109,3023 110,1692 111,4504
112,1702 113,601 114,50 121,40
123,210 124,601 125,1772 126,1051
127,420 128,40 135,40 137,160
138,380 139,611 140,671 141,280
149,40 151,90 152,250 153,270
154,420 155,180 165,40 166,120
167,120 168,190 169,80 179,30
180,190 181,70 182,1011 183,140
208,520 209,110 210,661 211,170
255,360 256,50
##END=
