##TITLE=2,6-Difluorobenzoic acid, hex-4-yn-3-yl ester
##JCAMP-DX=4.24
##DATA TYPE=MASS SPECTRUM
##ORIGIN=Zaikin V.G., TIPS RAS, Moscow, Russia
##OWNER=NIST Mass Spectrometry Data Center
Collection (C) 2014 copyright by the U.S. Secretary of Commerce
on behalf of the United States of America. All rights reserved.
##$NIST MASS SPEC NO=292584
##MOLFORM=C13 H12 F2 O2
##MW=238
##$NIST SOURCE=MSDC
##XUNITS=M/Z
##YUNITS=RELATIVE INTENSITY
##XFACTOR=1
##YFACTOR=1
##FIRSTX=27
##LASTX=238
##FIRSTY=90
##MAXX=238
##MINX=27
##MAXY=9999
##MINY=10
##NPOINTS=47
##PEAK TABLE=(XY..XY)
27,90 28,10 29,40 39,180
40,40 41,260 43,30 50,50
51,80 52,80 53,310 55,40
62,30 63,300 65,110 66,60
67,50 69,90 77,190 78,40
79,1351 80,601 81,330 93,50
94,30 97,220 112,50 113,701
114,100 140,30 141,9999 142,591
143,40 158,90 159,140 165,40
167,50 168,50 179,50 181,50
192,30 195,60 210,300 211,30
223,981 224,120 238,110
##END=
