##TITLE=4-Butylbenzoic acid, nonyl ester
##JCAMP-DX=4.24
##DATA TYPE=MASS SPECTRUM
##ORIGIN=Zaikin V.G., TIPS RAS, Moscow, Russia
##OWNER=NIST Mass Spectrometry Data Center
Collection (C) 2014 copyright by the U.S. Secretary of Commerce
on behalf of the United States of America. All rights reserved.
##$NIST MASS SPEC NO=292206
##MOLFORM=C20 H32 O2
##MW=304
##$NIST SOURCE=MSDC
##XUNITS=M/Z
##YUNITS=RELATIVE INTENSITY
##XFACTOR=1
##YFACTOR=1
##FIRSTX=26
##LASTX=304
##FIRSTY=30
##MAXX=304
##MINX=26
##MAXY=9999
##MINY=30
##NPOINTS=76
##PEAK TABLE=(XY..XY)
26,30 27,150 28,100 29,250
39,150 40,30 41,651 42,170
43,571 51,50 53,50 54,70
55,711 56,450 57,400 63,40
65,130 67,100 68,120 69,480
70,370 71,100 76,30 77,210
78,70 79,120 81,40 82,70
83,290 84,210 85,50 89,180
90,520 91,1742 92,991 93,100
96,30 97,230 98,160 102,30
103,150 104,120 105,260 107,310
115,90 116,40 117,70 118,380
119,360 120,50 123,190 126,160
131,210 132,40 133,350 134,50
135,1231 136,4024 137,430 138,30
148,40 149,130 150,30 159,30
161,6116 162,681 163,90 177,50
178,6156 179,9999 180,1011 181,90
191,80 219,30 287,40 304,60
##END=
