##TITLE=Valeric acid, 2-methyloct-5-yn-4-yl ester
##JCAMP-DX=4.24
##DATA TYPE=MASS SPECTRUM
##ORIGIN=Zaikin V.G., TIPS RAS, Moscow, Russia
##OWNER=NIST Mass Spectrometry Data Center
Collection (C) 2014 copyright by the U.S. Secretary of Commerce
on behalf of the United States of America. All rights reserved.
##$NIST MASS SPEC NO=292488
##MOLFORM=C14 H24 O2
##MW=224
##$NIST SOURCE=MSDC
##XUNITS=M/Z
##YUNITS=RELATIVE INTENSITY
##XFACTOR=1
##YFACTOR=1
##FIRSTX=26
##LASTX=224
##FIRSTY=170
##MAXX=224
##MINX=26
##MAXY=9999
##MINY=10
##NPOINTS=89
##PEAK TABLE=(XY..XY)
26,170 27,1411 28,10 29,2772
30,40 31,30 39,1111 40,210
41,3443 42,420 43,1892 44,250
45,80 50,110 51,290 52,280
53,701 54,130 55,1672 56,350
57,7397 58,310 59,50 60,310
62,30 63,90 64,30 65,450
66,370 67,881 68,330 69,1091
70,120 71,120 73,120 75,30
77,1051 78,280 79,3483 80,901
81,2322 82,190 83,711 84,190
85,9999 86,540 87,30 91,1461
92,250 93,3673 94,591 95,360
96,80 97,861 98,1551 99,100
101,30 103,200 105,410 106,50
107,5075 108,460 109,90 111,911
112,160 121,230 122,781 123,430
124,90 125,1141 126,100 127,90
131,130 139,540 140,2642 141,320
153,140 154,50 159,430 167,931
168,240 169,30 176,280 181,3653
182,601 183,50 195,130 210,30
224,120
##END=
