##TITLE=4-Ethylbenzoic acid, 2,7-dimethyloct-7-en-5-yn-4-yl ester
##JCAMP-DX=4.24
##DATA TYPE=MASS SPECTRUM
##ORIGIN=Zaikin V.G., TIPS RAS, Moscow, Russia
##OWNER=NIST Mass Spectrometry Data Center
Collection (C) 2014 copyright by the U.S. Secretary of Commerce
on behalf of the United States of America. All rights reserved.
##$NIST MASS SPEC NO=292546
##MOLFORM=C19 H24 O2
##MW=284
##$NIST SOURCE=MSDC
##XUNITS=M/Z
##YUNITS=RELATIVE INTENSITY
##XFACTOR=1
##YFACTOR=1
##FIRSTX=27
##LASTX=284
##FIRSTY=50
##MAXX=284
##MINX=27
##MAXY=9999
##MINY=20
##NPOINTS=47
##PEAK TABLE=(XY..XY)
27,50 39,70 41,150 43,120
51,80 52,30 53,60 55,60
63,40 65,100 67,40 77,470
78,100 79,440 80,40 81,80
89,60 90,70 91,520 92,200
93,170 94,30 103,240 104,110
105,691 106,90 107,90 109,130
117,50 119,1021 120,110 131,30
133,9999 134,981 135,200 136,90
150,110 151,110 176,90 199,30
227,30 228,170 229,20 241,1601
242,280 243,30 284,70
##END=
