##TITLE=4-Butylbenzoic acid, oct-3-en-2-yl ester
##JCAMP-DX=4.24
##DATA TYPE=MASS SPECTRUM
##ORIGIN=Zaikin V.G., TIPS RAS, Moscow, Russia
##OWNER=NIST Mass Spectrometry Data Center
Collection (C) 2014 copyright by the U.S. Secretary of Commerce
on behalf of the United States of America. All rights reserved.
##$NIST MASS SPEC NO=292523
##MOLFORM=C19 H28 O2
##MW=288
##$NIST SOURCE=MSDC
##XUNITS=M/Z
##YUNITS=RELATIVE INTENSITY
##XFACTOR=1
##YFACTOR=1
##FIRSTX=28
##LASTX=288
##FIRSTY=30
##MAXX=288
##MINX=28
##MAXY=9999
##MINY=30
##NPOINTS=51
##PEAK TABLE=(XY..XY)
28,30 36,90 39,30 41,70
43,40 44,50 51,30 55,170
65,40 67,60 68,180 69,260
77,90 78,30 79,50 81,170
89,70 90,140 91,550 92,210
95,50 103,50 104,30 105,80
107,90 110,110 111,70 115,30
117,30 118,120 119,40 127,380
128,40 131,100 133,70 135,621
136,410 137,30 149,50 159,40
161,9999 162,1231 163,100 178,300
179,240 180,30 203,60 231,40
245,250 246,50 288,100
##END=
