##TITLE=Phenylacetic acid, undec-2-enyl ester
##JCAMP-DX=4.24
##DATA TYPE=MASS SPECTRUM
##ORIGIN=Zaikin V.G., TIPS RAS, Moscow, Russia
##OWNER=NIST Mass Spectrometry Data Center
Collection (C) 2014 copyright by the U.S. Secretary of Commerce
on behalf of the United States of America. All rights reserved.
##$NIST MASS SPEC NO=292537
##MOLFORM=C19 H28 O2
##MW=288
##$NIST SOURCE=MSDC
##XUNITS=M/Z
##YUNITS=RELATIVE INTENSITY
##XFACTOR=1
##YFACTOR=1
##FIRSTX=26
##LASTX=289
##FIRSTY=30
##MAXX=289
##MINX=26
##MAXY=9999
##MINY=30
##NPOINTS=73
##PEAK TABLE=(XY..XY)
26,30 27,210 28,170 29,440
36,30 39,380 40,60 41,1361
42,160 43,1361 44,150 50,30
51,80 52,30 53,210 54,801
55,3143 56,240 57,921 58,30
63,90 64,30 65,530 66,70
67,661 68,300 69,2813 70,210
71,601 72,30 77,70 78,40
79,110 80,40 81,460 82,330
83,3603 84,230 85,210 89,180
90,200 91,9999 92,1381 93,100
95,390 96,300 97,2903 98,220
104,170 105,40 109,150 110,120
111,591 112,50 117,60 118,951
119,260 123,50 124,350 125,30
129,30 131,40 136,250 137,70
141,30 152,300 153,60 169,120
170,90 197,520 198,60 288,801
289,160
##END=
