##TITLE=3-Fluorobenzoic acid, 3-chloroprop-2-enyl ester
##JCAMP-DX=4.24
##DATA TYPE=MASS SPECTRUM
##ORIGIN=Zaikin V.G., TIPS RAS, Moscow, Russia
##OWNER=NIST Mass Spectrometry Data Center
Collection (C) 2014 copyright by the U.S. Secretary of Commerce
on behalf of the United States of America. All rights reserved.
##$NIST MASS SPEC NO=292610
##MOLFORM=C10 H8 Cl F O2
##MW=214
##$NIST SOURCE=MSDC
##XUNITS=M/Z
##YUNITS=RELATIVE INTENSITY
##XFACTOR=1
##YFACTOR=1
##FIRSTX=26
##LASTX=214
##FIRSTY=40
##MAXX=214
##MINX=26
##MAXY=9999
##MINY=20
##NPOINTS=50
##PEAK TABLE=(XY..XY)
26,40 27,70 28,20 35,30
39,460 40,30 41,60 44,100
49,150 50,160 51,160 52,40
57,30 61,30 63,30 67,50
68,190 69,220 70,30 73,30
74,130 75,1501 76,90 77,330
79,90 91,190 93,90 94,170
95,2873 96,310 97,50 115,30
122,20 123,9999 124,881 125,60
127,40 133,160 134,30 135,180
140,370 141,50 151,50 152,70
161,110 165,60 169,90 179,3083
180,340 214,70
##END=
