##TITLE=4-Cyanobenzoic acid, 4-hexadecyl ester
##JCAMP-DX=4.24
##DATA TYPE=MASS SPECTRUM
##ORIGIN=Zaikin V.G., TIPS RAS, Moscow, Russia
##OWNER=NIST Mass Spectrometry Data Center
Collection (C) 2014 copyright by the U.S. Secretary of Commerce
on behalf of the United States of America. All rights reserved.
##$NIST MASS SPEC NO=292454
##MOLFORM=C24 H37 N O2
##MW=371
##$NIST SOURCE=MSDC
##XUNITS=M/Z
##YUNITS=RELATIVE INTENSITY
##XFACTOR=1
##YFACTOR=1
##FIRSTX=26
##LASTX=328
##FIRSTY=40
##MAXX=328
##MINX=26
##MAXY=9999
##MINY=30
##NPOINTS=80
##PEAK TABLE=(XY..XY)
26,40 27,160 28,100 29,270
36,40 39,150 40,30 41,841
42,240 43,1051 44,100 50,70
51,90 53,60 54,160 55,1121
56,661 57,1031 58,50 67,240
68,190 69,971 70,741 71,550
72,30 75,140 76,130 77,50
79,50 81,170 82,330 83,991
84,540 85,340 86,30 91,30
95,100 96,230 97,1031 98,350
99,90 101,30 102,1371 103,290
104,40 109,40 110,140 111,651
112,250 113,40 124,80 125,340
126,170 130,9999 131,921 132,50
135,110 138,50 139,120 140,110
145,260 146,50 147,250 148,370
149,80 152,40 153,70 154,100
162,30 167,40 168,40 174,40
181,50 182,30 196,90 202,110
224,571 225,90 241,40 328,30
##END=
