##TITLE=o-Anisic acid, 3-chloroprop-2-enyl ester
##JCAMP-DX=4.24
##DATA TYPE=MASS SPECTRUM
##ORIGIN=Zaikin V.G., TIPS RAS, Moscow, Russia
##OWNER=NIST Mass Spectrometry Data Center
Collection (C) 2014 copyright by the U.S. Secretary of Commerce
on behalf of the United States of America. All rights reserved.
##$NIST MASS SPEC NO=292580
##MOLFORM=C11 H11 Cl O3
##MW=226
##$NIST SOURCE=MSDC
##XUNITS=M/Z
##YUNITS=RELATIVE INTENSITY
##XFACTOR=1
##YFACTOR=1
##FIRSTX=27
##LASTX=228
##FIRSTY=30
##MAXX=228
##MINX=27
##MAXY=9999
##MINY=30
##NPOINTS=59
##PEAK TABLE=(XY..XY)
27,30 28,40 39,280 44,70
49,100 50,140 51,280 52,50
53,50 61,30 62,70 63,340
64,340 65,130 74,70 75,841
76,220 77,1742 78,230 79,250
81,40 90,30 91,110 92,981
93,150 94,50 104,90 105,611
106,70 107,80 108,150 115,80
118,40 119,90 120,240 121,1281
122,110 123,330 131,50 132,70
133,290 134,100 135,9999 136,881
137,80 145,40 147,230 151,190
152,310 153,30 163,30 181,90
183,30 191,1381 192,170 197,60
226,611 227,70 228,190
##END=
