##TITLE=4-Ethylbenzoic acid, dodec-9-ynyl ester
##JCAMP-DX=4.24
##DATA TYPE=MASS SPECTRUM
##ORIGIN=Zaikin V.G., TIPS RAS, Moscow, Russia
##OWNER=NIST Mass Spectrometry Data Center
Collection (C) 2014 copyright by the U.S. Secretary of Commerce
on behalf of the United States of America. All rights reserved.
##$NIST MASS SPEC NO=292202
##MOLFORM=C21 H30 O2
##MW=314
##$NIST SOURCE=MSDC
##XUNITS=M/Z
##YUNITS=RELATIVE INTENSITY
##XFACTOR=1
##YFACTOR=1
##FIRSTX=26
##LASTX=314
##FIRSTY=50
##MAXX=314
##MINX=26
##MAXY=9999
##MINY=30
##NPOINTS=86
##PEAK TABLE=(XY..XY)
26,50 27,210 28,90 29,230
39,350 40,100 41,1081 42,120
43,210 44,40 50,80 51,170
52,100 53,370 54,280 55,1141
56,90 57,60 63,90 64,30
65,290 66,350 67,1782 68,2742
69,440 70,30 76,60 77,1031
78,330 79,2833 80,741 81,1061
82,1912 83,300 89,170 90,270
91,641 92,110 93,1421 94,561
95,721 96,550 97,430 98,30
102,70 103,681 104,330 105,2312
106,300 107,1101 108,480 109,310
110,90 117,30 118,80 119,100
120,30 121,911 122,460 123,140
128,30 129,40 131,140 132,150
133,9999 134,921 135,1581 136,310
137,30 143,40 148,60 149,160
150,1231 151,6686 152,631 153,50
157,30 163,50 164,711 165,100
233,350 234,50 247,821 248,140
285,30 314,40
##END=
