##TITLE=2-Chlorobenzoic acid, tetradecyl ester
##JCAMP-DX=4.24
##DATA TYPE=MASS SPECTRUM
##ORIGIN=Zaikin V.G., TIPS RAS, Moscow, Russia
##OWNER=NIST Mass Spectrometry Data Center
Collection (C) 2014 copyright by the U.S. Secretary of Commerce
on behalf of the United States of America. All rights reserved.
##$NIST MASS SPEC NO=292429
##MOLFORM=C21 H33 Cl O2
##MW=352
##$NIST SOURCE=MSDC
##XUNITS=M/Z
##YUNITS=RELATIVE INTENSITY
##XFACTOR=1
##YFACTOR=1
##FIRSTX=27
##LASTX=352
##FIRSTY=60
##MAXX=352
##MINX=27
##MAXY=9999
##MINY=10
##NPOINTS=60
##PEAK TABLE=(XY..XY)
27,60 28,10 29,130 36,40
39,70 41,460 42,140 43,591
44,40 50,50 51,30 53,40
54,140 55,751 56,440 57,561
67,190 68,230 69,711 70,500
71,260 75,210 76,110 77,140
81,110 82,250 83,731 84,340
85,150 95,70 96,130 97,631
98,220 99,30 104,70 105,100
110,60 111,1051 112,250 113,260
114,20 121,50 123,30 124,30
125,150 126,90 139,3773 140,380
141,1201 142,100 154,30 156,1702
157,9999 158,1271 159,3123 160,240
168,110 196,230 197,30 352,50
##END=
