##TITLE=3-Cyclopentylpropionic acid, undecyl ester
##JCAMP-DX=4.24
##DATA TYPE=MASS SPECTRUM
##ORIGIN=Zaikin V.G., TIPS RAS, Moscow, Russia
##OWNER=NIST Mass Spectrometry Data Center
Collection (C) 2014 copyright by the U.S. Secretary of Commerce
on behalf of the United States of America. All rights reserved.
##$NIST MASS SPEC NO=292271
##MOLFORM=C19 H36 O2
##MW=296
##$NIST SOURCE=MSDC
##XUNITS=M/Z
##YUNITS=RELATIVE INTENSITY
##XFACTOR=1
##YFACTOR=1
##FIRSTX=26
##LASTX=297
##FIRSTY=120
##MAXX=297
##MINX=26
##MAXY=9999
##MINY=20
##NPOINTS=106
##PEAK TABLE=(XY..XY)
26,120 27,540 28,400 29,1001
31,30 36,40 38,40 39,631
40,160 41,3143 42,911 43,3363
44,240 45,40 50,20 51,40
52,30 53,320 54,621 55,5045
56,2212 57,3643 58,180 59,40
60,410 61,1051 62,30 65,70
66,120 67,1471 68,1131 69,3223
70,2432 71,1892 72,110 73,1832
74,310 75,60 77,80 78,40
79,751 80,470 81,1431 82,2022
83,5265 84,2062 85,1331 86,90
87,60 91,60 92,50 93,70
94,50 95,701 96,1081 97,3273
98,1281 99,410 100,220 101,130
102,30 105,60 106,100 107,1331
108,130 109,60 110,210 111,1381
112,731 113,220 114,260 115,90
116,350 117,30 122,130 123,430
124,711 125,4594 126,1782 127,190
129,50 130,50 134,200 135,100
140,70 141,340 142,631 143,9999
144,871 145,70 152,40 154,2432
155,520 156,40 169,50 183,60
185,30 197,30 198,30 199,290
200,40 214,120 215,90 227,470
228,70 297,30
##END=
