##TITLE=p-Toluic acid, undec-2-enyl ester
##JCAMP-DX=4.24
##DATA TYPE=MASS SPECTRUM
##ORIGIN=Zaikin V.G., TIPS RAS, Moscow, Russia
##OWNER=NIST Mass Spectrometry Data Center
Collection (C) 2014 copyright by the U.S. Secretary of Commerce
on behalf of the United States of America. All rights reserved.
##$NIST MASS SPEC NO=292508
##MOLFORM=C19 H28 O2
##MW=288
##$NIST SOURCE=MSDC
##XUNITS=M/Z
##YUNITS=RELATIVE INTENSITY
##XFACTOR=1
##YFACTOR=1
##FIRSTX=27
##LASTX=288
##FIRSTY=110
##MAXX=288
##MINX=27
##MAXY=9999
##MINY=30
##NPOINTS=72
##PEAK TABLE=(XY..XY)
27,110 28,80 29,210 39,200
40,30 41,581 42,80 43,410
44,30 51,40 53,120 54,631
55,691 56,100 57,250 63,60
65,380 66,60 67,440 68,340
69,350 70,80 71,40 77,60
79,70 80,40 81,390 82,360
83,200 89,110 90,110 91,1682
92,180 93,100 95,270 96,250
97,120 105,70 107,40 109,130
110,120 118,70 119,9999 120,1581
121,110 123,50 124,240 131,100
134,30 135,60 136,430 137,561
138,50 147,60 152,280 153,30
161,50 162,70 169,50 176,40
189,260 190,140 203,60 204,50
217,170 218,50 231,130 232,40
245,130 246,30 259,130 288,70
##END=
