##TITLE=(2S,4R)-p-Mentha-6,8-diene 2-hydroperoxide
##JCAMP-DX=4.24
##DATA TYPE=MASS SPECTRUM
##ORIGIN=P.Schieberle ET AL.J.High Res.Chrom.,10,588(1987)
##OWNER=NIST Mass Spectrometry Data Center
Collection (C) 2014 copyright by the U.S. Secretary of Commerce
on behalf of the United States of America. All rights reserved.
##$NIST MASS SPEC NO=292743
##MOLFORM=C10 H16 O2
##MW=168
##$NIST SOURCE=MSDC
##XUNITS=M/Z
##YUNITS=RELATIVE INTENSITY
##XFACTOR=1
##YFACTOR=1
##FIRSTX=39
##LASTX=152
##FIRSTY=3163
##MAXX=152
##MINX=39
##MAXY=9999
##MINY=40
##NPOINTS=32
##PEAK TABLE=(XY..XY)
39,3163 40,80 41,3954 43,2212
53,1952 54,2072 55,5705 67,2602
69,2072 77,2192 79,2933 81,4454
82,5745 83,2492 84,2933 91,3733
92,1291 93,9999 94,1251 105,1451
106,1191 107,4884 108,2562 109,2622
119,1371 124,721 134,2252 135,1211
149,40 150,1021 151,160 152,60
##END=
