##TITLE=4-Ethylbenzoic acid, hexyl ester
##JCAMP-DX=4.24
##DATA TYPE=MASS SPECTRUM
##ORIGIN=Zaikin V.G., TIPS RAS, Moscow, Russia
##OWNER=NIST Mass Spectrometry Data Center
Collection (C) 2014 copyright by the U.S. Secretary of Commerce
on behalf of the United States of America. All rights reserved.
##$NIST MASS SPEC NO=292344
##MOLFORM=C15 H22 O2
##MW=234
##$NIST SOURCE=MSDC
##XUNITS=M/Z
##YUNITS=RELATIVE INTENSITY
##XFACTOR=1
##YFACTOR=1
##FIRSTX=27
##LASTX=235
##FIRSTY=190
##MAXX=235
##MINX=27
##MAXY=9999
##MINY=20
##NPOINTS=60
##PEAK TABLE=(XY..XY)
27,190 28,70 29,180 36,30
39,160 41,370 42,190 43,310
44,40 50,50 51,120 52,30
53,80 54,30 55,380 56,581
57,50 63,80 64,20 65,90
67,40 69,230 75,30 76,60
77,831 78,210 79,1091 80,70
83,40 84,300 89,210 90,280
91,490 92,40 102,70 103,621
104,270 105,3633 106,400 107,190
118,60 119,40 131,100 132,80
133,9999 134,871 135,1221 136,120
148,50 149,70 150,7707 151,8157
152,651 153,50 163,100 191,40
217,60 219,40 234,170 235,30
##END=
