##TITLE=4-Butylbenzoic acid, pent-2-en-4-ynyl ester
##JCAMP-DX=4.24
##DATA TYPE=MASS SPECTRUM
##ORIGIN=Zaikin V.G., TIPS RAS, Moscow, Russia
##OWNER=NIST Mass Spectrometry Data Center
Collection (C) 2014 copyright by the U.S. Secretary of Commerce
on behalf of the United States of America. All rights reserved.
##$NIST MASS SPEC NO=292521
##MOLFORM=C16 H18 O2
##MW=242
##$NIST SOURCE=MSDC
##XUNITS=M/Z
##YUNITS=RELATIVE INTENSITY
##XFACTOR=1
##YFACTOR=1
##FIRSTX=27
##LASTX=243
##FIRSTY=30
##MAXX=243
##MINX=27
##MAXY=9999
##MINY=20
##NPOINTS=49
##PEAK TABLE=(XY..XY)
27,30 28,20 36,60 39,150
41,70 43,30 44,30 50,30
51,60 55,40 63,80 64,40
65,360 66,30 77,140 78,40
79,50 89,140 90,290 91,891
92,190 103,90 104,60 105,110
107,70 115,80 117,30 118,210
119,50 127,20 128,100 129,40
131,90 133,130 135,350 136,250
141,160 142,30 155,130 159,30
161,9999 162,1161 163,80 178,180
179,30 185,50 199,30 242,530
243,90
##END=
