##TITLE=5-Chlorovaleric acid, tetradecyl ester
##JCAMP-DX=4.24
##DATA TYPE=MASS SPECTRUM
##ORIGIN=Zaikin V.G., TIPS RAS, Moscow, Russia
##OWNER=NIST Mass Spectrometry Data Center
Collection (C) 2014 copyright by the U.S. Secretary of Commerce
on behalf of the United States of America. All rights reserved.
##$NIST MASS SPEC NO=292315
##MOLFORM=C19 H37 Cl O2
##MW=332
##$NIST SOURCE=MSDC
##XUNITS=M/Z
##YUNITS=RELATIVE INTENSITY
##XFACTOR=1
##YFACTOR=1
##FIRSTX=26
##LASTX=297
##FIRSTY=110
##MAXX=297
##MINX=26
##MAXY=9999
##MINY=10
##NPOINTS=110
##PEAK TABLE=(XY..XY)
26,110 27,591 28,10 29,1251
30,30 31,30 36,160 38,80
39,540 40,120 41,3033 42,1091
43,4274 44,200 45,70 49,40
51,50 53,300 54,751 55,7257
56,2913 57,4254 58,240 59,170
60,60 62,30 63,140 65,70
66,60 67,841 68,1221 69,3833
70,2823 71,2222 72,130 73,420
74,40 77,30 79,70 80,30
81,510 82,1832 83,5065 84,2172
85,1381 86,90 87,120 91,1902
92,90 93,631 94,30 95,250
96,811 97,3733 98,1461 99,350
100,450 101,2072 102,130 103,50
109,80 110,390 111,2082 112,1011
113,190 115,40 116,100 118,100
119,3553 120,240 121,1201 122,60
123,40 124,210 125,1001 126,661
127,120 129,30 134,60 135,60
136,1361 137,9999 138,1091 139,3513
140,561 141,90 147,40 152,50
153,130 154,230 155,50 157,90
163,40 166,40 167,80 168,971
169,160 174,40 177,70 192,310
193,30 194,140 196,1081 197,180
206,30 211,30 213,40 241,440
242,60 297,170
##END=
