##TITLE=m-Toluic acid, 2-(1-adamantyl)ethyl ester
##JCAMP-DX=4.24
##DATA TYPE=MASS SPECTRUM
##ORIGIN=Zaikin V.G., TIPS RAS, Moscow, Russia
##OWNER=NIST Mass Spectrometry Data Center
Collection (C) 2014 copyright by the U.S. Secretary of Commerce
on behalf of the United States of America. All rights reserved.
##$NIST MASS SPEC NO=292236
##MOLFORM=C20 H26 O2
##MW=298
##$NIST SOURCE=MSDC
##XUNITS=M/Z
##YUNITS=RELATIVE INTENSITY
##XFACTOR=1
##YFACTOR=1
##FIRSTX=27
##LASTX=298
##FIRSTY=40
##MAXX=298
##MINX=27
##MAXY=9999
##MINY=10
##NPOINTS=58
##PEAK TABLE=(XY..XY)
27,40 28,10 29,40 39,140
41,270 43,40 44,30 51,60
53,100 55,210 56,60 63,70
65,390 66,80 67,360 68,30
69,100 70,60 77,330 78,170
79,1011 80,370 81,340 82,40
84,90 89,130 90,120 91,2212
92,981 93,1231 94,320 95,110
103,40 104,100 105,831 106,711
107,540 108,120 117,50 118,70
119,2913 120,571 121,200 133,340
134,230 135,6025 136,1191 137,150
147,210 148,30 149,40 161,90
162,9999 163,1251 164,90 179,20
280,60 298,100
##END=
