##TITLE=2,6-Difluorobenzoic acid, oct-3-en-2-yl ester
##JCAMP-DX=4.24
##DATA TYPE=MASS SPECTRUM
##ORIGIN=Zaikin V.G., TIPS RAS, Moscow, Russia
##OWNER=NIST Mass Spectrometry Data Center
Collection (C) 2014 copyright by the U.S. Secretary of Commerce
on behalf of the United States of America. All rights reserved.
##$NIST MASS SPEC NO=292585
##MOLFORM=C15 H18 F2 O2
##MW=268
##$NIST SOURCE=MSDC
##XUNITS=M/Z
##YUNITS=RELATIVE INTENSITY
##XFACTOR=1
##YFACTOR=1
##FIRSTX=27
##LASTX=268
##FIRSTY=160
##MAXX=268
##MINX=27
##MAXY=9999
##MINY=20
##NPOINTS=60
##PEAK TABLE=(XY..XY)
27,160 28,50 29,130 36,40
39,180 40,40 41,520 42,60
43,270 44,50 50,20 51,20
52,20 53,210 54,140 55,1071
56,70 57,40 62,20 63,240
65,40 66,30 67,420 68,1551
69,871 70,50 71,100 77,30
79,90 80,20 81,891 82,130
83,20 85,60 93,40 94,40
95,260 96,20 109,20 110,450
111,140 112,40 113,621 114,110
127,961 128,80 140,30 141,9999
142,711 143,40 158,190 159,220
169,50 170,70 183,50 211,80
212,30 225,40 226,40 268,20
##END=
