##TITLE=3-Cyclopentylpropionic acid, heptadecyl ester
##JCAMP-DX=4.24
##DATA TYPE=MASS SPECTRUM
##ORIGIN=Zaikin V.G., TIPS RAS, Moscow, Russia
##OWNER=NIST Mass Spectrometry Data Center
Collection (C) 2014 copyright by the U.S. Secretary of Commerce
on behalf of the United States of America. All rights reserved.
##$NIST MASS SPEC NO=292274
##MOLFORM=C25 H48 O2
##MW=380
##$NIST SOURCE=MSDC
##XUNITS=M/Z
##YUNITS=RELATIVE INTENSITY
##XFACTOR=1
##YFACTOR=1
##FIRSTX=26
##LASTX=381
##FIRSTY=90
##MAXX=381
##MINX=26
##MAXY=9999
##MINY=30
##NPOINTS=107
##PEAK TABLE=(XY..XY)
26,90 27,320 28,230 29,591
38,30 39,370 40,100 41,1932
42,520 43,2652 44,170 51,30
53,190 54,470 55,3543 56,1261
57,2963 58,140 60,210 61,450
65,50 66,80 67,1041 68,861
69,2582 70,1251 71,1722 72,100
73,1091 74,160 75,40 77,50
79,420 80,290 81,1031 82,1451
83,4064 84,1011 85,1121 86,70
87,30 91,30 93,40 94,40
95,550 96,821 97,2803 98,721
99,330 100,120 101,90 105,30
106,50 107,751 108,70 109,110
110,260 111,1281 112,510 113,220
114,160 115,60 116,240 122,90
123,330 124,561 125,2793 126,530
127,150 129,30 130,40 138,110
139,270 140,290 141,330 142,751
143,9999 144,821 145,60 152,70
153,150 154,190 155,90 166,50
167,80 168,140 169,80 180,30
181,50 182,110 183,70 195,30
196,60 197,30 198,40 210,430
211,80 238,811 239,360 240,50
283,390 284,70 298,120 299,50
311,500 312,100 381,30
##END=
