##TITLE=2,3,4-Trifluorobenzoic acid, hex-4-yn-3-yl ester
##JCAMP-DX=4.24
##DATA TYPE=MASS SPECTRUM
##ORIGIN=Zaikin V.G., TIPS RAS, Moscow, Russia
##OWNER=NIST Mass Spectrometry Data Center
Collection (C) 2014 copyright by the U.S. Secretary of Commerce
on behalf of the United States of America. All rights reserved.
##$NIST MASS SPEC NO=292554
##MOLFORM=C13 H11 F3 O2
##MW=256
##$NIST SOURCE=MSDC
##XUNITS=M/Z
##YUNITS=RELATIVE INTENSITY
##XFACTOR=1
##YFACTOR=1
##FIRSTX=27
##LASTX=256
##FIRSTY=220
##MAXX=256
##MINX=27
##MAXY=9999
##MINY=30
##NPOINTS=53
##PEAK TABLE=(XY..XY)
27,220 28,40 29,110 36,30
38,30 39,360 40,80 41,530
43,80 44,40 50,80 51,150
52,150 53,550 54,50 55,70
57,60 61,30 62,70 63,60
65,190 66,100 67,100 68,30
69,170 75,40 77,310 78,60
79,2132 80,911 81,731 82,40
97,310 112,60 120,30 130,40
131,1101 132,120 159,9999 160,631
161,30 176,210 177,50 186,40
197,30 199,30 210,30 213,30
227,240 228,240 241,1161 242,140
256,180
##END=
