##TITLE=o-Toluic acid, tridec-2-ynyl ester
##JCAMP-DX=4.24
##DATA TYPE=MASS SPECTRUM
##ORIGIN=Zaikin V.G., TIPS RAS, Moscow, Russia
##OWNER=NIST Mass Spectrometry Data Center
Collection (C) 2014 copyright by the U.S. Secretary of Commerce
on behalf of the United States of America. All rights reserved.
##$NIST MASS SPEC NO=292517
##MOLFORM=C21 H30 O2
##MW=314
##$NIST SOURCE=MSDC
##XUNITS=M/Z
##YUNITS=RELATIVE INTENSITY
##XFACTOR=1
##YFACTOR=1
##FIRSTX=27
##LASTX=188
##FIRSTY=60
##MAXX=188
##MINX=27
##MAXY=9999
##MINY=30
##NPOINTS=44
##PEAK TABLE=(XY..XY)
27,60 29,120 39,90 41,270
42,30 43,250 51,40 52,70
53,100 54,40 55,210 56,30
57,70 63,30 65,210 66,50
67,170 69,80 77,130 78,30
79,220 80,40 81,140 89,50
90,80 91,801 92,80 93,140
94,40 95,120 105,40 107,40
118,200 119,9999 120,751 121,70
129,80 135,360 136,80 137,70
143,80 169,30 187,50 188,30
##END=
