##TITLE=2E,4Z-Hexadiene, adduct with 4-methyl-1,2,4-triazolin-3,5-dione
##JCAMP-DX=4.24
##DATA TYPE=MASS SPECTRUM
##ORIGIN=D.Young ET AL.J.Chrom.,522,295(1990)
##OWNER=NIST Mass Spectrometry Data Center
Collection (C) 2014 copyright by the U.S. Secretary of Commerce
on behalf of the United States of America. All rights reserved.
##$NIST MASS SPEC NO=293258
##MOLFORM=C9 H13 N3 O2
##MW=195
##$NIST SOURCE=MSDC
##XUNITS=M/Z
##YUNITS=RELATIVE INTENSITY
##XFACTOR=1
##YFACTOR=1
##FIRSTX=40
##LASTX=197
##FIRSTY=380
##MAXX=197
##MINX=40
##MAXY=9999
##MINY=10
##NPOINTS=108
##PEAK TABLE=(XY..XY)
40,380 41,1181 42,571 43,90
45,40 50,60 51,170 52,220
53,1271 54,490 55,190 56,290
57,50 58,110 60,40 62,20
63,30 65,240 66,210 67,3213
68,310 69,130 70,410 71,30
75,20 76,20 77,100 78,60
79,280 80,1712 81,781 82,3513
83,450 84,80 85,60 89,70
90,110 93,20 94,240 95,801
96,791 97,190 98,50 99,20
100,20 101,20 103,30 104,30
106,30 107,20 108,80 109,80
110,110 111,30 112,20 114,20
115,70 116,60 117,20 118,20
120,10 121,20 122,70 123,8348
124,530 125,50 127,20 128,60
129,70 131,20 132,20 133,20
135,20 136,20 137,160 138,70
139,30 141,30 142,30 143,30
144,30 146,40 150,200 151,20
152,20 162,40 164,60 165,130
166,90 167,10 168,40 169,50
170,20 172,30 173,40 174,30
175,20 176,10 177,30 179,10
180,9999 181,1011 182,50 193,20
194,70 195,6696 196,731 197,20
##END=
