##TITLE=.alpha.-Bourbonene
##JCAMP-DX=4.24
##DATA TYPE=MASS SPECTRUM
##ORIGIN=Flavors and Fragrances (Eds.B.Lawrence ET AL.),1986
##OWNER=NIST Mass Spectrometry Data Center
Collection (C) 2014 copyright by the U.S. Secretary of Commerce
on behalf of the United States of America. All rights reserved.
##$NIST MASS SPEC NO=293019
##MOLFORM=C15 H24
##MW=204
##$NIST SOURCE=MSDC
##XUNITS=M/Z
##YUNITS=RELATIVE INTENSITY
##XFACTOR=1
##YFACTOR=1
##FIRSTX=28
##LASTX=162
##FIRSTY=1551
##MAXX=162
##MINX=28
##MAXY=9999
##MINY=420
##NPOINTS=36
##PEAK TABLE=(XY..XY)
28,1551 29,8928 31,1321 39,1792
40,741 41,3333 42,420 43,1541
51,561 52,470 53,1491 55,1391
57,801 65,751 67,1241 69,701
77,2262 78,701 79,3693 80,7497
81,9999 82,931 91,2192 92,711
93,971 95,540 105,1852 106,540
107,741 119,1001 120,691 121,611
123,3924 124,460 161,2412 162,500
##END=
