##TITLE=8E,10E-Dodecadien-1-yl acetate, adduct with 4-methyl-1,2,4-triazolin-3,5-dione
##JCAMP-DX=4.24
##DATA TYPE=MASS SPECTRUM
##ORIGIN=D.Young ET AL.J.Chrom.,522,295(1990)
##OWNER=NIST Mass Spectrometry Data Center
Collection (C) 2014 copyright by the U.S. Secretary of Commerce
on behalf of the United States of America. All rights reserved.
##$NIST MASS SPEC NO=293260
##MOLFORM=C17 H27 N3 O4
##MW=337
##$NIST SOURCE=MSDC
##XUNITS=M/Z
##YUNITS=RELATIVE INTENSITY
##XFACTOR=1
##YFACTOR=1
##FIRSTX=40
##LASTX=339
##FIRSTY=60
##MAXX=339
##MINX=40
##MAXY=9999
##MINY=40
##NPOINTS=115
##PEAK TABLE=(XY..XY)
40,60 41,691 42,60 43,1281
44,60 47,40 51,70 52,90
53,250 54,140 55,520 56,120
58,100 61,90 65,160 66,160
67,861 68,150 69,180 74,60
77,270 78,80 79,490 80,520
81,460 82,1461 83,270 91,160
92,110 93,340 94,380 95,370
96,100 97,120 101,50 103,50
105,120 106,110 107,320 108,210
109,410 110,160 112,50 113,40
116,490 119,50 120,120 121,270
122,110 123,100 125,70 128,120
133,280 134,90 135,150 136,90
137,2492 138,280 139,60 147,60
148,110 150,120 151,90 153,160
155,120 157,160 161,70 162,200
163,270 164,90 165,420 166,571
167,110 178,480 179,120 180,180
181,120 182,70 191,290 192,320
193,100 194,9999 195,1281 196,150
207,90 208,120 209,420 210,90
222,170 223,100 232,70 235,100
236,180 237,120 248,440 249,110
251,50 262,60 263,80 264,90
265,100 266,1171 267,200 276,70
277,130 278,70 281,70 294,170
295,190 308,2742 309,520 310,110
337,2032 338,410 339,90
##END=
