##TITLE=Epitestosterone, O,O'-bis(trimethylsilyl-
##JCAMP-DX=4.24
##DATA TYPE=MASS SPECTRUM
##ORIGIN=HD Science, UK
##OWNER=NIST Mass Spectrometry Data Center
Collection (C) 2014 copyright by the U.S. Secretary of Commerce
on behalf of the United States of America. All rights reserved.
##$NIST MASS SPEC NO=297937
##MOLFORM=C25 H44 O2 Si2
##MW=432
##$NIST SOURCE=MSDC
##XUNITS=M/Z
##YUNITS=RELATIVE INTENSITY
##XFACTOR=1
##YFACTOR=1
##FIRSTX=29
##LASTX=436
##FIRSTY=30
##MAXX=436
##MINX=29
##MAXY=9999
##MINY=10
##NPOINTS=223
##PEAK TABLE=(XY..XY)
29,30 39,30 41,120 42,10
43,70 44,40 45,340 46,20
47,70 53,50 55,180 56,10
58,30 59,190 60,30 61,100
65,40 67,160 68,20 69,50
70,10 71,20 73,4710 74,420
75,1040 76,80 77,150 78,30
79,280 80,40 81,160 82,20
83,20 85,50 87,20 89,20
91,420 92,60 93,190 94,40
95,100 96,10 99,30 101,80
103,90 104,40 105,350 106,60
107,210 108,30 109,60 110,10
111,10 113,20 115,210 116,70
117,190 118,70 119,180 120,30
121,50 123,20 125,10 127,50
128,120 129,330 130,80 131,190
132,40 133,310 134,50 135,60
137,20 139,20 141,120 142,90
143,330 144,90 145,160 146,40
147,100 148,20 149,60 151,60
152,20 153,60 154,40 155,220
156,70 157,170 158,50 159,90
160,20 161,50 163,60 164,20
165,140 166,50 167,100 168,90
169,280 170,70 171,100 172,40
173,50 174,20 175,40 177,110
178,50 179,180 180,100 181,240
182,190 183,170 184,50 185,180
186,40 187,30 189,30 191,90
192,50 193,510 194,280 195,280
196,490 197,190 198,60 199,90
200,60 201,40 203,30 205,50
206,50 207,210 208,770 209,890
210,300 211,240 212,50 213,40
215,40 216,20 217,50 218,40
219,110 220,50 221,80 222,30
223,80 224,30 225,40 226,30
227,10 229,30 230,10 231,140
232,80 233,190 234,130 235,70
236,30 237,170 238,40 239,30
243,20 244,10 245,100 246,90
247,250 248,70 249,30 251,20
252,20 253,30 257,20 258,10
259,40 260,40 261,30 269,20
271,30 272,10 273,50 274,20
283,20 285,50 286,30 287,60
288,30 289,10 297,10 298,10
299,90 300,70 301,330 302,100
303,50 311,30 312,20 313,40
314,100 315,40 316,30 325,30
326,30 327,680 328,200 329,50
341,290 342,240 343,90 344,40
359,60 404,20 417,970 418,350
419,130 420,30 432,9999 433,3850
434,1410 435,320 436,60
##END=
