##TITLE=Didesmethylimipramine
##JCAMP-DX=4.24
##DATA TYPE=MASS SPECTRUM
##ORIGIN=R.E.Ardrey ET AL.Pharmaceutical Mass Spectra,L.,1985
##OWNER=NIST Mass Spectrometry Data Center
Collection (C) 2014 copyright by the U.S. Secretary of Commerce
on behalf of the United States of America. All rights reserved.
##$NIST MASS SPEC NO=298667
##MOLFORM=C17 H20 N2
##MW=252
##$NIST SOURCE=MSDC
##XUNITS=M/Z
##YUNITS=RELATIVE INTENSITY
##XFACTOR=1
##YFACTOR=1
##FIRSTX=27
##LASTX=253
##FIRSTY=200
##MAXX=253
##MINX=27
##MAXY=9999
##MINY=100
##NPOINTS=85
##PEAK TABLE=(XY..XY)
27,200 29,100 30,3303 35,500
37,200 39,500 40,300 41,300
42,100 43,200 44,200 50,100
51,500 52,200 56,400 57,701
58,200 63,400 64,100 65,601
75,100 76,100 77,701 78,300
84,100 89,601 90,300 91,1301
92,100 97,100 102,200 103,200
104,100 105,100 106,400 107,100
115,400 116,300 117,400 118,400
119,100 127,100 128,300 129,200
130,901 131,100 139,100 140,100
151,100 152,300 153,100 164,100
165,801 166,300 167,500 168,100
176,100 177,200 178,801 179,801
181,100 190,200 192,1301 193,6806
194,4004 195,3603 196,601 204,400
205,200 206,801 207,400 208,9999
209,1802 210,100 218,200 219,100
220,601 221,200 222,300 234,2602
235,3303 236,601 237,100 252,1401
253,300
##END=
