##TITLE=Methohexitone-permethylated
##JCAMP-DX=4.24
##DATA TYPE=MASS SPECTRUM
##ORIGIN=R.E.Ardrey ET AL.Pharmaceutical Mass Spectra,L.,1985
##OWNER=NIST Mass Spectrometry Data Center
Collection (C) 2014 copyright by the U.S. Secretary of Commerce
on behalf of the United States of America. All rights reserved.
##$NIST MASS SPEC NO=298732
##MOLFORM=C15 H20 N2 O3
##MW=276
##$NIST SOURCE=MSDC
##XUNITS=M/Z
##YUNITS=RELATIVE INTENSITY
##XFACTOR=1
##YFACTOR=1
##FIRSTX=39
##LASTX=261
##FIRSTY=4004
##MAXX=261
##MINX=39
##MAXY=9999
##MINY=100
##NPOINTS=46
##PEAK TABLE=(XY..XY)
39,4004 41,9709 42,1601 51,601
52,1101 53,8708 54,901 55,801
56,500 58,1802 65,1601 66,1401
67,1001 77,1702 78,400 79,6105
80,1201 81,9999 82,901 91,1401
93,2402 105,500 108,1201 109,400
110,500 111,901 112,500 119,100
138,2903 147,100 161,801 169,1301
177,100 178,7607 179,701 180,801
181,1001 195,3904 196,2202 219,300
233,300 234,500 235,7707 236,500
247,2702 261,2602
##END=
