##TITLE=2-Ethylamino-1-phenylpropanone
##JCAMP-DX=4.24
##DATA TYPE=MASS SPECTRUM
##ORIGIN=R.E.Ardrey ET AL.Pharmaceutical Mass Spectra,L.,1985
##OWNER=NIST Mass Spectrometry Data Center
Collection (C) 2014 copyright by the U.S. Secretary of Commerce
on behalf of the United States of America. All rights reserved.
##$NIST MASS SPEC NO=298693
##MOLFORM=C11 H15 N O
##MW=177
##$NIST SOURCE=MSDC
##XUNITS=M/Z
##YUNITS=RELATIVE INTENSITY
##XFACTOR=1
##YFACTOR=1
##FIRSTX=42
##LASTX=135
##FIRSTY=601
##MAXX=135
##MINX=42
##MAXY=9999
##MINY=100
##NPOINTS=16
##PEAK TABLE=(XY..XY)
42,601 43,100 44,4004 45,100
50,100 51,500 56,300 70,300
72,9999 73,500 77,801 79,300
105,300 106,200 134,1201 135,100
##END=
