##TITLE=5.beta.-Pregnan-3.alpha.,17.alpha.,20.alpha.-triol, 3,20-bis(trimethylsilyl) ether
##JCAMP-DX=4.24
##DATA TYPE=MASS SPECTRUM
##ORIGIN=H.Miyazaki ET AL Biomed. Mass Spectrom.,4,23(1977)
##OWNER=NIST Mass Spectrometry Data Center
Collection (C) 2014 copyright by the U.S. Secretary of Commerce
on behalf of the United States of America. All rights reserved.
##$NIST MASS SPEC NO=298528
##MOLFORM=C27 H52 O3 Si2
##MW=480
##$NIST SOURCE=MSDC
##XUNITS=M/Z
##YUNITS=RELATIVE INTENSITY
##XFACTOR=1
##YFACTOR=1
##FIRSTX=101
##LASTX=482
##FIRSTY=130
##MAXX=482
##MINX=101
##MAXY=9999
##MINY=20
##NPOINTS=145
##PEAK TABLE=(XY..XY)
101,130 102,60 103,100 104,60
105,70 106,160 107,1491 108,280
109,731 110,70 111,80 117,2973
118,711 119,1792 120,340 121,911
122,180 123,160 128,60 130,220
131,651 132,100 133,1021 134,140
135,821 136,100 137,130 141,60
142,80 143,851 144,200 145,1251
146,280 147,1631 148,140 149,500
150,100 151,180 155,240 156,310
157,851 158,120 159,1091 160,280
161,931 162,190 163,130 164,100
165,120 169,80 170,110 171,230
172,120 173,1001 174,280 175,410
176,140 177,120 183,100 185,260
186,100 187,360 188,110 189,190
190,50 191,260 195,70 197,100
199,621 200,140 201,530 202,140
203,140 204,70 205,80 211,50
213,370 214,140 215,1842 216,480
217,310 218,170 219,80 225,70
227,190 228,340 229,260 230,230
231,130 238,250 239,220 240,110
241,110 242,100 243,100 244,530
245,140 253,110 254,230 255,9999
256,2312 257,881 258,200 259,70
266,110 269,160 270,100 271,140
272,1852 273,4584 274,991 275,140
282,110 283,500 284,190 285,120
300,120 301,110 345,480 346,190
347,300 348,130 362,971 363,871
364,310 389,30 390,410 391,180
392,40 433,30 434,230 435,1301
436,90 437,30 446,20 447,480
448,200 449,90 450,20 462,100
463,40 464,30 480,150 481,60
482,30
##END=
