##TITLE=Cyclobutanecarboxylic acid, tridec-2-ynyl ester
##JCAMP-DX=4.24
##DATA TYPE=MASS SPECTRUM
##ORIGIN=Zaikin V.G., TIPS RAS, Moscow, Russia
##OWNER=NIST Mass Spectrometry Data Center
Collection (C) 2014 copyright by the U.S. Secretary of Commerce
on behalf of the United States of America. All rights reserved.
##$NIST MASS SPEC NO=299137
##MOLFORM=C18 H30 O2
##MW=278
##$NIST SOURCE=MSDC
##XUNITS=M/Z
##YUNITS=RELATIVE INTENSITY
##XFACTOR=1
##YFACTOR=1
##FIRSTX=26
##LASTX=250
##FIRSTY=80
##MAXX=250
##MINX=26
##MAXY=9999
##MINY=30
##NPOINTS=80
##PEAK TABLE=(XY..XY)
26,80 27,350 28,220 29,571
39,340 40,70 41,881 42,160
43,811 44,60 50,40 51,90
52,230 53,400 54,280 55,9999
56,601 57,270 65,150 66,170
67,651 68,140 69,360 70,130
71,90 73,50 77,280 78,90
79,841 80,250 81,591 82,260
83,8688 84,521 85,60 91,320
92,60 93,521 94,250 95,591
96,160 97,160 98,80 99,50
101,270 105,70 107,220 108,130
109,180 110,70 111,300 112,120
113,40 119,30 121,190 122,50
123,120 124,160 125,90 126,70
135,120 136,50 137,80 138,70
139,30 140,40 149,40 151,470
152,300 153,50 165,70 177,60
178,30 179,40 193,30 195,140
196,60 223,30 224,60 250,30
##END=
