##TITLE=p-Anisic acid, 3-chloroprop-2-enyl ester
##JCAMP-DX=4.24
##DATA TYPE=MASS SPECTRUM
##ORIGIN=Zaikin V.G., TIPS RAS, Moscow, Russia
##OWNER=NIST Mass Spectrometry Data Center
Collection (C) 2014 copyright by the U.S. Secretary of Commerce
on behalf of the United States of America. All rights reserved.
##$NIST MASS SPEC NO=299201
##MOLFORM=C11 H11 Cl O3
##MW=226
##$NIST SOURCE=MSDC
##XUNITS=M/Z
##YUNITS=RELATIVE INTENSITY
##XFACTOR=1
##YFACTOR=1
##FIRSTX=27
##LASTX=228
##FIRSTY=30
##MAXX=228
##MINX=27
##MAXY=9999
##MINY=30
##NPOINTS=36
##PEAK TABLE=(XY..XY)
27,30 38,60 39,220 49,80
50,60 51,50 62,30 63,160
64,280 65,30 75,581 76,90
77,681 78,70 91,50 92,571
93,40 104,40 107,360 108,120
115,40 121,30 135,9999 136,791
137,60 145,80 147,120 163,100
181,60 191,1732 192,220 197,110
199,30 226,380 227,40 228,120
##END=
