##TITLE=2-Trifluoromethylbenzoic acid, 2-methyloct-5-yn-4-yl ester
##JCAMP-DX=4.24
##DATA TYPE=MASS SPECTRUM
##ORIGIN=Zaikin V.G., TIPS RAS, Moscow, Russia
##OWNER=NIST Mass Spectrometry Data Center
Collection (C) 2014 copyright by the U.S. Secretary of Commerce
on behalf of the United States of America. All rights reserved.
##$NIST MASS SPEC NO=299405
##MOLFORM=C17 H19 F3 O2
##MW=312
##$NIST SOURCE=MSDC
##XUNITS=M/Z
##YUNITS=RELATIVE INTENSITY
##XFACTOR=1
##YFACTOR=1
##FIRSTX=26
##LASTX=312
##FIRSTY=40
##MAXX=312
##MINX=26
##MAXY=9999
##MINY=30
##NPOINTS=69
##PEAK TABLE=(XY..XY)
26,40 27,190 28,70 29,170
39,250 40,50 41,521 42,50
43,410 44,40 50,90 51,100
52,60 53,180 54,30 55,280
56,50 57,100 63,40 65,140
66,80 67,180 68,50 69,210
74,30 75,110 76,50 77,320
78,80 79,781 80,220 81,541
82,40 83,80 91,350 92,60
93,861 94,160 95,240 96,50
97,30 98,30 105,90 107,1131
108,100 121,40 122,330 123,80
125,130 126,130 127,40 139,110
144,40 145,1562 146,160 151,70
173,9999 174,681 175,40 190,60
241,30 242,30 255,70 256,80
269,1341 270,230 283,60 297,60
312,70
##END=
