##TITLE=1-Chloro-2-octyldimethylsilyloxybenzene
##JCAMP-DX=4.24
##DATA TYPE=MASS SPECTRUM
##ORIGIN=Zaikin V.G., TIPS RAS, Moscow, Russia
##OWNER=NIST Mass Spectrometry Data Center
Collection (C) 2014 copyright by the U.S. Secretary of Commerce
on behalf of the United States of America. All rights reserved.
##$NIST MASS SPEC NO=299068
##MOLFORM=C16 H27 Cl O Si
##MW=298
##$NIST SOURCE=MSDC
##XUNITS=M/Z
##YUNITS=RELATIVE INTENSITY
##XFACTOR=1
##YFACTOR=1
##FIRSTX=28
##LASTX=301
##FIRSTY=40
##MAXX=301
##MINX=28
##MAXY=9999
##MINY=20
##NPOINTS=60
##PEAK TABLE=(XY..XY)
28,40 36,60 41,50 43,30
44,60 59,150 63,90 64,40
65,50 77,40 79,100 81,40
85,30 91,350 92,80 93,1151
94,100 95,440 96,30 97,30
99,30 105,50 121,60 128,100
130,30 135,280 136,30 137,40
143,30 147,60 148,60 149,1762
150,260 151,210 152,20 155,120
157,50 161,40 163,30 169,80
170,30 171,771 172,110 173,270
174,30 183,40 185,9999 186,1401
187,3373 188,470 189,140 197,40
283,501 284,100 285,190 286,30
298,581 299,130 300,210 301,40
##END=
