##TITLE=4-Cyanobenzoic acid, oct-3-en-2-yl ester
##JCAMP-DX=4.24
##DATA TYPE=MASS SPECTRUM
##ORIGIN=Zaikin V.G., TIPS RAS, Moscow, Russia
##OWNER=NIST Mass Spectrometry Data Center
Collection (C) 2014 copyright by the U.S. Secretary of Commerce
on behalf of the United States of America. All rights reserved.
##$NIST MASS SPEC NO=299225
##MOLFORM=C16 H19 N O2
##MW=257
##$NIST SOURCE=MSDC
##XUNITS=M/Z
##YUNITS=RELATIVE INTENSITY
##XFACTOR=1
##YFACTOR=1
##FIRSTX=26
##LASTX=257
##FIRSTY=30
##MAXX=257
##MINX=26
##MAXY=9999
##MINY=30
##NPOINTS=60
##PEAK TABLE=(XY..XY)
26,30 27,150 28,40 29,110
39,260 40,70 41,611 42,90
43,210 44,60 50,130 51,200
52,40 53,280 54,260 55,1031
56,90 57,60 65,80 66,70
67,681 68,1952 69,831 70,60
71,150 74,50 75,290 76,240
77,70 79,150 80,40 81,1231
82,280 83,30 85,110 95,390
96,60 101,50 102,1892 103,340
104,40 109,40 110,631 111,160
127,781 128,50 130,9999 131,1011
132,60 147,330 148,70 158,40
159,160 172,50 173,40 200,140
201,80 214,120 215,60 257,40
##END=
