##TITLE=2-Bromobenzoic acid, 3,5-difluorophenyl ester
##JCAMP-DX=4.24
##DATA TYPE=MASS SPECTRUM
##ORIGIN=Zaikin V.G., TIPS RAS, Moscow, Russia
##OWNER=NIST Mass Spectrometry Data Center
Collection (C) 2014 copyright by the U.S. Secretary of Commerce
on behalf of the United States of America. All rights reserved.
##$NIST MASS SPEC NO=299014
##MOLFORM=C13 H7 Br F2 O2
##MW=312
##$NIST SOURCE=MSDC
##XUNITS=M/Z
##YUNITS=RELATIVE INTENSITY
##XFACTOR=1
##YFACTOR=1
##FIRSTX=26
##LASTX=232
##FIRSTY=30
##MAXX=232
##MINX=26
##MAXY=9999
##MINY=10
##NPOINTS=51
##PEAK TABLE=(XY..XY)
26,30 28,10 31,30 38,40
39,40 44,60 49,40 50,831
51,240 57,100 62,40 63,150
73,40 74,350 75,1391 76,1552
77,170 79,30 80,80 81,130
82,160 99,30 101,501 102,110
103,30 104,290 105,50 111,50
113,80 129,130 130,280 131,70
139,260 141,80 151,60 154,30
155,2192 156,220 157,2172 158,170
175,70 177,70 183,9999 184,751
185,9879 186,711 187,40 188,40
190,50 204,70 232,70
##END=
