##TITLE=4-Nitrobenzoic acid, 2,7-dimethyloct-7-en-5-yn-4-yl ester
##JCAMP-DX=4.24
##DATA TYPE=MASS SPECTRUM
##ORIGIN=Zaikin V.G., TIPS RAS, Moscow, Russia
##OWNER=NIST Mass Spectrometry Data Center
Collection (C) 2014 copyright by the U.S. Secretary of Commerce
on behalf of the United States of America. All rights reserved.
##$NIST MASS SPEC NO=299270
##MOLFORM=C17 H19 N O4
##MW=301
##$NIST SOURCE=MSDC
##XUNITS=M/Z
##YUNITS=RELATIVE INTENSITY
##XFACTOR=1
##YFACTOR=1
##FIRSTX=27
##LASTX=302
##FIRSTY=60
##MAXX=302
##MINX=27
##MAXY=9999
##MINY=10
##NPOINTS=90
##PEAK TABLE=(XY..XY)
27,60 28,10 29,40 36,70
39,150 40,30 41,350 43,260
44,150 50,160 51,130 52,50
53,100 55,130 57,110 63,100
64,90 65,350 66,80 67,130
68,40 69,120 74,70 75,200
76,591 77,631 78,150 79,380
80,60 81,340 82,30 83,50
85,40 89,30 90,30 91,1281
92,901 93,470 94,80 95,130
96,60 103,130 104,1562 105,460
106,100 107,150 108,30 109,240
115,70 117,170 118,40 119,2322
120,1351 121,230 122,60 123,80
127,50 133,180 134,440 135,80
136,110 137,140 150,9999 151,1231
152,130 153,30 155,50 167,130
168,30 170,30 172,70 184,40
200,40 202,30 212,130 215,30
216,70 217,70 228,50 230,50
242,60 244,130 245,130 258,9198
259,1532 260,190 284,30 286,60
301,601 302,120
##END=
