##TITLE=2-Chlorobenzoic acid, 3-tridecyl ester
##JCAMP-DX=4.24
##DATA TYPE=MASS SPECTRUM
##ORIGIN=Zaikin V.G., TIPS RAS, Moscow, Russia
##OWNER=NIST Mass Spectrometry Data Center
Collection (C) 2014 copyright by the U.S. Secretary of Commerce
on behalf of the United States of America. All rights reserved.
##$NIST MASS SPEC NO=299815
##MOLFORM=C20 H31 Cl O2
##MW=338
##$NIST SOURCE=MSDC
##XUNITS=M/Z
##YUNITS=RELATIVE INTENSITY
##XFACTOR=1
##YFACTOR=1
##FIRSTX=26
##LASTX=200
##FIRSTY=60
##MAXX=200
##MINX=26
##MAXY=9999
##MINY=30
##NPOINTS=72
##PEAK TABLE=(XY..XY)
26,60 27,190 28,160 29,410
39,160 40,30 41,931 42,250
43,1081 44,90 50,110 51,70
53,60 54,150 55,1111 56,751
57,971 58,40 65,30 67,220
68,200 69,991 70,891 71,501
72,60 74,40 75,360 76,200
77,180 78,30 79,30 81,140
82,340 83,971 84,661 85,330
95,80 96,240 97,991 98,450
99,60 104,160 105,110 110,180
111,1792 112,480 113,440 114,40
121,50 124,110 125,370 126,220
133,60 135,70 138,40 139,9999
140,881 141,3123 142,240 152,30
153,120 154,340 156,360 157,4645
158,460 159,1522 160,110 182,1582
183,220 197,40 199,280 200,30
##END=
