##TITLE=Octanoic acid, hex-4-yn-3-yl ester
##JCAMP-DX=4.24
##DATA TYPE=MASS SPECTRUM
##ORIGIN=Zaikin V.G., TIPS RAS, Moscow, Russia
##OWNER=NIST Mass Spectrometry Data Center
Collection (C) 2014 copyright by the U.S. Secretary of Commerce
on behalf of the United States of America. All rights reserved.
##$NIST MASS SPEC NO=299343
##MOLFORM=C14 H24 O2
##MW=224
##$NIST SOURCE=MSDC
##XUNITS=M/Z
##YUNITS=RELATIVE INTENSITY
##XFACTOR=1
##YFACTOR=1
##FIRSTX=26
##LASTX=226
##FIRSTY=170
##MAXX=226
##MINX=26
##MAXY=9999
##MINY=10
##NPOINTS=103
##PEAK TABLE=(XY..XY)
26,170 27,791 28,10 29,1091
37,40 38,80 39,1011 40,290
41,3013 42,581 43,2172 44,250
45,60 50,110 51,240 52,280
53,1642 54,250 55,1882 56,360
57,9178 58,430 59,140 60,440
61,70 63,70 65,430 66,340
67,821 68,140 69,1041 70,220
71,180 72,50 73,320 74,40
77,801 78,200 79,9999 80,7006
81,4525 82,671 83,1431 84,501
85,190 87,120 89,80 91,30
93,80 94,40 95,140 96,200
97,1251 98,2122 99,551 100,60
101,180 103,40 107,210 108,60
109,731 110,160 111,310 112,80
113,40 115,90 121,60 122,100
123,60 124,110 125,3083 126,731
127,9639 128,881 129,60 135,60
136,40 137,50 139,220 140,320
141,70 143,60 144,100 145,581
146,40 149,50 152,70 153,440
154,50 167,531 168,150 177,60
181,240 182,30 195,641 196,250
209,2412 210,370 211,30 223,40
224,2653 225,410 226,30
##END=
