##TITLE=(Phenylthio)acetic acid, heptyl ester
##JCAMP-DX=4.24
##DATA TYPE=MASS SPECTRUM
##ORIGIN=Zaikin V.G., TIPS RAS, Moscow, Russia
##OWNER=NIST Mass Spectrometry Data Center
Collection (C) 2014 copyright by the U.S. Secretary of Commerce
on behalf of the United States of America. All rights reserved.
##$NIST MASS SPEC NO=299845
##MOLFORM=C15 H22 O2 S
##MW=266
##$NIST SOURCE=MSDC
##XUNITS=M/Z
##YUNITS=RELATIVE INTENSITY
##XFACTOR=1
##YFACTOR=1
##FIRSTX=26
##LASTX=269
##FIRSTY=70
##MAXX=269
##MINX=26
##MAXY=9999
##MINY=20
##NPOINTS=68
##PEAK TABLE=(XY..XY)
26,70 27,290 28,240 29,601
38,20 39,360 40,50 41,1211
42,501 43,1502 44,170 45,1522
46,80 47,70 50,100 51,320
52,40 53,60 54,40 55,861
56,270 57,2533 58,140 63,50
65,460 66,130 67,50 68,50
69,390 70,210 71,100 74,30
76,40 77,631 78,290 79,290
81,30 82,40 83,80 84,50
91,180 94,50 97,190 98,30
105,30 108,140 109,1191 110,961
111,130 112,40 121,320 122,130
123,9999 124,1742 125,551 126,120
143,300 150,30 151,290 152,40
168,7286 169,811 170,390 171,30
266,6966 267,1191 268,440 269,50
##END=
