##TITLE=Isonicotinic acid, heptyl ester
##JCAMP-DX=4.24
##DATA TYPE=MASS SPECTRUM
##ORIGIN=Zaikin V.G., TIPS RAS, Moscow, Russia
##OWNER=NIST Mass Spectrometry Data Center
Collection (C) 2014 copyright by the U.S. Secretary of Commerce
on behalf of the United States of America. All rights reserved.
##$NIST MASS SPEC NO=299883
##MOLFORM=C13 H19 N O2
##MW=221
##$NIST SOURCE=MSDC
##XUNITS=M/Z
##YUNITS=RELATIVE INTENSITY
##XFACTOR=1
##YFACTOR=1
##FIRSTX=26
##LASTX=222
##FIRSTY=100
##MAXX=222
##MINX=26
##MAXY=9999
##MINY=10
##NPOINTS=64
##PEAK TABLE=(XY..XY)
26,100 27,400 28,10 29,741
39,330 40,80 41,1542 42,941
43,891 44,100 50,300 51,1512
52,240 53,130 54,250 55,1932
56,2933 57,871 58,30 67,120
68,420 69,1602 70,2753 71,160
76,40 77,120 78,3363 79,771
80,130 81,60 83,330 93,30
96,50 97,140 98,1231 99,90
105,90 106,6365 107,561 108,70
121,110 122,40 123,1802 124,9999
125,981 126,70 134,40 137,1441
138,120 150,591 151,380 152,40
164,1852 165,390 166,30 176,30
178,430 179,160 192,190 193,100
206,80 220,991 221,450 222,120
##END=
