##TITLE=Glycine, N-(2-fluorobenzoyl)-, methyl ester
##JCAMP-DX=4.24
##DATA TYPE=MASS SPECTRUM
##ORIGIN=Zaikin V.G., TIPS RAS, Moscow, Russia
##OWNER=NIST Mass Spectrometry Data Center
Collection (C) 2014 copyright by the U.S. Secretary of Commerce
on behalf of the United States of America. All rights reserved.
##$NIST MASS SPEC NO=299620
##MOLFORM=C10 H10 F N O3
##MW=211
##$NIST SOURCE=MSDC
##XUNITS=M/Z
##YUNITS=RELATIVE INTENSITY
##XFACTOR=1
##YFACTOR=1
##FIRSTX=28
##LASTX=212
##FIRSTY=20
##MAXX=212
##MINX=28
##MAXY=9999
##MINY=20
##NPOINTS=30
##PEAK TABLE=(XY..XY)
28,20 29,90 39,20 44,50
50,140 51,100 56,60 57,30
59,60 68,70 69,140 70,30
74,100 75,781 76,100 77,40
93,40 94,210 95,1792 96,180
122,70 123,9999 124,671 125,40
152,2422 153,220 179,310 180,120
211,480 212,60
##END=
