##TITLE=Trichloroacetic acid, undec-2-enyl ester
##JCAMP-DX=4.24
##DATA TYPE=MASS SPECTRUM
##ORIGIN=Zaikin V.G., TIPS RAS, Moscow, Russia
##OWNER=NIST Mass Spectrometry Data Center
Collection (C) 2014 copyright by the U.S. Secretary of Commerce
on behalf of the United States of America. All rights reserved.
##$NIST MASS SPEC NO=299261
##MOLFORM=C13 H21 Cl3 O2
##MW=314
##$NIST SOURCE=MSDC
##XUNITS=M/Z
##YUNITS=RELATIVE INTENSITY
##XFACTOR=1
##YFACTOR=1
##FIRSTX=25
##LASTX=279
##FIRSTY=30
##MAXX=279
##MINX=25
##MAXY=9999
##MINY=20
##NPOINTS=122
##PEAK TABLE=(XY..XY)
25,30 26,230 27,1121 28,20
29,2052 30,40 35,260 36,1512
37,120 38,561 39,1822 40,360
41,6906 42,1602 43,6195 44,931
45,40 47,170 48,60 49,80
50,110 51,200 52,170 53,1361
54,6646 55,9999 56,4474 57,6285
58,300 63,70 65,360 66,571
67,6065 68,4635 69,7737 70,4555
71,1642 72,80 73,50 75,100
76,70 77,330 78,80 79,831
80,480 81,6125 82,7396 83,7747
84,1992 85,761 86,60 87,90
89,90 91,160 93,220 94,210
95,6075 96,5334 97,4915 98,2492
99,200 101,40 103,30 105,50
107,90 108,70 109,2873 110,3143
111,1381 112,1221 113,100 114,80
115,40 117,2853 118,40 119,2713
120,30 121,911 122,30 123,1111
124,2623 125,280 126,30 127,50
129,40 131,50 132,50 133,100
135,30 137,150 139,60 141,30
145,110 146,110 147,90 148,100
150,30 151,410 152,1782 153,240
161,50 167,50 169,170 173,40
175,40 191,40 193,50 197,260
198,30 201,90 202,80 203,350
204,80 205,210 206,30 215,30
216,40 217,150 218,40 219,120
221,30 279,40
##END=
