##TITLE=l-Cysteine, N,S-bis(2-fluorobenzoyl )-, methyl ester
##JCAMP-DX=4.24
##DATA TYPE=MASS SPECTRUM
##ORIGIN=Zaikin V.G., TIPS RAS, Moscow, Russia
##OWNER=NIST Mass Spectrometry Data Center
Collection (C) 2014 copyright by the U.S. Secretary of Commerce
on behalf of the United States of America. All rights reserved.
##$NIST MASS SPEC NO=299625
##MOLFORM=C18 H15 F2 N O4 S
##MW=379
##$NIST SOURCE=MSDC
##XUNITS=M/Z
##YUNITS=RELATIVE INTENSITY
##XFACTOR=1
##YFACTOR=1
##FIRSTX=28
##LASTX=321
##FIRSTY=10
##MAXX=321
##MINX=28
##MAXY=9999
##MINY=10
##NPOINTS=32
##PEAK TABLE=(XY..XY)
28,10 44,30 45,30 50,30
69,30 74,30 75,250 76,30
94,60 95,1091 96,150 122,40
123,9999 124,611 125,30 140,40
164,110 180,30 192,30 210,40
223,110 224,480 225,60 238,30
240,110 256,1161 257,150 258,60
262,1001 263,150 320,300 321,50
##END=
