##TITLE=l-Phenylalanine, N-(O-anisoyl)-, methyl ester
##JCAMP-DX=4.24
##DATA TYPE=MASS SPECTRUM
##ORIGIN=Zaikin V.G., TIPS RAS, Moscow, Russia
##OWNER=NIST Mass Spectrometry Data Center
Collection (C) 2014 copyright by the U.S. Secretary of Commerce
on behalf of the United States of America. All rights reserved.
##$NIST MASS SPEC NO=299756
##MOLFORM=C18 H19 N O4
##MW=313
##$NIST SOURCE=MSDC
##XUNITS=M/Z
##YUNITS=RELATIVE INTENSITY
##XFACTOR=1
##YFACTOR=1
##FIRSTX=26
##LASTX=314
##FIRSTY=10
##MAXX=314
##MINX=26
##MAXY=9999
##MINY=10
##NPOINTS=63
##PEAK TABLE=(XY..XY)
26,10 27,10 29,10 31,10
39,40 41,10 44,30 50,30
51,70 52,10 53,10 59,10
63,50 64,70 65,100 74,10
75,10 76,60 77,861 78,90
79,70 88,10 89,30 90,30
91,310 92,430 93,40 102,10
103,60 104,50 105,250 106,80
107,20 108,10 117,30 118,40
119,60 120,120 121,100 122,60
131,150 132,40 133,50 134,711
135,9999 136,721 137,60 148,20
151,1852 152,200 153,10 161,50
162,210 163,20 178,20 222,170
223,20 253,10 254,250 255,40
282,40 313,150 314,30
##END=
