##TITLE=1-Cyclohexyldimethylsilyloxy-2-isopropoxybenzene
##JCAMP-DX=4.24
##DATA TYPE=MASS SPECTRUM
##ORIGIN=Zaikin V.G., TIPS RAS, Moscow, Russia
##OWNER=NIST Mass Spectrometry Data Center
Collection (C) 2014 copyright by the U.S. Secretary of Commerce
on behalf of the United States of America. All rights reserved.
##$NIST MASS SPEC NO=299102
##MOLFORM=C17 H28 O2 Si
##MW=292
##$NIST SOURCE=MSDC
##XUNITS=M/Z
##YUNITS=RELATIVE INTENSITY
##XFACTOR=1
##YFACTOR=1
##FIRSTX=26
##LASTX=292
##FIRSTY=30
##MAXX=292
##MINX=26
##MAXY=9999
##MINY=30
##NPOINTS=42
##PEAK TABLE=(XY..XY)
26,30 27,90 28,40 39,100
41,270 42,50 43,450 45,30
53,30 54,40 55,160 59,410
60,30 61,80 65,30 67,50
75,781 76,60 77,70 79,30
81,100 83,80 91,210 92,40
133,110 135,60 136,410 137,130
149,150 151,1421 152,260 153,110
166,591 167,9999 168,1181 169,380
170,30 209,1121 210,170 211,50
235,130 292,60
##END=
