##TITLE=m-Toluic acid, 2-tridecyl ester
##JCAMP-DX=4.24
##DATA TYPE=MASS SPECTRUM
##ORIGIN=Zaikin V.G., TIPS RAS, Moscow, Russia
##OWNER=NIST Mass Spectrometry Data Center
Collection (C) 2014 copyright by the U.S. Secretary of Commerce
on behalf of the United States of America. All rights reserved.
##$NIST MASS SPEC NO=299778
##MOLFORM=C21 H34 O2
##MW=318
##$NIST SOURCE=MSDC
##XUNITS=M/Z
##YUNITS=RELATIVE INTENSITY
##XFACTOR=1
##YFACTOR=1
##FIRSTX=26
##LASTX=199
##FIRSTY=70
##MAXX=199
##MINX=26
##MAXY=9999
##MINY=30
##NPOINTS=74
##PEAK TABLE=(XY..XY)
26,70 27,200 28,180 29,450
36,30 39,290 40,50 41,1211
42,330 43,1361 44,110 45,40
50,40 51,60 53,90 54,180
55,1481 56,971 57,1121 58,100
63,100 64,30 65,651 66,60
67,290 68,300 69,1151 70,1001
71,561 77,130 79,60 81,190
82,410 83,1131 84,681 85,290
89,190 90,220 91,2903 92,380
93,541 94,40 95,90 96,290
97,1241 98,511 99,60 105,60
109,30 110,170 111,711 112,330
113,30 118,100 119,9999 120,951
121,80 124,70 125,330 126,190
127,30 134,120 135,90 136,1852
137,7537 138,741 139,180 140,160
153,70 154,220 163,150 182,1542
183,210 199,180
##END=
