##TITLE=l-Phenylalanine, N-(2,3,4-trifluorobenzoyl)-, methyl ester
##JCAMP-DX=4.24
##DATA TYPE=MASS SPECTRUM
##ORIGIN=Zaikin V.G., TIPS RAS, Moscow, Russia
##OWNER=NIST Mass Spectrometry Data Center
Collection (C) 2014 copyright by the U.S. Secretary of Commerce
on behalf of the United States of America. All rights reserved.
##$NIST MASS SPEC NO=299633
##MOLFORM=C17 H14 F3 N O3
##MW=337
##$NIST SOURCE=MSDC
##XUNITS=M/Z
##YUNITS=RELATIVE INTENSITY
##XFACTOR=1
##YFACTOR=1
##FIRSTX=28
##LASTX=279
##FIRSTY=20
##MAXX=279
##MINX=28
##MAXY=9999
##MINY=20
##NPOINTS=39
##PEAK TABLE=(XY..XY)
28,20 39,50 44,40 51,50
59,30 63,50 65,210 77,80
78,30 81,260 89,60 90,40
91,1271 92,190 102,50 103,130
104,60 112,50 117,100 118,80
119,40 130,80 131,2042 132,210
139,30 140,30 144,40 158,30
159,9999 160,621 161,511 162,6065
163,571 164,50 175,60 246,120
277,50 278,701 279,110
##END=
