##TITLE=4-Bromobutanoic acid, undec-2-enyl ester
##JCAMP-DX=4.24
##DATA TYPE=MASS SPECTRUM
##ORIGIN=Zaikin V.G., TIPS RAS, Moscow, Russia
##OWNER=NIST Mass Spectrometry Data Center
Collection (C) 2014 copyright by the U.S. Secretary of Commerce
on behalf of the United States of America. All rights reserved.
##$NIST MASS SPEC NO=299283
##MOLFORM=C15 H27 Br O2
##MW=318
##$NIST SOURCE=MSDC
##XUNITS=M/Z
##YUNITS=RELATIVE INTENSITY
##XFACTOR=1
##YFACTOR=1
##FIRSTX=26
##LASTX=277
##FIRSTY=170
##MAXX=277
##MINX=26
##MAXY=9999
##MINY=20
##NPOINTS=111
##PEAK TABLE=(XY..XY)
26,170 27,721 28,20 29,1011
38,50 39,971 40,220 41,4735
42,841 43,1942 44,200 45,90
50,30 51,60 52,60 53,521
54,3964 55,3453 56,921 57,1251
58,130 59,30 60,330 65,110
66,240 67,2222 68,2032 69,1842
70,621 71,370 72,190 73,50
77,90 78,30 79,390 80,420
81,2232 82,2853 83,1451 84,230
85,210 86,120 87,641 91,30
93,120 94,80 95,1712 96,2182
97,1211 98,200 99,60 100,130
107,40 109,871 110,1051 111,310
112,60 113,60 114,120 121,1431
122,50 123,1792 124,1752 125,180
126,40 127,130 128,100 137,70
141,410 142,50 148,50 149,9999
150,460 151,9699 152,1381 153,160
155,120 164,60 166,80 167,150
169,521 170,1421 171,170 172,40
177,100 178,40 179,110 180,40
192,40 193,30 197,80 206,100
211,70 219,160 220,160 221,250
222,170 223,90 225,460 226,60
233,30 234,40 235,30 236,30
239,30 247,60 249,70 261,60
263,60 275,50 277,50
##END=
