##TITLE=4-Chlorobenzoic acid, hex-4-yn-3-yl ester
##JCAMP-DX=4.24
##DATA TYPE=MASS SPECTRUM
##ORIGIN=Zaikin V.G., TIPS RAS, Moscow, Russia
##OWNER=NIST Mass Spectrometry Data Center
Collection (C) 2014 copyright by the U.S. Secretary of Commerce
on behalf of the United States of America. All rights reserved.
##$NIST MASS SPEC NO=299365
##MOLFORM=C13 H13 Cl O2
##MW=236
##$NIST SOURCE=MSDC
##XUNITS=M/Z
##YUNITS=RELATIVE INTENSITY
##XFACTOR=1
##YFACTOR=1
##FIRSTX=26
##LASTX=238
##FIRSTY=40
##MAXX=238
##MINX=26
##MAXY=9999
##MINY=30
##NPOINTS=61
##PEAK TABLE=(XY..XY)
26,40 27,160 28,30 29,70
36,60 38,40 39,290 40,70
41,400 43,60 44,50 50,240
51,210 52,120 53,501 54,40
55,70 63,40 65,170 66,100
67,80 69,130 74,110 75,621
76,210 77,360 78,70 79,2202
80,761 81,521 82,40 85,60
97,450 98,30 104,90 110,30
111,1341 112,150 113,440 114,40
139,9999 140,641 141,2973 142,210
156,100 157,90 158,40 159,30
166,90 168,30 179,30 193,40
207,220 208,360 209,110 210,110
221,701 222,80 223,240 236,120
238,40
##END=
