##TITLE=4-Fluorobenzoic acid, 2-methylphenyl ester
##JCAMP-DX=4.24
##DATA TYPE=MASS SPECTRUM
##ORIGIN=Zaikin V.G., TIPS RAS, Moscow, Russia
##OWNER=NIST Mass Spectrometry Data Center
Collection (C) 2014 copyright by the U.S. Secretary of Commerce
on behalf of the United States of America. All rights reserved.
##$NIST MASS SPEC NO=299053
##MOLFORM=C14 H11 F O2
##MW=230
##$NIST SOURCE=MSDC
##XUNITS=M/Z
##YUNITS=RELATIVE INTENSITY
##XFACTOR=1
##YFACTOR=1
##FIRSTX=26
##LASTX=231
##FIRSTY=70
##MAXX=231
##MINX=26
##MAXY=9999
##MINY=10
##NPOINTS=39
##PEAK TABLE=(XY..XY)
26,70 27,140 28,10 36,40
38,50 39,320 44,120 50,320
51,440 52,220 53,180 62,40
63,140 64,30 65,150 68,70
69,160 74,130 75,1031 76,120
77,681 78,290 79,180 80,20
89,50 90,40 91,70 94,210
95,3473 96,290 107,190 108,120
122,30 123,9999 124,691 125,30
140,30 230,240 231,30
##END=
