##TITLE=m-Toluic acid, 3-tridecyl ester
##JCAMP-DX=4.24
##DATA TYPE=MASS SPECTRUM
##ORIGIN=Zaikin V.G., TIPS RAS, Moscow, Russia
##OWNER=NIST Mass Spectrometry Data Center
Collection (C) 2014 copyright by the U.S. Secretary of Commerce
on behalf of the United States of America. All rights reserved.
##$NIST MASS SPEC NO=299779
##MOLFORM=C21 H34 O2
##MW=318
##$NIST SOURCE=MSDC
##XUNITS=M/Z
##YUNITS=RELATIVE INTENSITY
##XFACTOR=1
##YFACTOR=1
##FIRSTX=26
##LASTX=199
##FIRSTY=60
##MAXX=199
##MINX=26
##MAXY=9999
##MINY=30
##NPOINTS=68
##PEAK TABLE=(XY..XY)
26,60 27,170 28,140 29,360
39,220 40,30 41,901 42,210
43,891 44,80 50,30 51,50
53,60 54,120 55,981 56,571
57,741 58,30 63,70 65,511
66,40 67,200 68,160 69,811
70,671 71,330 72,40 77,90
79,50 81,130 82,260 83,741
84,480 85,200 89,150 90,170
91,2452 92,270 93,330 95,70
96,180 97,721 98,310 99,40
105,40 110,100 111,430 112,210
118,80 119,9999 120,931 121,60
124,80 125,270 126,150 134,80
135,70 136,771 137,4905 138,460
139,110 140,70 153,80 154,150
177,50 182,1191 183,160 199,160
##END=
