##TITLE=3-Diisopropylsilyloxyhex-4-yne
##JCAMP-DX=4.24
##DATA TYPE=MASS SPECTRUM
##ORIGIN=Zaikin V.G., TIPS RAS, Moscow, Russia
##OWNER=NIST Mass Spectrometry Data Center
Collection (C) 2014 copyright by the U.S. Secretary of Commerce
on behalf of the United States of America. All rights reserved.
##$NIST MASS SPEC NO=299580
##MOLFORM=C12 H24 O Si
##MW=212
##$NIST SOURCE=MSDC
##XUNITS=M/Z
##YUNITS=RELATIVE INTENSITY
##XFACTOR=1
##YFACTOR=1
##FIRSTX=26
##LASTX=197
##FIRSTY=150
##MAXX=197
##MINX=26
##MAXY=9999
##MINY=30
##NPOINTS=90
##PEAK TABLE=(XY..XY)
26,150 27,480 29,250 31,30
37,30 38,50 39,581 40,140
41,991 42,200 43,741 44,80
45,1121 46,100 47,430 50,60
51,120 52,140 53,681 54,70
55,110 57,140 58,50 59,1141
60,150 61,3544 62,220 63,170
65,70 66,80 67,60 68,30
69,531 70,50 71,110 72,70
73,541 74,50 75,1031 76,70
77,240 79,511 80,90 81,270
82,90 83,6065 84,611 85,821
86,80 87,561 88,70 89,120
97,601 98,240 99,1872 100,170
101,1431 102,120 103,90 110,30
111,1602 112,220 113,490 114,40
115,90 123,90 125,1491 126,290
127,2012 128,230 129,531 130,50
139,1331 140,240 141,6395 142,781
143,250 153,751 154,100 155,60
167,1261 168,190 169,9999 170,1471
171,440 172,30 183,1231 184,180
185,40 197,60
##END=
