##TITLE=5-Bromovaleric acid, 4-pentadecyl ester
##JCAMP-DX=4.24
##DATA TYPE=MASS SPECTRUM
##ORIGIN=Zaikin V.G., TIPS RAS, Moscow, Russia
##OWNER=NIST Mass Spectrometry Data Center
Collection (C) 2014 copyright by the U.S. Secretary of Commerce
on behalf of the United States of America. All rights reserved.
##$NIST MASS SPEC NO=299934
##MOLFORM=C20 H39 Br O2
##MW=390
##$NIST SOURCE=MSDC
##XUNITS=M/Z
##YUNITS=RELATIVE INTENSITY
##XFACTOR=1
##YFACTOR=1
##FIRSTX=26
##LASTX=349
##FIRSTY=200
##MAXX=349
##MINX=26
##MAXY=9999
##MINY=10
##NPOINTS=103
##PEAK TABLE=(XY..XY)
26,200 27,571 28,10 29,951
38,80 39,521 40,110 41,2272
42,641 43,2643 44,430 45,50
50,40 51,50 52,30 53,240
54,450 55,5775 56,1602 57,2613
58,150 59,100 65,50 66,50
67,641 68,480 69,2052 70,1401
71,1562 72,110 73,210 77,60
79,210 80,240 81,571 82,911
83,2352 84,1031 85,1161 86,100
91,110 93,50 94,30 95,350
96,541 97,1942 98,681 99,450
100,150 101,1381 102,80 107,90
109,250 110,390 111,1311 112,521
113,170 118,30 119,240 120,30
121,50 123,70 124,210 125,721
126,360 127,340 128,30 135,2322
136,150 137,2192 138,280 139,310
140,330 141,100 152,80 153,190
154,160 155,70 162,30 163,9999
164,631 165,9839 166,651 167,290
168,120 169,40 178,180 179,60
180,350 181,981 182,531 183,1201
184,80 210,2442 211,521 212,40
227,130 235,320 237,320 239,390
240,50 347,80 349,80
##END=
