##TITLE=Cyclohexyldimethylsilyloxybenzene
##JCAMP-DX=4.24
##DATA TYPE=MASS SPECTRUM
##ORIGIN=Zaikin V.G., TIPS RAS, Moscow, Russia
##OWNER=NIST Mass Spectrometry Data Center
Collection (C) 2014 copyright by the U.S. Secretary of Commerce
on behalf of the United States of America. All rights reserved.
##$NIST MASS SPEC NO=299098
##MOLFORM=C14 H22 O Si
##MW=234
##$NIST SOURCE=MSDC
##XUNITS=M/Z
##YUNITS=RELATIVE INTENSITY
##XFACTOR=1
##YFACTOR=1
##FIRSTX=26
##LASTX=236
##FIRSTY=40
##MAXX=236
##MINX=26
##MAXY=9999
##MINY=10
##NPOINTS=49
##PEAK TABLE=(XY..XY)
26,40 27,50 28,10 29,30
39,90 41,140 43,90 45,100
47,40 51,90 53,40 54,50
55,100 59,290 61,60 65,50
67,70 75,380 76,40 77,400
78,80 79,60 81,100 83,50
85,30 91,350 92,30 95,270
96,30 97,50 109,80 121,260
122,30 123,90 135,290 136,40
137,1071 138,140 139,50 149,70
150,30 151,9999 152,2933 153,601
154,100 219,130 234,1632 235,340
236,90
##END=
