##TITLE=Trichloroacetic acid, 2,7-dimethyloct-7-en-5-yn-4-yl ester
##JCAMP-DX=4.24
##DATA TYPE=MASS SPECTRUM
##ORIGIN=Zaikin V.G., TIPS RAS, Moscow, Russia
##OWNER=NIST Mass Spectrometry Data Center
Collection (C) 2014 copyright by the U.S. Secretary of Commerce
on behalf of the United States of America. All rights reserved.
##$NIST MASS SPEC NO=299259
##MOLFORM=C12 H15 Cl3 O2
##MW=296
##$NIST SOURCE=MSDC
##XUNITS=M/Z
##YUNITS=RELATIVE INTENSITY
##XFACTOR=1
##YFACTOR=1
##FIRSTX=25
##LASTX=300
##FIRSTY=30
##MAXX=300
##MINX=25
##MAXY=9999
##MINY=10
##NPOINTS=183
##PEAK TABLE=(XY..XY)
25,30 26,210 27,1351 28,10
29,1111 35,190 36,1291 37,120
38,591 39,2142 40,541 41,4765
42,350 43,4635 44,901 45,50
47,200 48,40 49,80 50,470
51,1341 52,701 53,1171 54,100
55,1702 56,300 57,1562 58,120
59,30 61,40 62,170 63,701
64,380 65,1662 66,701 67,1572
68,310 69,3864 70,190 71,70
73,30 74,120 75,160 76,160
77,4464 78,1311 79,3784 80,761
81,2012 82,911 83,571 84,400
85,541 86,70 87,110 89,230
90,130 91,8548 92,4014 93,4935
94,621 95,2282 96,210 97,80
99,40 101,40 102,70 103,480
104,290 105,1862 106,420 107,2773
108,741 109,2913 110,1271 111,80
112,621 113,180 114,220 115,310
116,100 117,5404 118,210 119,9999
120,1181 121,1732 122,60 123,651
124,40 125,140 126,120 127,340
128,80 129,280 130,270 131,100
132,80 133,721 134,801 135,1712
136,330 137,280 139,50 140,30
141,90 142,60 143,110 144,30
145,90 146,30 147,160 148,60
149,190 150,80 151,751 152,70
153,80 154,40 155,140 156,40
157,60 161,240 163,200 165,40
169,70 170,40 171,70 173,30
175,180 176,50 177,170 178,30
179,80 181,120 182,30 183,100
185,40 189,821 190,70 191,561
192,50 193,110 203,50 205,1151
206,100 207,971 208,110 209,170
211,40 213,30 217,80 218,180
219,280 220,130 221,150 225,40
227,40 239,160 240,541 241,200
242,511 243,90 244,160 252,40
253,1602 254,430 255,1602 256,390
257,511 258,120 259,50 260,40
261,1902 262,240 263,1241 264,140
265,200 267,40 283,80 296,270
297,20 298,260 300,80
##END=
