##TITLE=6-Bromohexanoic acid, 3-methylbut-2-enyl ester
##JCAMP-DX=4.24
##DATA TYPE=MASS SPECTRUM
##ORIGIN=Zaikin V.G., TIPS RAS, Moscow, Russia
##OWNER=NIST Mass Spectrometry Data Center
Collection (C) 2014 copyright by the U.S. Secretary of Commerce
on behalf of the United States of America. All rights reserved.
##$NIST MASS SPEC NO=299287
##MOLFORM=C11 H19 Br O2
##MW=262
##$NIST SOURCE=MSDC
##XUNITS=M/Z
##YUNITS=RELATIVE INTENSITY
##XFACTOR=1
##YFACTOR=1
##FIRSTX=26
##LASTX=264
##FIRSTY=60
##MAXX=264
##MINX=26
##MAXY=9999
##MINY=30
##NPOINTS=60
##PEAK TABLE=(XY..XY)
26,60 27,390 29,280 38,30
39,611 40,260 41,2963 42,370
43,340 44,60 45,40 50,30
51,60 52,40 53,801 54,150
55,470 56,100 57,110 60,210
65,60 66,70 67,2663 68,8037
69,9999 70,631 71,210 73,120
79,60 80,120 81,70 82,120
83,90 84,50 85,621 86,130
93,30 95,50 97,250 107,180
109,180 113,40 115,80 121,40
123,40 128,50 147,250 149,521
150,30 151,270 177,3984 178,280
179,3724 180,260 195,30 197,30
220,60 222,60 262,80 264,70
##END=
