##TITLE=3-Trifluoromethylbenzoic acid, 2-bromo-4-fluorophenyl ester
##JCAMP-DX=4.24
##DATA TYPE=MASS SPECTRUM
##ORIGIN=Zaikin V.G., TIPS RAS, Moscow, Russia
##OWNER=NIST Mass Spectrometry Data Center
Collection (C) 2014 copyright by the U.S. Secretary of Commerce
on behalf of the United States of America. All rights reserved.
##$NIST MASS SPEC NO=299041
##MOLFORM=C14 H7 Br F4 O2
##MW=362
##$NIST SOURCE=MSDC
##XUNITS=M/Z
##YUNITS=RELATIVE INTENSITY
##XFACTOR=1
##YFACTOR=1
##FIRSTX=28
##LASTX=364
##FIRSTY=40
##MAXX=364
##MINX=28
##MAXY=9999
##MINY=20
##NPOINTS=42
##PEAK TABLE=(XY..XY)
28,40 50,120 51,40 56,30
57,80 62,30 63,60 69,30
74,50 75,180 76,60 81,130
82,150 83,40 91,30 94,60
95,270 99,20 110,40 118,40
119,30 125,200 126,160 144,70
145,2723 146,220 161,150 163,140
173,9999 174,731 175,50 189,30
190,80 191,30 192,70 254,30
282,30 283,30 343,130 345,130
362,150 364,150
##END=
