##TITLE=l-Methionine, N-(2-thienylcarbonyl)-, methyl ester
##JCAMP-DX=4.24
##DATA TYPE=MASS SPECTRUM
##ORIGIN=Zaikin V.G., TIPS RAS, Moscow, Russia
##OWNER=NIST Mass Spectrometry Data Center
Collection (C) 2014 copyright by the U.S. Secretary of Commerce
on behalf of the United States of America. All rights reserved.
##$NIST MASS SPEC NO=299597
##MOLFORM=C11 H15 N O3 S2
##MW=273
##$NIST SOURCE=MSDC
##XUNITS=M/Z
##YUNITS=RELATIVE INTENSITY
##XFACTOR=1
##YFACTOR=1
##FIRSTX=26
##LASTX=275
##FIRSTY=30
##MAXX=275
##MINX=26
##MAXY=9999
##MINY=10
##NPOINTS=76
##PEAK TABLE=(XY..XY)
26,30 27,80 28,10 33,30
35,50 39,681 40,30 41,130
42,30 44,90 45,190 46,60
47,130 48,50 49,30 53,30
54,40 55,40 56,130 57,110
58,80 59,120 60,30 61,591
63,30 74,80 75,270 81,30
82,80 83,470 84,110 85,60
86,30 87,70 88,410 99,30
102,30 109,30 110,50 111,9999
112,901 113,460 114,260 115,30
123,30 126,30 128,150 139,741
140,80 141,40 162,561 163,40
164,30 165,60 166,390 167,3353
168,330 169,170 180,400 181,130
182,30 193,50 194,40 198,30
199,4695 200,460 201,250 212,791
213,90 214,250 215,20 226,160
241,60 273,490 274,80 275,50
##END=
