##TITLE=4-Bromobutanoic acid, 2,6-dimethylnon-1-en-3--yn-5-yl ester
##JCAMP-DX=4.24
##DATA TYPE=MASS SPECTRUM
##ORIGIN=Zaikin V.G., TIPS RAS, Moscow, Russia
##OWNER=NIST Mass Spectrometry Data Center
Collection (C) 2014 copyright by the U.S. Secretary of Commerce
on behalf of the United States of America. All rights reserved.
##$NIST MASS SPEC NO=299282
##MOLFORM=C15 H23 Br O2
##MW=314
##$NIST SOURCE=MSDC
##XUNITS=M/Z
##YUNITS=RELATIVE INTENSITY
##XFACTOR=1
##YFACTOR=1
##FIRSTX=26
##LASTX=316
##FIRSTY=140
##MAXX=316
##MINX=26
##MAXY=9999
##MINY=10
##NPOINTS=117
##PEAK TABLE=(XY..XY)
26,140 27,601 28,10 29,470
37,40 38,80 39,1001 40,280
41,4284 42,541 43,1321 44,210
45,70 50,120 51,320 52,230
53,460 54,50 55,851 56,60
57,150 60,250 62,50 63,210
64,90 65,641 66,350 67,460
68,90 69,821 70,220 71,380
72,40 74,20 75,30 76,50
77,1371 78,761 79,1071 80,410
81,661 82,841 83,701 84,80
85,50 86,30 87,160 89,70
90,30 91,2082 92,601 93,1151
94,240 95,1812 96,581 97,170
98,60 99,40 102,20 103,250
104,140 105,1371 106,1261 107,971
108,170 109,2953 110,380 111,370
112,20 115,110 116,40 117,220
118,70 119,1702 120,501 121,2062
122,160 123,3854 124,9999 125,931
126,60 127,50 131,60 133,1932
134,220 135,80 136,701 137,1301
138,210 147,110 148,1542 149,7496
150,410 151,6986 152,400 155,40
165,741 166,1632 167,220 172,60
193,250 194,30 215,30 217,30
218,30 243,130 244,110 245,140
246,110 271,1101 272,150 273,1071
274,140 299,140 301,130 314,40
316,40
##END=
