##TITLE=Hexanoic acid, but-3-yn-2-yl ester
##JCAMP-DX=4.24
##DATA TYPE=MASS SPECTRUM
##ORIGIN=Zaikin V.G., TIPS RAS, Moscow, Russia
##OWNER=NIST Mass Spectrometry Data Center
Collection (C) 2014 copyright by the U.S. Secretary of Commerce
on behalf of the United States of America. All rights reserved.
##$NIST MASS SPEC NO=299351
##MOLFORM=C10 H16 O2
##MW=168
##$NIST SOURCE=MSDC
##XUNITS=M/Z
##YUNITS=RELATIVE INTENSITY
##XFACTOR=1
##YFACTOR=1
##FIRSTX=25
##LASTX=168
##FIRSTY=20
##MAXX=168
##MINX=25
##MAXY=9999
##MINY=10
##NPOINTS=66
##PEAK TABLE=(XY..XY)
25,20 26,210 27,1562 28,10
29,881 38,70 39,581 40,120
41,1502 42,891 43,4695 44,300
45,180 49,30 50,260 51,470
52,1121 53,4184 54,360 55,1191
56,310 57,150 59,60 60,1121
61,150 66,50 67,270 68,100
69,1812 70,601 71,3453 72,200
73,951 74,90 75,40 79,80
80,80 81,150 82,30 83,270
84,741 85,50 87,320 89,100
93,110 94,20 95,80 96,30
97,1381 98,270 99,9999 100,641
101,70 107,30 111,180 112,480
113,50 114,30 115,150 116,120
117,450 125,340 126,40 139,60
153,90 168,190
##END=
