##TITLE=3-Chloro-1-tripropylsilyloxyprop-2-ene
##JCAMP-DX=4.24
##DATA TYPE=MASS SPECTRUM
##ORIGIN=Zaikin V.G., TIPS RAS, Moscow, Russia
##OWNER=NIST Mass Spectrometry Data Center
Collection (C) 2014 copyright by the U.S. Secretary of Commerce
on behalf of the United States of America. All rights reserved.
##$NIST MASS SPEC NO=299519
##MOLFORM=C12 H25 Cl O Si
##MW=248
##$NIST SOURCE=MSDC
##XUNITS=M/Z
##YUNITS=RELATIVE INTENSITY
##XFACTOR=1
##YFACTOR=1
##FIRSTX=26
##LASTX=215
##FIRSTY=140
##MAXX=215
##MINX=26
##MAXY=9999
##MINY=10
##NPOINTS=116
##PEAK TABLE=(XY..XY)
26,140 27,250 28,10 29,90
39,531 40,140 41,611 42,160
43,300 44,180 45,1231 46,40
47,390 49,80 50,40 53,30
54,60 55,140 56,30 57,200
58,60 59,250 60,100 61,490
62,40 63,280 64,70 65,370
67,180 69,80 70,40 71,280
72,70 73,470 74,150 75,671
76,30 77,230 78,90 79,2593
80,190 81,1221 82,60 83,170
84,70 85,1041 86,100 87,270
88,30 89,250 91,280 92,60
93,380 94,70 95,380 96,40
97,160 98,40 99,490 100,50
101,40 103,60 105,240 106,30
107,3013 108,260 109,1071 110,80
111,100 113,30 115,230 117,30
119,791 120,180 121,8758 122,791
123,3143 124,260 125,180 127,511
128,60 129,210 131,90 133,260
134,50 135,270 136,30 137,490
138,40 139,160 141,220 142,30
145,50 147,30 149,531 150,50
151,190 157,60 163,2102 164,250
165,751 166,80 167,20 169,100
170,30 171,30 175,50 177,40
205,9999 206,1512 207,3664 208,541
209,150 213,340 214,60 215,30
##END=
