##TITLE=4-Bromobutanoic acid, hex-4-yn-3-yl ester
##JCAMP-DX=4.24
##DATA TYPE=MASS SPECTRUM
##ORIGIN=Zaikin V.G., TIPS RAS, Moscow, Russia
##OWNER=NIST Mass Spectrometry Data Center
Collection (C) 2014 copyright by the U.S. Secretary of Commerce
on behalf of the United States of America. All rights reserved.
##$NIST MASS SPEC NO=299278
##MOLFORM=C10 H15 Br O2
##MW=246
##$NIST SOURCE=MSDC
##XUNITS=M/Z
##YUNITS=RELATIVE INTENSITY
##XFACTOR=1
##YFACTOR=1
##FIRSTX=25
##LASTX=248
##FIRSTY=44
##MAXX=248
##MINX=25
##MAXY=9999
##MINY=44
##NPOINTS=82
##PEAK TABLE=(XY..XY)
25,44 26,379 27,1720 28,44
29,743 37,102 38,277 39,3047
40,860 41,8541 42,2114 43,1589
44,321 45,146 50,379 51,787
52,860 53,2930 54,350 55,933
56,160 57,423 60,437 62,73
63,204 64,73 65,991 66,612
67,787 68,364 69,1822 70,146
77,1706 78,423 79,160 80,9999
81,5422 82,758 83,1822 84,102
87,1122 88,44 93,175 95,219
96,44 97,948 98,3936 99,627
107,262 109,58 111,117 121,2187
122,73 123,2070 124,58 125,3382
126,233 130,73 137,44 139,262
140,117 147,58 148,73 149,6559
150,335 151,6369 152,233 153,102
159,58 161,73 167,102 169,44
217,292 218,44 219,277 220,44
231,1064 232,87 233,1020 234,73
246,175 248,160
##END=
