##TITLE=4-Butylbenzoic acid, 3-tridecyl ester
##JCAMP-DX=4.24
##DATA TYPE=MASS SPECTRUM
##ORIGIN=Zaikin V.G., TIPS RAS, Moscow, Russia
##OWNER=NIST Mass Spectrometry Data Center
Collection (C) 2014 copyright by the U.S. Secretary of Commerce
on behalf of the United States of America. All rights reserved.
##$NIST MASS SPEC NO=299937
##MOLFORM=C24 H40 O2
##MW=360
##$NIST SOURCE=MSDC
##XUNITS=M/Z
##YUNITS=RELATIVE INTENSITY
##XFACTOR=1
##YFACTOR=1
##FIRSTX=26
##LASTX=331
##FIRSTY=70
##MAXX=331
##MINX=26
##MAXY=9999
##MINY=30
##NPOINTS=94
##PEAK TABLE=(XY..XY)
26,70 27,200 28,130 29,340
36,30 39,180 40,40 41,851
42,200 43,921 44,90 50,40
51,60 53,70 54,120 55,1001
56,531 57,951 58,40 63,40
65,140 67,210 68,190 69,801
70,651 71,340 72,30 76,30
77,210 78,70 79,150 81,140
82,290 83,751 84,490 85,210
89,160 90,450 91,1552 92,450
93,60 95,80 96,200 97,771
98,330 99,40 103,140 104,100
105,260 107,260 109,30 110,120
111,460 112,240 113,30 115,80
116,30 117,60 118,320 119,130
123,180 124,110 125,290 126,160
131,210 132,40 133,230 134,30
135,701 136,861 137,180 138,40
139,190 140,80 149,70 151,30
153,110 154,180 159,70 161,9999
162,1231 163,110 176,60 177,50
178,941 179,9438 180,1171 181,90
182,1141 183,160 199,220 200,30
219,40 331,30
##END=
