##TITLE=2-Dimethyldodecylsilyloxyoct-3-ene
##JCAMP-DX=4.24
##DATA TYPE=MASS SPECTRUM
##ORIGIN=Zaikin V.G., TIPS RAS, Moscow, Russia
##OWNER=NIST Mass Spectrometry Data Center
Collection (C) 2014 copyright by the U.S. Secretary of Commerce
on behalf of the United States of America. All rights reserved.
##$NIST MASS SPEC NO=299553
##MOLFORM=C22 H46 O Si
##MW=354
##$NIST SOURCE=MSDC
##XUNITS=M/Z
##YUNITS=RELATIVE INTENSITY
##XFACTOR=1
##YFACTOR=1
##FIRSTX=25
##LASTX=356
##FIRSTY=10
##MAXX=356
##MINX=25
##MAXY=9999
##MINY=10
##NPOINTS=168
##PEAK TABLE=(XY..XY)
25,10 26,110 27,210 29,250
31,10 35,10 36,110 37,10
38,60 39,260 40,80 41,791
42,200 43,681 44,210 45,110
47,110 50,20 51,40 52,30
53,130 54,160 55,901 56,250
57,340 58,60 59,2182 60,170
61,1121 62,70 63,40 65,40
66,30 67,320 68,210 69,611
70,150 71,120 72,60 73,450
74,150 75,9999 76,721 77,440
78,40 79,120 80,20 81,260
82,50 83,140 84,50 85,270
86,40 87,350 88,40 89,140
90,10 91,40 92,10 93,90
94,10 95,120 96,20 97,170
98,40 99,611 100,60 101,470
102,60 103,430 104,30 105,30
107,10 109,490 110,140 111,250
112,40 113,480 114,60 115,420
116,270 117,1031 118,110 119,40
121,10 123,50 124,10 125,70
126,20 127,571 128,120 129,1572
130,250 131,210 132,20 133,50
135,20 137,10 139,30 140,10
141,551 142,90 143,501 144,80
145,60 147,10 149,30 151,10
153,160 154,30 155,90 156,20
157,110 158,10 159,10 165,10
167,50 168,10 169,40 171,571
172,80 173,30 183,30 185,1852
186,340 187,891 188,130 189,30
191,10 193,20 197,90 198,10
199,10 211,110 212,10 213,40
223,20 224,10 225,20 226,30
227,330 228,50 229,320 230,50
231,10 247,10 267,30 269,370
270,70 271,20 282,30 283,20
284,10 297,981 298,220 299,50
309,10 311,270 312,60 313,10
321,10 325,20 339,480 340,120
341,30 354,220 355,60 356,10
##END=
