##TITLE=l-Methionine, N-(4-fluorobenzoyl)-, methyl ester
##JCAMP-DX=4.24
##DATA TYPE=MASS SPECTRUM
##ORIGIN=Zaikin V.G., TIPS RAS, Moscow, Russia
##OWNER=NIST Mass Spectrometry Data Center
Collection (C) 2014 copyright by the U.S. Secretary of Commerce
on behalf of the United States of America. All rights reserved.
##$NIST MASS SPEC NO=299607
##MOLFORM=C13 H16 F N O3 S
##MW=285
##$NIST SOURCE=MSDC
##XUNITS=M/Z
##YUNITS=RELATIVE INTENSITY
##XFACTOR=1
##YFACTOR=1
##FIRSTX=26
##LASTX=286
##FIRSTY=20
##MAXX=286
##MINX=26
##MAXY=9999
##MINY=20
##NPOINTS=62
##PEAK TABLE=(XY..XY)
26,20 27,60 28,30 35,30
39,30 41,100 44,80 45,90
46,40 47,110 48,40 49,30
50,50 51,30 54,30 55,30
56,100 57,50 59,80 61,410
69,50 74,110 75,571 76,50
87,50 88,420 94,110 95,1992
96,190 102,30 114,200 121,40
122,70 123,9999 124,971 125,60
138,30 140,120 151,601 152,70
162,521 163,40 164,40 177,40
178,270 179,2753 180,290 192,360
193,120 205,40 206,40 210,30
211,3804 212,420 213,40 224,701
225,80 226,210 238,170 253,40
285,430 286,70
##END=
