##TITLE=5-Chlorovaleric acid, 5-tetradecyl ester
##JCAMP-DX=4.24
##DATA TYPE=MASS SPECTRUM
##ORIGIN=Zaikin V.G., TIPS RAS, Moscow, Russia
##OWNER=NIST Mass Spectrometry Data Center
Collection (C) 2014 copyright by the U.S. Secretary of Commerce
on behalf of the United States of America. All rights reserved.
##$NIST MASS SPEC NO=299919
##MOLFORM=C19 H37 Cl O2
##MW=332
##$NIST SOURCE=MSDC
##XUNITS=M/Z
##YUNITS=RELATIVE INTENSITY
##XFACTOR=1
##YFACTOR=1
##FIRSTX=26
##LASTX=275
##FIRSTY=70
##MAXX=275
##MINX=26
##MAXY=9999
##MINY=30
##NPOINTS=78
##PEAK TABLE=(XY..XY)
26,70 27,220 28,160 29,400
36,60 39,160 40,30 41,781
42,250 43,941 44,100 45,30
53,70 54,190 55,2052 56,701
57,1101 58,110 59,30 63,50
67,190 68,170 69,881 70,661
71,651 72,30 73,80 81,150
82,280 83,921 84,480 85,460
86,30 87,30 91,1231 92,50
93,400 95,90 96,200 97,741
98,350 99,120 100,280 101,100
109,30 110,140 111,470 112,270
113,80 118,30 119,9999 120,490
121,3033 122,150 124,80 125,290
126,150 127,50 134,250 135,90
136,210 137,450 138,150 139,380
140,100 141,40 143,30 153,50
154,60 155,190 156,30 168,140
196,821 197,150 205,200 207,70
213,50 275,40
##END=
