##TITLE=4-Bromobenzoic acid, 2-bromo-4-fluorophenyl ester
##JCAMP-DX=4.24
##DATA TYPE=MASS SPECTRUM
##ORIGIN=Zaikin V.G., TIPS RAS, Moscow, Russia
##OWNER=NIST Mass Spectrometry Data Center
Collection (C) 2014 copyright by the U.S. Secretary of Commerce
on behalf of the United States of America. All rights reserved.
##$NIST MASS SPEC NO=299029
##MOLFORM=C13 H7 Br2 F O2
##MW=372
##$NIST SOURCE=MSDC
##XUNITS=M/Z
##YUNITS=RELATIVE INTENSITY
##XFACTOR=1
##YFACTOR=1
##FIRSTX=26
##LASTX=376
##FIRSTY=30
##MAXX=376
##MINX=26
##MAXY=9999
##MINY=10
##NPOINTS=53
##PEAK TABLE=(XY..XY)
26,30 28,10 31,30 38,40
44,40 50,611 51,90 56,50
57,110 62,40 63,110 73,30
74,280 75,931 76,1181 77,120
79,50 80,120 81,270 82,430
83,90 94,60 104,290 105,70
110,90 111,40 113,30 129,30
131,40 135,40 137,30 154,30
155,1742 156,180 157,1812 158,160
161,270 163,260 183,9999 184,701
185,9619 186,751 187,60 189,90
190,210 191,100 192,220 266,30
292,30 294,30 372,90 374,180
376,90
##END=
