##TITLE=3-Chloropropionic acid, tridec-2-ynyl ester
##JCAMP-DX=4.24
##DATA TYPE=MASS SPECTRUM
##ORIGIN=Zaikin V.G., TIPS RAS, Moscow, Russia
##OWNER=NIST Mass Spectrometry Data Center
Collection (C) 2014 copyright by the U.S. Secretary of Commerce
on behalf of the United States of America. All rights reserved.
##$NIST MASS SPEC NO=299220
##MOLFORM=C16 H27 Cl O2
##MW=286
##$NIST SOURCE=MSDC
##XUNITS=M/Z
##YUNITS=RELATIVE INTENSITY
##XFACTOR=1
##YFACTOR=1
##FIRSTX=25
##LASTX=251
##FIRSTY=30
##MAXX=251
##MINX=25
##MAXY=9999
##MINY=10
##NPOINTS=124
##PEAK TABLE=(XY..XY)
25,30 26,260 27,1201 28,10
29,1231 35,40 36,340 37,20
38,150 39,781 40,220 41,2883
42,591 43,2893 44,310 45,40
49,30 50,110 51,320 52,761
53,841 54,811 55,3844 56,771
57,1091 58,190 59,130 62,40
63,2833 64,130 65,1181 66,681
67,2322 68,881 69,1562 70,3784
71,1702 72,180 73,270 77,1011
78,400 79,3343 80,1121 81,2312
82,1491 83,1692 84,1261 85,480
86,80 90,30 91,6806 92,350
93,5054 94,1441 95,2452 96,1491
97,2172 98,440 99,270 100,200
105,240 106,120 107,1061 108,751
109,891 110,621 111,9999 112,981
113,420 114,290 115,30 119,170
120,60 121,1331 122,400 123,320
124,410 125,1331 126,240 127,280
128,240 129,30 132,140 133,90
134,100 135,1011 136,511 137,320
138,751 139,290 140,50 141,90
145,30 146,60 147,50 148,60
149,601 150,120 151,300 152,691
153,250 154,30 155,140 159,611
160,480 161,260 162,190 163,130
164,30 165,70 167,90 168,20
173,50 175,30 176,30 177,340
178,280 179,70 181,210 187,40
195,240 196,390 197,70 251,150
##END=
