##TITLE=trans-3-(Trifluoromethyl)cinnamic acid, pentyl ester
##JCAMP-DX=4.24
##DATA TYPE=MASS SPECTRUM
##ORIGIN=Zaikin V.G., TIPS RAS, Moscow, Russia
##OWNER=NIST Mass Spectrometry Data Center
Collection (C) 2014 copyright by the U.S. Secretary of Commerce
on behalf of the United States of America. All rights reserved.
##$NIST MASS SPEC NO=299869
##MOLFORM=C15 H17 F3 O2
##MW=286
##$NIST SOURCE=MSDC
##XUNITS=M/Z
##YUNITS=RELATIVE INTENSITY
##XFACTOR=1
##YFACTOR=1
##FIRSTX=26
##LASTX=287
##FIRSTY=60
##MAXX=287
##MINX=26
##MAXY=9999
##MINY=20
##NPOINTS=68
##PEAK TABLE=(XY..XY)
26,60 27,260 29,400 39,170
41,611 42,1051 43,541 53,30
55,881 68,30 69,531 70,2082
71,90 75,40 76,40 95,80
101,80 102,551 103,80 119,40
120,110 121,20 125,70 126,50
127,120 131,110 145,310 146,50
147,400 148,40 151,2853 152,400
153,30 159,30 168,70 169,220
170,380 171,2513 172,731 173,90
175,80 180,50 185,30 186,30
188,140 196,30 197,861 198,380
199,9999 200,1111 201,90 214,50
215,2272 216,6686 217,4094 218,601
219,50 226,40 230,30 240,30
243,30 244,40 257,110 267,851
268,150 269,40 286,1161 287,200
##END=
