##TITLE=4-Bromobutanoic acid, 3-methylbut-2-enyl ester
##JCAMP-DX=4.24
##DATA TYPE=MASS SPECTRUM
##ORIGIN=Zaikin V.G., TIPS RAS, Moscow, Russia
##OWNER=NIST Mass Spectrometry Data Center
Collection (C) 2014 copyright by the U.S. Secretary of Commerce
on behalf of the United States of America. All rights reserved.
##$NIST MASS SPEC NO=299276
##MOLFORM=C9 H15 Br O2
##MW=234
##$NIST SOURCE=MSDC
##XUNITS=M/Z
##YUNITS=RELATIVE INTENSITY
##XFACTOR=1
##YFACTOR=1
##FIRSTX=26
##LASTX=236
##FIRSTY=100
##MAXX=236
##MINX=26
##MAXY=9999
##MINY=20
##NPOINTS=55
##PEAK TABLE=(XY..XY)
26,100 27,631 28,20 29,430
38,70 39,1091 40,490 41,4925
42,561 43,220 44,130 45,70
50,50 51,110 52,90 53,1201
54,170 55,270 56,140 57,210
60,220 65,70 66,100 67,3664
68,9999 69,4565 70,260 71,340
79,70 80,170 81,60 82,170
83,110 84,50 85,681 86,290
87,190 93,90 95,90 107,50
109,30 121,1401 122,50 123,1331
124,40 147,240 148,40 149,5965
150,290 151,5745 152,250 192,60
194,60 234,60 236,60
##END=
