##TITLE=6-Bromohexanoic acid, undec-2-enyl ester
##JCAMP-DX=4.24
##DATA TYPE=MASS SPECTRUM
##ORIGIN=Zaikin V.G., TIPS RAS, Moscow, Russia
##OWNER=NIST Mass Spectrometry Data Center
Collection (C) 2014 copyright by the U.S. Secretary of Commerce
on behalf of the United States of America. All rights reserved.
##$NIST MASS SPEC NO=299294
##MOLFORM=C17 H31 Br O2
##MW=346
##$NIST SOURCE=MSDC
##XUNITS=M/Z
##YUNITS=RELATIVE INTENSITY
##XFACTOR=1
##YFACTOR=1
##FIRSTX=26
##LASTX=348
##FIRSTY=150
##MAXX=348
##MINX=26
##MAXY=9999
##MINY=20
##NPOINTS=124
##PEAK TABLE=(XY..XY)
26,150 27,601 28,20 29,811
38,40 39,731 40,250 41,3273
42,621 43,1992 44,270 45,30
50,40 51,50 52,50 53,450
54,3203 55,3223 56,701 57,941
58,100 59,40 60,400 65,100
66,200 67,2042 68,1822 69,9999
70,941 71,511 72,190 73,260
77,90 79,380 80,450 81,2092
82,2663 83,1642 84,220 85,210
86,100 87,40 91,40 93,70
94,80 95,1602 96,2052 97,1912
98,250 99,110 100,170 107,200
108,30 109,1001 110,1001 111,350
112,70 113,230 114,230 115,430
116,30 121,30 123,400 124,1762
125,200 126,30 127,190 128,160
135,30 137,80 141,470 142,80
149,460 150,30 151,531 152,1121
153,190 154,30 155,290 156,50
168,30 169,591 170,1612 171,200
172,50 177,7987 178,551 179,7887
180,511 181,30 183,50 193,30
194,40 195,180 196,40 197,370
205,80 206,30 212,50 221,30
225,851 226,120 234,30 236,30
239,30 247,180 248,140 249,260
250,150 251,90 261,30 263,40
267,1221 268,220 275,100 277,100
289,80 291,80 303,130 305,120
317,40 319,40 346,30 348,30
##END=
