##TITLE=(Phenylthio)acetic acid, 2,7-dimethyloct-7-en-5-yn-4-yl ester
##JCAMP-DX=4.24
##DATA TYPE=MASS SPECTRUM
##ORIGIN=Zaikin V.G., TIPS RAS, Moscow, Russia
##OWNER=NIST Mass Spectrometry Data Center
Collection (C) 2014 copyright by the U.S. Secretary of Commerce
on behalf of the United States of America. All rights reserved.
##$NIST MASS SPEC NO=299425
##MOLFORM=C18 H22 O2 S
##MW=302
##$NIST SOURCE=MSDC
##XUNITS=M/Z
##YUNITS=RELATIVE INTENSITY
##XFACTOR=1
##YFACTOR=1
##FIRSTX=26
##LASTX=302
##FIRSTY=140
##MAXX=302
##MINX=26
##MAXY=9999
##MINY=10
##NPOINTS=102
##PEAK TABLE=(XY..XY)
26,140 27,531 28,10 29,450
34,30 37,40 38,90 39,891
40,240 41,1552 42,260 43,2523
44,490 45,2513 46,140 47,120
49,30 50,290 51,901 52,250
53,480 54,30 55,1081 56,110
57,230 58,50 61,40 62,60
63,230 64,110 65,951 66,390
67,320 68,40 69,631 71,30
74,80 75,70 76,100 77,2953
78,691 79,2563 80,230 81,390
82,90 83,40 84,90 89,70
90,30 91,2362 92,591 93,2833
94,270 95,200 96,50 97,60
99,110 103,90 104,50 105,571
106,130 107,1742 108,200 109,1111
110,721 111,160 112,30 115,70
117,90 119,671 120,190 121,440
122,210 123,9999 124,931 125,521
126,40 133,110 134,210 135,691
136,80 137,120 139,80 147,40
149,30 150,120 151,130 152,260
153,30 168,330 169,90 181,70
187,30 193,651 194,70 202,40
204,30 243,50 245,30 246,30
301,30 302,50
##END=
