##TITLE=l-Methionine, N-(3-cyclopentylpropionyl)-, methyl ester
##JCAMP-DX=4.24
##DATA TYPE=MASS SPECTRUM
##ORIGIN=Zaikin V.G., TIPS RAS, Moscow, Russia
##OWNER=NIST Mass Spectrometry Data Center
Collection (C) 2014 copyright by the U.S. Secretary of Commerce
on behalf of the United States of America. All rights reserved.
##$NIST MASS SPEC NO=299655
##MOLFORM=C14 H25 N O3 S
##MW=287
##$NIST SOURCE=MSDC
##XUNITS=M/Z
##YUNITS=RELATIVE INTENSITY
##XFACTOR=1
##YFACTOR=1
##FIRSTX=26
##LASTX=289
##FIRSTY=180
##MAXX=289
##MINX=26
##MAXY=9999
##MINY=30
##NPOINTS=164
##PEAK TABLE=(XY..XY)
26,180 27,521 28,30 29,490
30,240 31,80 33,130 35,120
36,40 38,30 39,561 40,150
41,2232 42,400 43,450 44,631
45,380 46,150 47,350 48,170
49,70 50,40 51,50 52,50
53,350 54,440 55,4274 56,2442
57,1351 58,160 59,430 60,130
61,2613 62,130 63,140 65,100
66,90 67,1041 68,290 69,1151
70,190 71,150 72,190 73,200
74,601 75,901 76,60 77,150
78,40 79,1141 80,320 81,1401
82,320 83,621 84,310 85,220
86,150 87,300 88,2042 89,2753
90,420 91,130 93,70 94,70
95,430 96,230 97,871 98,250
99,1061 100,240 101,290 102,1982
103,390 104,3534 105,270 106,190
107,2022 108,220 109,90 110,110
111,180 112,831 113,250 114,1131
115,711 116,1622 117,180 118,40
122,50 123,50 124,270 125,2923
126,370 127,30 128,30 130,60
131,9999 132,721 133,130 134,50
135,110 136,130 137,30 138,60
139,40 140,50 142,310 143,140
144,2533 145,400 146,180 147,140
148,210 149,30 150,30 152,90
153,200 154,100 156,50 157,70
158,240 159,40 160,30 161,60
162,3023 163,811 164,400 165,60
166,50 167,30 170,150 171,40
172,30 179,80 180,140 181,4064
182,521 183,50 184,100 185,70
186,120 194,1812 195,250 196,40
198,40 205,210 212,60 213,7647
214,991 215,100 218,170 226,2372
227,330 228,380 229,50 239,60
240,651 241,100 255,90 256,110
272,170 287,1602 288,370 289,110
##END=
