##TITLE=1-(Dichloromethyl)dimethylsilyloxyundec-2-ene
##JCAMP-DX=4.24
##DATA TYPE=MASS SPECTRUM
##ORIGIN=Zaikin V.G., TIPS RAS, Moscow, Russia
##OWNER=NIST Mass Spectrometry Data Center
Collection (C) 2014 copyright by the U.S. Secretary of Commerce
on behalf of the United States of America. All rights reserved.
##$NIST MASS SPEC NO=299456
##MOLFORM=C14 H28 Cl2 O Si
##MW=310
##$NIST SOURCE=MSDC
##XUNITS=M/Z
##YUNITS=RELATIVE INTENSITY
##XFACTOR=1
##YFACTOR=1
##FIRSTX=26
##LASTX=312
##FIRSTY=60
##MAXX=312
##MINX=26
##MAXY=9999
##MINY=10
##NPOINTS=151
##PEAK TABLE=(XY..XY)
26,60 27,80 29,110 35,110
36,641 37,30 38,190 39,130
40,40 41,400 42,60 43,230
44,270 45,60 47,70 49,10
50,20 51,30 52,30 53,80
54,170 55,420 56,70 57,150
58,10 59,130 60,20 61,50
63,50 65,60 66,30 67,390
68,100 69,260 70,40 71,50
73,50 74,40 75,5354 76,450
77,330 78,120 79,290 80,90
81,450 82,160 83,200 84,30
85,110 87,40 88,20 89,240
90,10 91,50 92,10 93,250
94,30 95,891 96,160 97,220
98,30 99,310 100,30 101,1211
102,120 103,70 105,50 106,80
107,70 108,80 109,250 110,80
111,110 112,10 113,1822 114,160
115,2392 116,190 117,320 118,10
119,30 121,40 123,50 124,50
125,50 126,30 127,210 128,70
129,1141 130,140 131,60 133,50
135,30 137,20 139,20 141,110
142,20 143,851 144,110 145,70
147,30 149,70 151,541 152,110
153,40 155,50 157,140 158,10
159,10 161,10 163,50 165,20
167,10 169,200 170,10 171,100
173,20 175,10 177,20 183,50
185,60 187,10 189,10 191,20
193,20 197,1191 198,220 199,841
200,100 201,140 202,10 211,250
212,30 213,170 214,10 215,40
225,40 227,9999 228,2062 229,581
230,60 233,40 235,30 239,10
253,30 255,10 267,50 269,30
281,30 310,20 312,10
##END=
