##TITLE=l-Alanine, N-(3-cyclopentylpropionyl)-, methyl ester
##JCAMP-DX=4.24
##DATA TYPE=MASS SPECTRUM
##ORIGIN=Zaikin V.G., TIPS RAS, Moscow, Russia
##OWNER=NIST Mass Spectrometry Data Center
Collection (C) 2014 copyright by the U.S. Secretary of Commerce
on behalf of the United States of America. All rights reserved.
##$NIST MASS SPEC NO=299651
##MOLFORM=C12 H21 N O3
##MW=227
##$NIST SOURCE=MSDC
##XUNITS=M/Z
##YUNITS=RELATIVE INTENSITY
##XFACTOR=1
##YFACTOR=1
##FIRSTX=26
##LASTX=228
##FIRSTY=60
##MAXX=228
##MINX=26
##MAXY=9999
##MINY=10
##NPOINTS=75
##PEAK TABLE=(XY..XY)
26,60 27,200 28,10 29,220
30,60 31,30 36,30 39,290
40,80 41,921 42,350 43,260
44,9999 45,260 51,30 53,190
54,190 55,1662 56,160 57,140
58,691 59,230 65,60 66,50
67,581 68,180 69,470 70,280
71,40 72,80 77,60 79,460
80,180 81,581 82,130 83,100
84,70 85,150 86,641 87,80
88,150 91,50 95,200 96,140
97,270 98,240 99,50 100,60
102,681 103,280 104,691 105,50
107,561 108,60 112,30 113,470
114,40 124,120 125,360 126,310
127,90 131,70 140,50 145,4104
146,310 147,30 158,991 159,150
168,1822 169,220 184,50 195,40
196,150 227,70 228,40
##END=
