##TITLE=2-Thiopheneacetic acid, oct-3-en-2-yl ester
##JCAMP-DX=4.24
##DATA TYPE=MASS SPECTRUM
##ORIGIN=Zaikin V.G., TIPS RAS, Moscow, Russia
##OWNER=NIST Mass Spectrometry Data Center
Collection (C) 2014 copyright by the U.S. Secretary of Commerce
on behalf of the United States of America. All rights reserved.
##$NIST MASS SPEC NO=299386
##MOLFORM=C14 H20 O2 S
##MW=252
##$NIST SOURCE=MSDC
##XUNITS=M/Z
##YUNITS=RELATIVE INTENSITY
##XFACTOR=1
##YFACTOR=1
##FIRSTX=26
##LASTX=253
##FIRSTY=80
##MAXX=253
##MINX=26
##MAXY=9999
##MINY=20
##NPOINTS=69
##PEAK TABLE=(XY..XY)
26,80 27,200 28,60 29,150
38,90 39,490 40,80 41,1081
42,110 43,340 44,440 45,531
47,40 50,100 51,140 52,140
53,841 54,380 55,6035 56,370
57,290 58,90 62,30 63,110
65,150 66,80 67,851 68,751
69,7747 70,671 71,180 77,140
78,40 79,350 80,40 81,771
82,130 83,110 84,70 85,70
91,80 93,20 95,340 96,340
97,9999 98,951 99,501 100,30
109,60 110,701 111,7847 112,791
113,80 123,40 124,410 125,160
126,30 127,40 131,60 141,30
142,781 143,60 144,50 145,50
155,30 173,100 238,60 252,350
253,50
##END=
