##TITLE=Pentafluorobenzoic acid, 2-methyloct-5-yn-4-yl ester
##JCAMP-DX=4.24
##DATA TYPE=MASS SPECTRUM
##ORIGIN=Zaikin V.G., TIPS RAS, Moscow, Russia
##OWNER=NIST Mass Spectrometry Data Center
Collection (C) 2014 copyright by the U.S. Secretary of Commerce
on behalf of the United States of America. All rights reserved.
##$NIST MASS SPEC NO=299186
##MOLFORM=C16 H15 F5 O2
##MW=334
##$NIST SOURCE=MSDC
##XUNITS=M/Z
##YUNITS=RELATIVE INTENSITY
##XFACTOR=1
##YFACTOR=1
##FIRSTX=27
##LASTX=319
##FIRSTY=30
##MAXX=319
##MINX=27
##MAXY=9999
##MINY=10
##NPOINTS=62
##PEAK TABLE=(XY..XY)
27,30 28,10 29,30 39,70
40,50 41,170 43,110 44,150
51,40 53,80 55,110 56,30
57,100 65,80 66,50 67,90
69,130 77,230 78,50 79,621
80,200 81,290 82,30 83,60
91,320 92,70 93,921 94,180
95,70 97,40 98,50 99,80
105,100 107,1041 108,100 117,260
118,30 121,40 122,350 123,80
124,40 137,30 139,150 148,100
149,30 167,981 168,360 176,30
195,9999 196,781 197,40 212,80
249,80 263,160 264,110 277,90
278,80 291,3003 292,511 293,40
305,40 319,100
##END=
