##TITLE=4-Fluorobenzoic acid, phenyl ester
##JCAMP-DX=4.24
##DATA TYPE=MASS SPECTRUM
##ORIGIN=Zaikin V.G., TIPS RAS, Moscow, Russia
##OWNER=NIST Mass Spectrometry Data Center
Collection (C) 2014 copyright by the U.S. Secretary of Commerce
on behalf of the United States of America. All rights reserved.
##$NIST MASS SPEC NO=299049
##MOLFORM=C13 H9 F O2
##MW=216
##$NIST SOURCE=MSDC
##XUNITS=M/Z
##YUNITS=RELATIVE INTENSITY
##XFACTOR=1
##YFACTOR=1
##FIRSTX=28
##LASTX=217
##FIRSTY=10
##MAXX=217
##MINX=28
##MAXY=9999
##MINY=10
##NPOINTS=26
##PEAK TABLE=(XY..XY)
28,10 38,30 39,190 50,100
51,120 63,70 64,20 65,200
66,50 68,30 69,80 74,70
75,521 76,50 77,60 93,60
94,280 95,2533 96,190 122,30
123,9999 124,681 125,40 133,30
216,571 217,80
##END=
