##TITLE=(Phenylthio)acetic acid, cyclobutyl ester
##JCAMP-DX=4.24
##DATA TYPE=MASS SPECTRUM
##ORIGIN=Zaikin V.G., TIPS RAS, Moscow, Russia
##OWNER=NIST Mass Spectrometry Data Center
Collection (C) 2014 copyright by the U.S. Secretary of Commerce
on behalf of the United States of America. All rights reserved.
##$NIST MASS SPEC NO=299955
##MOLFORM=C12 H14 O2 S
##MW=222
##$NIST SOURCE=MSDC
##XUNITS=M/Z
##YUNITS=RELATIVE INTENSITY
##XFACTOR=1
##YFACTOR=1
##FIRSTX=26
##LASTX=225
##FIRSTY=40
##MAXX=225
##MINX=26
##MAXY=9999
##MINY=10
##NPOINTS=60
##PEAK TABLE=(XY..XY)
26,40 27,180 28,10 29,230
39,270 41,100 42,140 43,80
44,90 45,1041 46,60 47,50
50,90 51,330 52,40 53,100
54,30 55,2132 56,90 63,40
65,370 66,100 69,140 71,120
74,30 76,40 77,551 78,180
79,220 82,40 84,40 91,110
97,30 99,861 100,50 105,60
108,120 109,871 110,651 111,80
112,30 113,30 121,300 122,120
123,9999 124,991 125,440 126,40
135,30 150,200 151,410 152,60
166,70 168,120 180,40 194,120
222,4615 223,631 224,250 225,20
##END=
