##TITLE=l-Valine, N-capryloyl-, methyl ester
##JCAMP-DX=4.24
##DATA TYPE=MASS SPECTRUM
##ORIGIN=Zaikin V.G., TIPS RAS, Moscow, Russia
##OWNER=NIST Mass Spectrometry Data Center
Collection (C) 2014 copyright by the U.S. Secretary of Commerce
on behalf of the United States of America. All rights reserved.
##$NIST MASS SPEC NO=299724
##MOLFORM=C14 H27 N O3
##MW=257
##$NIST SOURCE=MSDC
##XUNITS=M/Z
##YUNITS=RELATIVE INTENSITY
##XFACTOR=1
##YFACTOR=1
##FIRSTX=26
##LASTX=258
##FIRSTY=40
##MAXX=258
##MINX=26
##MAXY=9999
##MINY=30
##NPOINTS=75
##PEAK TABLE=(XY..XY)
26,40 27,230 28,40 29,340
30,70 33,50 39,160 40,40
41,701 42,200 43,721 44,150
53,50 54,50 55,831 56,270
57,1642 58,100 59,240 60,370
67,90 68,40 69,130 70,200
71,150 72,9999 73,470 74,40
76,30 81,40 82,110 83,190
84,120 85,60 86,100 88,841
89,200 90,50 97,40 98,170
99,80 102,30 107,50 109,80
112,110 113,120 114,641 115,180
116,100 126,140 127,961 128,100
130,210 131,210 132,220 140,60
141,80 144,1502 145,140 154,90
173,861 174,80 183,90 186,320
187,40 198,1622 199,230 200,40
210,70 214,30 215,240 216,30
226,70 257,80 258,40
##END=
