##TITLE=Hexanoic acid, 2,7-dimethyloct-7-en-5-yn-4-yl ester
##JCAMP-DX=4.24
##DATA TYPE=MASS SPECTRUM
##ORIGIN=Zaikin V.G., TIPS RAS, Moscow, Russia
##OWNER=NIST Mass Spectrometry Data Center
Collection (C) 2014 copyright by the U.S. Secretary of Commerce
on behalf of the United States of America. All rights reserved.
##$NIST MASS SPEC NO=299357
##MOLFORM=C16 H26 O2
##MW=250
##$NIST SOURCE=MSDC
##XUNITS=M/Z
##YUNITS=RELATIVE INTENSITY
##XFACTOR=1
##YFACTOR=1
##FIRSTX=26
##LASTX=251
##FIRSTY=110
##MAXX=251
##MINX=26
##MAXY=9999
##MINY=20
##NPOINTS=112
##PEAK TABLE=(XY..XY)
26,110 27,561 28,240 29,601
38,60 39,611 40,170 41,1732
42,340 43,4785 44,310 45,40
50,90 51,260 52,140 53,330
54,50 55,941 56,170 57,260
59,50 60,240 62,30 63,130
64,80 65,430 66,200 67,501
68,160 69,470 70,180 71,2963
72,1431 73,160 74,40 75,20
76,30 77,1161 78,280 79,971
80,190 81,1091 82,160 83,170
84,70 85,70 87,40 88,150
89,90 90,50 91,2282 92,961
93,1211 94,230 95,1301 96,440
97,270 98,110 99,3634 100,250
103,150 104,100 105,661 106,160
107,561 108,250 109,3273 110,1812
111,190 112,30 114,80 115,110
116,220 117,260 118,50 119,4374
120,521 121,110 123,360 124,70
130,30 131,40 133,330 134,551
135,240 136,130 137,871 138,150
150,40 151,561 152,1491 153,200
155,50 158,30 163,40 165,110
166,70 170,280 171,30 173,100
179,310 180,60 181,40 187,30
193,230 194,110 207,9999 208,1441
209,150 235,80 250,511 251,80
##END=
