##TITLE=Isonicotinic acid, 2-tridecyl ester
##JCAMP-DX=4.24
##DATA TYPE=MASS SPECTRUM
##ORIGIN=Zaikin V.G., TIPS RAS, Moscow, Russia
##OWNER=NIST Mass Spectrometry Data Center
Collection (C) 2014 copyright by the U.S. Secretary of Commerce
on behalf of the United States of America. All rights reserved.
##$NIST MASS SPEC NO=299893
##MOLFORM=C19 H31 N O2
##MW=305
##$NIST SOURCE=MSDC
##XUNITS=M/Z
##YUNITS=RELATIVE INTENSITY
##XFACTOR=1
##YFACTOR=1
##FIRSTX=26
##LASTX=306
##FIRSTY=50
##MAXX=306
##MINX=26
##MAXY=9999
##MINY=30
##NPOINTS=100
##PEAK TABLE=(XY..XY)
26,50 27,150 28,130 29,330
36,80 39,190 40,40 41,1131
42,320 43,1311 44,150 45,30
50,130 51,611 52,130 53,110
54,220 55,1512 56,821 57,1021
58,70 67,330 68,280 69,1101
70,741 71,480 77,80 78,1792
79,631 80,230 81,210 82,270
83,831 84,440 85,270 93,240
94,30 95,100 96,160 97,671
98,280 99,40 105,60 106,6215
107,2102 108,150 109,40 110,70
111,290 112,150 120,420 121,270
122,90 123,350 124,9999 125,1001
126,100 127,30 134,130 135,40
137,70 139,30 140,50 148,60
149,70 150,240 151,130 154,50
162,100 163,140 164,180 165,50
176,100 177,50 178,60 182,110
190,80 191,30 192,50 204,130
205,50 206,60 218,60 219,190
220,110 232,30 234,110 235,30
247,40 248,150 249,30 261,931
262,370 263,70 276,120 290,90
291,30 304,60 305,150 306,40
##END=
