##TITLE=5-Chlorovaleric acid, 5-pentadecyl ester
##JCAMP-DX=4.24
##DATA TYPE=MASS SPECTRUM
##ORIGIN=Zaikin V.G., TIPS RAS, Moscow, Russia
##OWNER=NIST Mass Spectrometry Data Center
Collection (C) 2014 copyright by the U.S. Secretary of Commerce
on behalf of the United States of America. All rights reserved.
##$NIST MASS SPEC NO=299923
##MOLFORM=C20 H39 Cl O2
##MW=346
##$NIST SOURCE=MSDC
##XUNITS=M/Z
##YUNITS=RELATIVE INTENSITY
##XFACTOR=1
##YFACTOR=1
##FIRSTX=26
##LASTX=289
##FIRSTY=90
##MAXX=289
##MINX=26
##MAXY=9999
##MINY=20
##NPOINTS=88
##PEAK TABLE=(XY..XY)
26,90 27,290 28,230 29,581
36,100 38,20 39,250 40,50
41,1221 42,320 43,1331 44,120
45,40 53,110 54,240 55,2883
56,871 57,1461 58,140 59,40
63,70 65,20 67,290 68,220
69,1121 70,731 71,771 72,40
73,100 79,40 81,220 82,370
83,1101 84,561 85,611 86,40
87,30 91,1562 92,70 93,511
94,30 95,140 96,260 97,971
98,400 99,140 100,290 101,130
109,50 110,150 111,591 112,260
113,90 118,40 119,9999 120,541
121,3123 122,160 124,130 125,360
126,220 127,60 134,270 135,110
136,220 137,551 138,170 139,410
140,130 141,60 152,60 153,170
154,90 155,30 161,30 167,50
168,60 169,210 170,30 176,20
177,30 182,150 205,230 207,80
210,911 211,180 227,60 289,60
##END=
