##TITLE=5-Bromovaleric acid, 2-(1-adamantyl)ethyl ester
##JCAMP-DX=4.24
##DATA TYPE=MASS SPECTRUM
##ORIGIN=Zaikin V.G., TIPS RAS, Moscow, Russia
##OWNER=NIST Mass Spectrometry Data Center
Collection (C) 2014 copyright by the U.S. Secretary of Commerce
on behalf of the United States of America. All rights reserved.
##$NIST MASS SPEC NO=299983
##MOLFORM=C17 H27 Br O2
##MW=342
##$NIST SOURCE=MSDC
##XUNITS=M/Z
##YUNITS=RELATIVE INTENSITY
##XFACTOR=1
##YFACTOR=1
##FIRSTX=26
##LASTX=209
##FIRSTY=30
##MAXX=209
##MINX=26
##MAXY=9999
##MINY=20
##NPOINTS=59
##PEAK TABLE=(XY..XY)
26,30 27,80 28,30 29,90
39,90 41,230 43,70 44,40
53,80 54,30 55,551 56,80
57,40 65,40 66,40 67,290
68,30 69,90 70,40 73,20
77,180 78,110 79,781 80,280
81,300 82,80 83,60 84,60
91,420 92,501 93,941 94,210
95,100 101,50 104,60 105,521
106,430 107,480 108,80 117,30
118,30 119,340 120,210 121,130
133,190 134,130 135,9999 136,951
137,160 147,110 161,70 162,5384
163,1181 164,100 165,70 179,30
207,651 208,100 209,60
##END=
