##TITLE=1-Methyl-2-tributylsilyloxybenzene
##JCAMP-DX=4.24
##DATA TYPE=MASS SPECTRUM
##ORIGIN=Zaikin V.G., TIPS RAS, Moscow, Russia
##OWNER=NIST Mass Spectrometry Data Center
Collection (C) 2014 copyright by the U.S. Secretary of Commerce
on behalf of the United States of America. All rights reserved.
##$NIST MASS SPEC NO=299114
##MOLFORM=C19 H34 O Si
##MW=306
##$NIST SOURCE=MSDC
##XUNITS=M/Z
##YUNITS=RELATIVE INTENSITY
##XFACTOR=1
##YFACTOR=1
##FIRSTX=26
##LASTX=309
##FIRSTY=50
##MAXX=309
##MINX=26
##MAXY=9999
##MINY=10
##NPOINTS=69
##PEAK TABLE=(XY..XY)
26,50 27,50 28,10 29,30
36,30 39,70 41,140 44,120
45,40 55,60 56,60 57,50
59,150 65,70 75,30 77,90
78,30 79,30 82,30 83,230
85,110 87,40 89,40 90,100
91,1431 92,160 93,70 97,30
101,40 103,30 105,70 107,30
108,20 121,60 133,180 134,60
135,2993 136,440 137,3083 138,430
139,140 143,50 147,60 149,511
150,100 151,831 152,120 153,30
161,80 163,210 164,60 165,280
166,40 179,30 189,40 191,821
192,190 193,9999 194,1892 195,531
196,50 249,7456 250,1862 251,480
252,60 306,3934 307,1101 308,280
309,30
##END=
