##TITLE=o-Anisic acid, 2-adamantyl ester
##JCAMP-DX=4.24
##DATA TYPE=MASS SPECTRUM
##ORIGIN=Zaikin V.G., TIPS RAS, Moscow, Russia
##OWNER=NIST Mass Spectrometry Data Center
Collection (C) 2014 copyright by the U.S. Secretary of Commerce
on behalf of the United States of America. All rights reserved.
##$NIST MASS SPEC NO=299948
##MOLFORM=C18 H22 O3
##MW=286
##$NIST SOURCE=MSDC
##XUNITS=M/Z
##YUNITS=RELATIVE INTENSITY
##XFACTOR=1
##YFACTOR=1
##FIRSTX=28
##LASTX=287
##FIRSTY=20
##MAXX=287
##MINX=28
##MAXY=9999
##MINY=20
##NPOINTS=25
##PEAK TABLE=(XY..XY)
28,20 44,50 50,50 51,130
63,90 64,130 76,60 77,1011
78,130 79,70 92,440 93,30
105,150 106,60 120,100 121,60
123,30 135,9999 136,721 137,60
152,110 211,50 225,40 286,721
287,120
##END=
