##TITLE=Butanoic acid, 2,6-dimethylnon-1-en-3-yn-5-yl ester
##JCAMP-DX=4.24
##DATA TYPE=MASS SPECTRUM
##ORIGIN=Zaikin V.G., TIPS RAS, Moscow, Russia
##OWNER=NIST Mass Spectrometry Data Center
Collection (C) 2014 copyright by the U.S. Secretary of Commerce
on behalf of the United States of America. All rights reserved.
##$NIST MASS SPEC NO=299124
##MOLFORM=C15 H24 O2
##MW=236
##$NIST SOURCE=MSDC
##XUNITS=M/Z
##YUNITS=RELATIVE INTENSITY
##XFACTOR=1
##YFACTOR=1
##FIRSTX=26
##LASTX=236
##FIRSTY=110
##MAXX=236
##MINX=26
##MAXY=9999
##MINY=20
##NPOINTS=94
##PEAK TABLE=(XY..XY)
26,110 27,611 28,130 29,330
38,50 39,611 40,160 41,1652
42,240 43,4915 44,290 50,80
51,230 52,150 53,320 54,30
55,531 56,40 57,120 60,140
62,30 63,140 64,60 65,420
66,200 67,340 68,40 69,541
70,200 71,9999 72,480 73,70
76,20 77,971 78,430 79,671
80,110 81,430 82,350 83,420
84,50 89,60 91,1542 92,420
93,781 94,160 95,1201 96,340
97,110 98,30 99,30 100,50
103,180 104,110 105,1001 106,851
107,651 108,110 109,2032 110,240
111,200 115,80 117,160 118,50
119,1251 120,340 121,190 122,50
123,1261 124,4364 125,440 131,50
133,1261 134,150 135,50 136,430
137,901 138,160 147,80 148,911
149,190 150,30 151,671 152,80
153,30 165,761 166,1271 167,160
193,1752 194,260 207,70 221,220
222,30 236,90
##END=
