##TITLE=2,7-Dimethyl-4-dimethyldodecylsilyloxyoct-7-en-5-yne
##JCAMP-DX=4.24
##DATA TYPE=MASS SPECTRUM
##ORIGIN=Zaikin V.G., TIPS RAS, Moscow, Russia
##OWNER=NIST Mass Spectrometry Data Center
Collection (C) 2014 copyright by the U.S. Secretary of Commerce
on behalf of the United States of America. All rights reserved.
##$NIST MASS SPEC NO=299555
##MOLFORM=C24 H46 O Si
##MW=378
##$NIST SOURCE=MSDC
##XUNITS=M/Z
##YUNITS=RELATIVE INTENSITY
##XFACTOR=1
##YFACTOR=1
##FIRSTX=25
##LASTX=380
##FIRSTY=10
##MAXX=380
##MINX=25
##MAXY=9999
##MINY=10
##NPOINTS=193
##PEAK TABLE=(XY..XY)
25,10 26,100 27,210 29,270
31,10 36,20 37,10 38,30
39,260 40,70 41,741 42,240
43,981 44,90 45,80 47,80
50,30 51,60 52,30 53,90
54,60 55,450 56,260 57,400
58,60 59,2422 60,200 61,641
62,40 63,50 64,20 65,80
66,40 67,120 68,50 69,340
70,160 71,110 72,40 73,340
74,80 75,3674 76,300 77,420
78,120 79,220 80,50 81,90
82,40 83,160 84,70 85,270
86,30 87,280 88,30 89,100
90,10 91,410 92,180 93,280
94,60 95,110 96,40 97,230
98,50 99,440 100,50 101,310
102,30 103,80 104,20 105,150
106,30 107,170 108,50 109,691
110,100 111,200 112,50 113,200
114,30 115,110 116,10 117,50
118,10 119,240 120,40 121,80
122,60 123,5374 124,731 125,400
126,50 127,180 128,30 129,140
130,10 131,20 133,160 134,140
135,470 136,110 137,280 138,70
139,320 140,60 141,130 142,20
143,691 144,80 145,80 146,10
147,30 149,90 150,20 151,300
152,100 153,9999 154,1421 155,501
156,40 157,30 161,10 163,40
164,10 165,210 166,60 167,741
168,250 169,90 170,10 171,10
175,10 177,30 179,160 180,30
181,80 182,30 183,20 191,70
192,10 193,120 194,30 195,811
196,160 197,50 210,2452 211,571
212,120 213,10 221,20 223,50
224,40 225,20 227,170 228,30
229,30 235,80 236,10 237,50
238,10 245,10 247,10 249,20
251,10 253,10 255,10 265,10
277,20 279,20 293,10 297,30
303,10 307,20 321,2012 322,691
323,190 324,30 335,240 336,90
337,240 338,60 339,10 349,20
350,20 363,1161 364,370 365,90
366,10 377,50 378,501 379,150
380,30
##END=
