##TITLE=1-Tripropylsilyloxytridec-2-yne
##JCAMP-DX=4.24
##DATA TYPE=MASS SPECTRUM
##ORIGIN=Zaikin V.G., TIPS RAS, Moscow, Russia
##OWNER=NIST Mass Spectrometry Data Center
Collection (C) 2014 copyright by the U.S. Secretary of Commerce
on behalf of the United States of America. All rights reserved.
##$NIST MASS SPEC NO=299518
##MOLFORM=C22 H44 O Si
##MW=352
##$NIST SOURCE=MSDC
##XUNITS=M/Z
##YUNITS=RELATIVE INTENSITY
##XFACTOR=1
##YFACTOR=1
##FIRSTX=26
##LASTX=311
##FIRSTY=160
##MAXX=311
##MINX=26
##MAXY=9999
##MINY=30
##NPOINTS=141
##PEAK TABLE=(XY..XY)
26,160 27,330 28,30 29,260
39,350 40,110 41,821 42,270
43,661 44,50 45,430 47,440
51,40 52,80 53,140 54,70
55,410 56,80 57,210 59,480
60,80 61,991 62,60 63,50
65,60 66,50 67,330 68,60
69,200 70,60 71,290 72,50
73,731 74,130 75,110 77,180
78,40 79,340 80,70 81,300
82,90 83,571 84,150 85,430
86,50 87,370 88,40 89,2332
90,200 91,270 92,30 93,240
94,60 95,541 96,90 97,851
98,210 99,410 100,40 101,90
103,350 104,30 105,70 107,140
108,30 109,460 110,140 111,981
112,170 113,270 114,30 115,460
116,50 117,30 119,60 121,180
123,340 124,80 125,490 126,80
127,260 128,30 129,120 131,5004
132,591 133,250 135,130 137,290
138,50 139,390 140,160 141,541
142,70 143,90 145,250 146,30
149,70 151,160 152,40 153,390
154,70 155,160 157,170 163,140
165,70 167,400 168,60 169,110
171,60 177,170 178,30 179,40
181,270 182,40 183,90 193,70
195,490 196,90 197,80 199,60
209,110 211,30 223,110 225,320
226,60 227,130 237,190 238,40
239,70 241,931 242,180 243,40
265,70 267,9999 268,2292 269,581
270,70 279,60 309,991 310,260
311,70
##END=
