##TITLE=3-Phenylpropionic acid. 3,5-difluorophenyl ester
##JCAMP-DX=4.24
##DATA TYPE=MASS SPECTRUM
##ORIGIN=Zaikin V.G., TIPS RAS, Moscow, Russia
##OWNER=NIST Mass Spectrometry Data Center
Collection (C) 2014 copyright by the U.S. Secretary of Commerce
on behalf of the United States of America. All rights reserved.
##$NIST MASS SPEC NO=299020
##MOLFORM=C15 H12 F2 O2
##MW=262
##$NIST SOURCE=MSDC
##XUNITS=M/Z
##YUNITS=RELATIVE INTENSITY
##XFACTOR=1
##YFACTOR=1
##FIRSTX=26
##LASTX=263
##FIRSTY=110
##MAXX=263
##MINX=26
##MAXY=9999
##MINY=20
##NPOINTS=57
##PEAK TABLE=(XY..XY)
26,110 27,340 28,20 31,60
38,60 39,450 40,30 41,90
42,90 44,30 50,290 51,961
52,210 53,100 55,100 56,40
57,170 61,40 62,100 63,480
64,80 65,891 66,60 74,90
75,280 76,140 77,1792 78,821
79,1011 80,70 81,150 82,140
83,30 89,210 90,110 91,9859
92,721 93,40 99,40 100,30
101,1001 102,470 103,1191 104,1111
105,9999 106,851 107,40 113,220
129,120 130,531 131,390 132,260
133,5304 134,511 135,30 262,190
263,30
##END=
