##TITLE=4-Dimethyloctylsilyloxy-2-methyloct-5-yne
##JCAMP-DX=4.24
##DATA TYPE=MASS SPECTRUM
##ORIGIN=Zaikin V.G., TIPS RAS, Moscow, Russia
##OWNER=NIST Mass Spectrometry Data Center
Collection (C) 2014 copyright by the U.S. Secretary of Commerce
on behalf of the United States of America. All rights reserved.
##$NIST MASS SPEC NO=299504
##MOLFORM=C19 H38 O Si
##MW=310
##$NIST SOURCE=MSDC
##XUNITS=M/Z
##YUNITS=RELATIVE INTENSITY
##XFACTOR=1
##YFACTOR=1
##FIRSTX=26
##LASTX=255
##FIRSTY=140
##MAXX=255
##MINX=26
##MAXY=9999
##MINY=30
##NPOINTS=108
##PEAK TABLE=(XY..XY)
26,140 27,360 28,150 29,370
31,40 39,390 40,100 41,991
42,300 43,881 44,100 45,180
47,190 50,40 51,70 52,60
53,150 54,70 55,390 56,200
57,200 58,120 59,3253 60,260
61,951 62,50 63,50 65,100
66,50 67,160 68,30 69,390
70,130 71,100 72,70 73,511
74,100 75,4655 76,320 77,340
78,50 79,300 80,60 81,230
82,30 83,280 84,50 85,330
86,50 87,340 88,30 89,60
91,160 93,130 95,120 96,70
97,751 98,100 99,450 100,40
101,340 102,30 103,50 105,40
107,110 109,110 110,70 111,5875
112,671 113,571 114,50 115,140
121,200 122,50 123,280 124,30
125,410 126,80 127,490 128,60
129,190 137,60 139,340 140,90
141,9999 142,1171 143,1301 144,130
145,80 151,30 153,140 154,40
155,561 156,80 167,170 168,30
169,100 171,180 173,40 181,130
183,591 184,80 197,3514 198,551
199,150 253,921 254,170 255,40
##END=
