##TITLE=l-Valine, N-(5-chlrovaleryl)-, methyl ester
##JCAMP-DX=4.24
##DATA TYPE=MASS SPECTRUM
##ORIGIN=Zaikin V.G., TIPS RAS, Moscow, Russia
##OWNER=NIST Mass Spectrometry Data Center
Collection (C) 2014 copyright by the U.S. Secretary of Commerce
on behalf of the United States of America. All rights reserved.
##$NIST MASS SPEC NO=299715
##MOLFORM=C11 H20 Cl N O3
##MW=249
##$NIST SOURCE=MSDC
##XUNITS=M/Z
##YUNITS=RELATIVE INTENSITY
##XFACTOR=1
##YFACTOR=1
##FIRSTX=26
##LASTX=218
##FIRSTY=50
##MAXX=218
##MINX=26
##MAXY=9999
##MINY=10
##NPOINTS=86
##PEAK TABLE=(XY..XY)
26,50 27,270 28,10 29,370
30,80 31,30 33,70 36,80
39,210 40,30 41,350 42,140
43,180 44,110 49,40 53,130
54,80 55,1932 56,350 57,280
58,30 59,210 60,50 63,90
65,30 68,40 69,70 70,210
71,110 72,9999 73,511 74,60
82,100 83,240 84,110 85,40
88,1451 89,370 90,60 91,911
92,40 93,280 98,140 99,30
100,60 102,130 107,190 108,70
112,40 114,180 115,120 116,110
118,30 119,1051 120,70 121,350
126,30 130,210 131,20 132,220
136,961 137,60 138,320 139,30
140,70 146,30 147,40 150,30
154,170 170,50 172,40 175,490
176,50 177,150 178,170 180,50
182,40 190,2933 191,330 192,991
193,100 200,30 202,70 214,380
215,50 218,30
##END=
