##TITLE=p-Toluic acid, 5-tridecyl ester
##JCAMP-DX=4.24
##DATA TYPE=MASS SPECTRUM
##ORIGIN=Zaikin V.G., TIPS RAS, Moscow, Russia
##OWNER=NIST Mass Spectrometry Data Center
Collection (C) 2014 copyright by the U.S. Secretary of Commerce
on behalf of the United States of America. All rights reserved.
##$NIST MASS SPEC NO=299805
##MOLFORM=C21 H34 O2
##MW=318
##$NIST SOURCE=MSDC
##XUNITS=M/Z
##YUNITS=RELATIVE INTENSITY
##XFACTOR=1
##YFACTOR=1
##FIRSTX=26
##LASTX=199
##FIRSTY=150
##MAXX=199
##MINX=26
##MAXY=9999
##MINY=30
##NPOINTS=79
##PEAK TABLE=(XY..XY)
26,150 27,450 28,350 29,871
36,60 38,40 39,531 40,90
41,1902 42,450 43,1622 44,230
45,30 50,80 51,120 52,50
53,130 54,320 55,1822 56,1081
57,1301 58,100 62,30 63,150
64,50 65,901 66,70 67,370
68,270 69,1271 70,951 71,460
77,140 78,30 79,90 81,250
82,380 83,951 84,581 85,230
89,210 90,240 91,3053 92,350
93,300 94,30 95,120 96,290
97,781 98,370 99,50 105,60
107,70 109,50 110,180 111,450
112,220 113,30 118,80 119,9999
120,851 121,50 123,30 124,90
125,250 126,110 134,60 135,90
136,561 137,3423 138,300 139,90
140,60 153,40 154,100 180,40
182,591 183,70 199,90
##END=
