##TITLE=2-Fluorobenzoic acid, hex-4-yn-3-yl ester
##JCAMP-DX=4.24
##DATA TYPE=MASS SPECTRUM
##ORIGIN=Zaikin V.G., TIPS RAS, Moscow, Russia
##OWNER=NIST Mass Spectrometry Data Center
Collection (C) 2014 copyright by the U.S. Secretary of Commerce
on behalf of the United States of America. All rights reserved.
##$NIST MASS SPEC NO=299164
##MOLFORM=C13 H13 F O2
##MW=220
##$NIST SOURCE=MSDC
##XUNITS=M/Z
##YUNITS=RELATIVE INTENSITY
##XFACTOR=1
##YFACTOR=1
##FIRSTX=27
##LASTX=220
##FIRSTY=70
##MAXX=220
##MINX=27
##MAXY=9999
##MINY=10
##NPOINTS=54
##PEAK TABLE=(XY..XY)
27,70 28,10 29,30 39,180
40,40 41,230 43,30 44,90
50,90 51,120 52,90 53,330
54,30 55,50 63,40 65,130
66,80 67,60 68,40 69,110
74,50 75,430 76,50 77,260
78,50 79,1592 80,631 81,370
82,30 94,90 95,1211 96,180
97,340 122,30 123,9999 124,781
125,50 133,30 140,80 141,220
147,50 149,50 150,100 161,50
163,60 174,50 177,60 191,320
192,511 193,60 205,1451 206,190
207,60 220,190
##END=
