##TITLE=Phenylacetic acid, 2-chlorophenyl ester
##JCAMP-DX=4.24
##DATA TYPE=MASS SPECTRUM
##ORIGIN=Zaikin V.G., TIPS RAS, Moscow, Russia
##OWNER=NIST Mass Spectrometry Data Center
Collection (C) 2014 copyright by the U.S. Secretary of Commerce
on behalf of the United States of America. All rights reserved.
##$NIST MASS SPEC NO=299005
##MOLFORM=C14 H11 Cl O2
##MW=246
##$NIST SOURCE=MSDC
##XUNITS=M/Z
##YUNITS=RELATIVE INTENSITY
##XFACTOR=1
##YFACTOR=1
##FIRSTX=26
##LASTX=181
##FIRSTY=30
##MAXX=181
##MINX=26
##MAXY=9999
##MINY=10
##NPOINTS=35
##PEAK TABLE=(XY..XY)
26,30 28,10 36,30 38,60
39,270 41,60 50,80 51,130
52,30 61,30 62,90 63,370
64,220 65,811 66,50 73,150
74,40 75,110 89,390 90,551
91,9999 92,691 99,250 100,30
101,80 111,30 118,6726 119,601
120,40 127,70 128,340 129,40
130,110 136,30 181,30
##END=
