##TITLE=3-Methyl-2-butenoic acid, 3-chloroprop-2-enyl ester
##JCAMP-DX=4.24
##DATA TYPE=MASS SPECTRUM
##ORIGIN=Zaikin V.G., TIPS RAS, Moscow, Russia
##OWNER=NIST Mass Spectrometry Data Center
Collection (C) 2014 copyright by the U.S. Secretary of Commerce
on behalf of the United States of America. All rights reserved.
##$NIST MASS SPEC NO=299318
##MOLFORM=C8 H11 Cl O2
##MW=174
##$NIST SOURCE=MSDC
##XUNITS=M/Z
##YUNITS=RELATIVE INTENSITY
##XFACTOR=1
##YFACTOR=1
##FIRSTX=26
##LASTX=140
##FIRSTY=170
##MAXX=140
##MINX=26
##MAXY=9999
##MINY=20
##NPOINTS=56
##PEAK TABLE=(XY..XY)
26,170 27,831 29,1171 30,20
36,170 37,70 38,230 39,1952
40,210 41,210 42,40 43,250
44,110 49,360 50,70 51,280
52,60 53,541 54,210 55,2893
56,310 57,50 59,30 61,60
62,50 67,120 69,50 71,50
73,40 75,3463 76,110 77,1151
78,30 79,120 81,80 82,541
83,9999 84,561 85,60 88,30
89,40 90,30 91,100 93,631
94,50 95,100 97,40 99,160
111,110 121,30 123,30 125,30
129,200 131,60 139,2743 140,220
##END=
