##TITLE=4-(Trifluoromethyl)benzoic acid, 2,7-dimethyloct-7-en-5-yn-4-yl ester
##JCAMP-DX=4.24
##DATA TYPE=MASS SPECTRUM
##ORIGIN=Zaikin V.G., TIPS RAS, Moscow, Russia
##OWNER=NIST Mass Spectrometry Data Center
Collection (C) 2014 copyright by the U.S. Secretary of Commerce
on behalf of the United States of America. All rights reserved.
##$NIST MASS SPEC NO=299444
##MOLFORM=C18 H19 F3 O2
##MW=324
##$NIST SOURCE=MSDC
##XUNITS=M/Z
##YUNITS=RELATIVE INTENSITY
##XFACTOR=1
##YFACTOR=1
##FIRSTX=27
##LASTX=325
##FIRSTY=60
##MAXX=325
##MINX=27
##MAXY=9999
##MINY=10
##NPOINTS=81
##PEAK TABLE=(XY..XY)
27,60 28,10 29,40 39,140
40,60 41,320 43,220 44,90
50,70 51,110 52,50 53,90
55,100 57,70 63,50 64,20
65,160 66,50 67,100 68,30
69,80 75,80 76,40 77,350
78,90 79,240 80,40 81,240
83,30 85,30 91,831 92,310
93,260 94,50 95,190 96,80
103,60 104,40 105,210 106,50
107,80 109,160 115,30 117,100
119,1481 120,160 123,30 125,90
126,110 127,40 133,100 134,250
135,40 136,50 143,40 144,50
145,2192 146,210 151,100 154,30
171,170 172,30 173,9999 174,851
175,50 190,110 221,60 239,50
240,40 244,30 253,30 255,20
267,80 268,90 281,4775 282,811
283,80 305,40 309,30 324,280
325,50
##END=
