##TITLE=1,3-Difluoro-5-trihexylsilyloxybenzene
##JCAMP-DX=4.24
##DATA TYPE=MASS SPECTRUM
##ORIGIN=Zaikin V.G., TIPS RAS, Moscow, Russia
##OWNER=NIST Mass Spectrometry Data Center
Collection (C) 2014 copyright by the U.S. Secretary of Commerce
on behalf of the United States of America. All rights reserved.
##$NIST MASS SPEC NO=299091
##MOLFORM=C24 H42 F2 O Si
##MW=412
##$NIST SOURCE=MSDC
##XUNITS=M/Z
##YUNITS=RELATIVE INTENSITY
##XFACTOR=1
##YFACTOR=1
##FIRSTX=27
##LASTX=414
##FIRSTY=20
##MAXX=414
##MINX=27
##MAXY=9999
##MINY=10
##NPOINTS=60
##PEAK TABLE=(XY..XY)
27,20 28,10 29,30 39,30
41,80 43,70 55,90 56,30
57,30 59,80 71,70 73,30
81,30 83,230 84,30 85,541
86,50 97,30 99,30 111,80
113,2683 114,330 115,290 127,30
157,1051 158,130 159,1171 160,150
161,40 171,110 172,50 173,641
174,80 183,50 185,350 186,130
187,531 188,70 197,90 199,220
200,50 201,330 202,50 211,140
213,490 214,110 215,100 227,70
241,220 242,70 243,3974 244,721
245,190 327,9999 328,2242 329,581
330,80 412,611 413,190 414,50
##END=
