##TITLE=Glycine, N-(3-fluorobenzoyl)-, methyl ester
##JCAMP-DX=4.24
##DATA TYPE=MASS SPECTRUM
##ORIGIN=Zaikin V.G., TIPS RAS, Moscow, Russia
##OWNER=NIST Mass Spectrometry Data Center
Collection (C) 2014 copyright by the U.S. Secretary of Commerce
on behalf of the United States of America. All rights reserved.
##$NIST MASS SPEC NO=299675
##MOLFORM=C10 H10 F N O3
##MW=211
##$NIST SOURCE=MSDC
##XUNITS=M/Z
##YUNITS=RELATIVE INTENSITY
##XFACTOR=1
##YFACTOR=1
##FIRSTX=28
##LASTX=212
##FIRSTY=10
##MAXX=212
##MINX=28
##MAXY=9999
##MINY=10
##NPOINTS=35
##PEAK TABLE=(XY..XY)
28,10 29,40 40,30 44,100
50,110 51,70 56,50 57,90
59,50 68,60 69,120 70,30
74,80 75,701 76,80 88,40
93,30 94,180 95,2713 96,250
121,30 122,70 123,9999 124,681
125,40 135,20 140,60 151,30
152,2392 153,220 179,601 180,170
194,40 211,871 212,100
##END=
