##TITLE=2-Trifluoromethylbenzoic acid, pent-2-en-4-ynyl ester
##JCAMP-DX=4.24
##DATA TYPE=MASS SPECTRUM
##ORIGIN=Zaikin V.G., TIPS RAS, Moscow, Russia
##OWNER=NIST Mass Spectrometry Data Center
Collection (C) 2014 copyright by the U.S. Secretary of Commerce
on behalf of the United States of America. All rights reserved.
##$NIST MASS SPEC NO=299402
##MOLFORM=C13 H9 F3 O2
##MW=254
##$NIST SOURCE=MSDC
##XUNITS=M/Z
##YUNITS=RELATIVE INTENSITY
##XFACTOR=1
##YFACTOR=1
##FIRSTX=27
##LASTX=254
##FIRSTY=30
##MAXX=254
##MINX=27
##MAXY=9999
##MINY=20
##NPOINTS=36
##PEAK TABLE=(XY..XY)
27,30 28,20 38,50 39,370
44,30 50,120 51,90 52,40
53,30 62,40 63,190 64,120
65,671 66,40 69,30 74,30
75,140 76,40 81,30 95,230
96,30 119,20 125,150 126,240
127,40 144,30 145,1892 146,180
151,90 154,531 155,40 173,9999
174,701 175,40 190,30 254,80
##END=
