##TITLE=4-Bromobenzoic acid, 2-isopropoxyphenyl ester
##JCAMP-DX=4.24
##DATA TYPE=MASS SPECTRUM
##ORIGIN=Zaikin V.G., TIPS RAS, Moscow, Russia
##OWNER=NIST Mass Spectrometry Data Center
Collection (C) 2014 copyright by the U.S. Secretary of Commerce
on behalf of the United States of America. All rights reserved.
##$NIST MASS SPEC NO=299030
##MOLFORM=C16 H15 Br O3
##MW=334
##$NIST SOURCE=MSDC
##XUNITS=M/Z
##YUNITS=RELATIVE INTENSITY
##XFACTOR=1
##YFACTOR=1
##FIRSTX=26
##LASTX=337
##FIRSTY=80
##MAXX=337
##MINX=26
##MAXY=9999
##MINY=30
##NPOINTS=54
##PEAK TABLE=(XY..XY)
26,80 27,230 28,60 38,50
39,180 40,30 41,320 42,80
43,300 44,50 50,380 51,170
52,360 53,140 55,30 63,80
64,90 65,110 74,130 75,571
76,891 77,180 79,30 80,310
81,571 82,120 92,40 93,60
94,30 103,30 104,561 105,130
109,370 110,440 111,100 121,120
128,40 135,60 136,40 155,1461
156,150 157,1421 158,110 183,9999
184,691 185,9749 186,661 187,30
292,140 294,140 334,240 335,30
336,230 337,30
##END=
