##TITLE=o-Toluic acid, 2-tetradecyl ester
##JCAMP-DX=4.24
##DATA TYPE=MASS SPECTRUM
##ORIGIN=Zaikin V.G., TIPS RAS, Moscow, Russia
##OWNER=NIST Mass Spectrometry Data Center
Collection (C) 2014 copyright by the U.S. Secretary of Commerce
on behalf of the United States of America. All rights reserved.
##$NIST MASS SPEC NO=299794
##MOLFORM=C22 H36 O2
##MW=332
##$NIST SOURCE=MSDC
##XUNITS=M/Z
##YUNITS=RELATIVE INTENSITY
##XFACTOR=1
##YFACTOR=1
##FIRSTX=26
##LASTX=332
##FIRSTY=50
##MAXX=332
##MINX=26
##MAXY=9999
##MINY=20
##NPOINTS=66
##PEAK TABLE=(XY..XY)
26,50 27,130 28,110 29,290
39,190 40,30 41,821 42,200
43,1111 44,100 50,20 51,40
53,60 54,100 55,971 56,420
57,1041 58,60 63,50 65,370
66,30 67,160 68,120 69,631
70,370 71,581 77,90 79,70
81,100 82,140 83,480 84,230
85,350 89,120 90,280 91,1582
92,190 93,190 95,50 96,100
97,420 98,140 99,60 105,40
110,40 111,210 112,90 113,30
118,2152 119,4164 120,390 121,30
125,90 126,50 135,160 136,9999
137,2392 138,220 139,30 140,30
163,40 168,40 196,240 197,50
213,50 332,110
##END=
