##TITLE=2-Dimethyloctylsilyloxybut-3-yne
##JCAMP-DX=4.24
##DATA TYPE=MASS SPECTRUM
##ORIGIN=Zaikin V.G., TIPS RAS, Moscow, Russia
##OWNER=NIST Mass Spectrometry Data Center
Collection (C) 2014 copyright by the U.S. Secretary of Commerce
on behalf of the United States of America. All rights reserved.
##$NIST MASS SPEC NO=299502
##MOLFORM=C14 H28 O Si
##MW=240
##$NIST SOURCE=MSDC
##XUNITS=M/Z
##YUNITS=RELATIVE INTENSITY
##XFACTOR=1
##YFACTOR=1
##FIRSTX=26
##LASTX=226
##FIRSTY=70
##MAXX=226
##MINX=26
##MAXY=9999
##MINY=20
##NPOINTS=73
##PEAK TABLE=(XY..XY)
26,70 27,190 28,60 29,160
39,120 40,30 41,340 42,120
43,400 44,60 45,250 47,190
50,30 51,40 52,50 53,120
54,30 55,200 56,80 57,60
58,60 59,741 60,100 61,470
62,20 67,120 69,350 70,90
71,70 72,30 73,100 74,50
75,981 76,60 77,40 79,30
81,30 82,30 83,4434 84,400
85,380 86,30 87,100 93,30
95,100 96,30 97,330 98,40
99,180 101,741 102,70 103,50
109,100 111,320 112,80 113,2523
114,240 115,100 123,30 125,140
126,20 127,9999 128,1101 129,370
139,30 141,120 153,30 155,30
179,50 181,30 197,40 225,280
226,40
##END=
