##TITLE=(Phenylthio)acetic acid, 2-(1-adamantyl)ethyl ester
##JCAMP-DX=4.24
##DATA TYPE=MASS SPECTRUM
##ORIGIN=Zaikin V.G., TIPS RAS, Moscow, Russia
##OWNER=NIST Mass Spectrometry Data Center
Collection (C) 2014 copyright by the U.S. Secretary of Commerce
on behalf of the United States of America. All rights reserved.
##$NIST MASS SPEC NO=299958
##MOLFORM=C20 H26 O2 S
##MW=330
##$NIST SOURCE=MSDC
##XUNITS=M/Z
##YUNITS=RELATIVE INTENSITY
##XFACTOR=1
##YFACTOR=1
##FIRSTX=26
##LASTX=333
##FIRSTY=70
##MAXX=333
##MINX=26
##MAXY=9999
##MINY=20
##NPOINTS=97
##PEAK TABLE=(XY..XY)
26,70 27,90 28,40 29,110
39,250 40,50 41,571 42,110
43,260 44,130 45,891 46,40
47,40 50,90 51,220 52,60
53,190 54,40 55,591 56,120
57,120 63,50 65,440 66,200
67,941 68,70 69,480 70,40
71,30 74,30 76,30 77,951
78,410 79,2052 80,330 81,1221
82,130 83,150 84,110 85,50
86,40 91,1161 92,551 93,1992
94,280 95,511 96,40 97,50
103,60 104,60 105,911 106,330
107,1231 108,290 109,1061 110,711
111,90 112,30 115,20 117,90
118,40 119,460 120,180 121,521
122,170 123,4444 124,1992 125,350
126,90 131,30 133,280 134,140
135,9999 136,1101 137,50 147,90
149,140 150,50 151,50 161,290
162,360 163,1051 164,120 168,4354
169,400 170,220 178,30 179,390
180,40 195,50 207,1502 208,150
229,30 330,8928 331,1802 332,611
333,100
##END=
