##TITLE=l-Alanine, N-(5-chlorovaleryl)-, methyl ester
##JCAMP-DX=4.24
##DATA TYPE=MASS SPECTRUM
##ORIGIN=Zaikin V.G., TIPS RAS, Moscow, Russia
##OWNER=NIST Mass Spectrometry Data Center
Collection (C) 2014 copyright by the U.S. Secretary of Commerce
on behalf of the United States of America. All rights reserved.
##$NIST MASS SPEC NO=299713
##MOLFORM=C9 H16 Cl N O3
##MW=221
##$NIST SOURCE=MSDC
##XUNITS=M/Z
##YUNITS=RELATIVE INTENSITY
##XFACTOR=1
##YFACTOR=1
##FIRSTX=26
##LASTX=187
##FIRSTY=60
##MAXX=187
##MINX=26
##MAXY=9999
##MINY=10
##NPOINTS=50
##PEAK TABLE=(XY..XY)
26,60 27,320 28,10 29,370
30,30 31,30 36,110 38,30
39,170 40,30 41,250 42,400
43,190 44,9999 45,250 49,60
53,120 54,60 55,1682 56,140
57,70 58,90 59,230 62,30
63,90 65,30 70,330 71,30
83,90 84,40 86,30 87,30
88,120 91,651 92,30 93,210
98,50 102,350 103,40 104,531
112,30 119,350 121,110 126,170
154,30 162,1151 163,80 164,380
186,400 187,30
##END=
