##TITLE=4-Bromobutanoic acid, oct-3-en-2-yl ester
##JCAMP-DX=4.24
##DATA TYPE=MASS SPECTRUM
##ORIGIN=Zaikin V.G., TIPS RAS, Moscow, Russia
##OWNER=NIST Mass Spectrometry Data Center
Collection (C) 2014 copyright by the U.S. Secretary of Commerce
on behalf of the United States of America. All rights reserved.
##$NIST MASS SPEC NO=299279
##MOLFORM=C12 H21 Br O2
##MW=276
##$NIST SOURCE=MSDC
##XUNITS=M/Z
##YUNITS=RELATIVE INTENSITY
##XFACTOR=1
##YFACTOR=1
##FIRSTX=26
##LASTX=278
##FIRSTY=140
##MAXX=278
##MINX=26
##MAXY=9999
##MINY=20
##NPOINTS=122
##PEAK TABLE=(XY..XY)
26,140 27,671 28,20 29,601
35,30 37,30 38,160 39,1141
40,350 41,4905 42,731 43,2232
44,350 45,130 50,90 51,230
52,210 53,1071 54,881 55,4705
56,581 57,631 58,410 59,200
60,480 63,40 65,380 66,260
67,3013 68,7006 69,4635 70,571
71,1552 72,290 73,30 75,50
77,450 78,110 79,1311 80,601
81,5535 82,1231 83,621 84,170
85,801 86,1131 87,330 88,110
89,40 90,30 91,270 92,50
93,831 94,200 95,2623 96,320
97,190 98,40 99,140 100,50
102,290 103,40 104,100 105,90
107,290 108,80 109,871 110,1692
111,1822 112,180 113,671 114,140
115,230 116,70 117,70 121,2292
122,70 123,2202 124,70 127,2012
128,9699 129,1341 130,310 131,220
132,80 133,40 135,80 137,40
143,120 144,40 145,30 148,80
149,9999 150,541 151,9889 152,440
155,470 156,40 157,30 165,30
167,60 169,50 170,50 177,120
178,160 179,120 180,160 183,30
191,150 192,30 193,150 195,30
219,330 220,100 221,340 222,100
233,90 234,70 235,110 236,60
276,40 278,30
##END=
