##TITLE=l-Valine, N-(4-fluorobenzoyl)-, methyl ester
##JCAMP-DX=4.24
##DATA TYPE=MASS SPECTRUM
##ORIGIN=Zaikin V.G., TIPS RAS, Moscow, Russia
##OWNER=NIST Mass Spectrometry Data Center
Collection (C) 2014 copyright by the U.S. Secretary of Commerce
on behalf of the United States of America. All rights reserved.
##$NIST MASS SPEC NO=299605
##MOLFORM=C13 H16 F N O3
##MW=253
##$NIST SOURCE=MSDC
##XUNITS=M/Z
##YUNITS=RELATIVE INTENSITY
##XFACTOR=1
##YFACTOR=1
##FIRSTX=27
##LASTX=253
##FIRSTY=50
##MAXX=253
##MINX=27
##MAXY=9999
##MINY=20
##NPOINTS=38
##PEAK TABLE=(XY..XY)
27,50 28,30 39,40 41,70
43,60 44,50 50,40 55,30
56,50 59,30 69,40 70,50
75,260 76,30 82,20 83,70
94,90 95,1532 96,140 114,80
115,60 122,60 123,9999 124,671
125,40 139,40 140,1361 141,110
151,90 179,310 180,40 193,30
194,2613 195,310 206,40 211,210
222,30 253,40
##END=
