##TITLE=3-Methyl-2-butenoic acid, hex-4-yn-3-yl ester
##JCAMP-DX=4.24
##DATA TYPE=MASS SPECTRUM
##ORIGIN=Zaikin V.G., TIPS RAS, Moscow, Russia
##OWNER=NIST Mass Spectrometry Data Center
Collection (C) 2014 copyright by the U.S. Secretary of Commerce
on behalf of the United States of America. All rights reserved.
##$NIST MASS SPEC NO=299311
##MOLFORM=C11 H16 O2
##MW=180
##$NIST SOURCE=MSDC
##XUNITS=M/Z
##YUNITS=RELATIVE INTENSITY
##XFACTOR=1
##YFACTOR=1
##FIRSTX=26
##LASTX=165
##FIRSTY=40
##MAXX=165
##MINX=26
##MAXY=9999
##MINY=30
##NPOINTS=42
##PEAK TABLE=(XY..XY)
26,40 27,300 28,140 29,370
38,40 39,531 40,120 41,420
43,90 44,70 50,60 51,130
52,110 53,671 54,110 55,931
56,50 63,30 65,150 66,100
67,100 69,60 77,250 78,50
79,1732 80,531 81,731 82,270
83,9999 84,460 85,70 97,130
100,150 101,250 110,30 123,140
124,40 137,90 151,130 152,430
153,40 165,230
##END=
