##TITLE=Isonicotinic acid, heptadecyl ester
##JCAMP-DX=4.24
##DATA TYPE=MASS SPECTRUM
##ORIGIN=Zaikin V.G., TIPS RAS, Moscow, Russia
##OWNER=NIST Mass Spectrometry Data Center
Collection (C) 2014 copyright by the U.S. Secretary of Commerce
on behalf of the United States of America. All rights reserved.
##$NIST MASS SPEC NO=299970
##MOLFORM=C23 H39 N O2
##MW=361
##$NIST SOURCE=MSDC
##XUNITS=M/Z
##YUNITS=RELATIVE INTENSITY
##XFACTOR=1
##YFACTOR=1
##FIRSTX=26
##LASTX=362
##FIRSTY=70
##MAXX=362
##MINX=26
##MAXY=9999
##MINY=30
##NPOINTS=102
##PEAK TABLE=(XY..XY)
26,70 27,160 28,130 29,320
39,150 40,40 41,981 42,280
43,1381 44,100 50,70 51,310
52,80 53,70 54,250 55,1351
56,490 57,931 58,30 67,290
68,240 69,861 70,340 71,330
77,40 78,801 79,490 80,360
81,190 82,200 83,601 84,170
85,150 93,230 95,90 96,90
97,350 98,80 106,1682 107,1111
108,80 109,30 110,30 111,130
112,40 120,170 121,80 123,190
124,9999 125,761 126,70 134,50
135,40 137,60 148,50 149,60
150,40 151,40 162,80 163,60
164,90 165,40 176,50 177,50
178,60 190,30 192,50 204,50
205,30 206,70 218,60 219,30
220,100 221,30 232,50 233,50
234,120 246,30 248,140 260,50
262,170 263,30 274,100 275,30
276,190 277,40 288,30 289,30
290,210 291,40 304,220 305,40
316,30 317,340 318,310 319,60
332,210 333,50 346,70 360,90
361,110 362,30
##END=
