##TITLE=l-Valine, N-(m-anisoyl)-, methyl ester
##JCAMP-DX=4.24
##DATA TYPE=MASS SPECTRUM
##ORIGIN=Zaikin V.G., TIPS RAS, Moscow, Russia
##OWNER=NIST Mass Spectrometry Data Center
Collection (C) 2014 copyright by the U.S. Secretary of Commerce
on behalf of the United States of America. All rights reserved.
##$NIST MASS SPEC NO=299708
##MOLFORM=C14 H19 N O4
##MW=265
##$NIST SOURCE=MSDC
##XUNITS=M/Z
##YUNITS=RELATIVE INTENSITY
##XFACTOR=1
##YFACTOR=1
##FIRSTX=26
##LASTX=266
##FIRSTY=20
##MAXX=266
##MINX=26
##MAXY=9999
##MINY=10
##NPOINTS=81
##PEAK TABLE=(XY..XY)
26,20 27,70 28,10 29,50
30,20 31,10 38,20 39,90
40,10 41,90 42,20 43,70
44,40 50,50 51,50 52,10
53,30 54,10 55,50 56,30
59,40 62,10 63,140 64,250
65,70 66,10 69,10 70,30
74,10 75,30 76,140 77,911
78,100 79,50 83,30 91,20
92,791 93,70 94,10 103,20
104,50 105,20 106,30 107,1121
108,120 109,20 114,10 119,20
120,40 121,70 122,10 130,30
132,10 133,40 134,30 135,9999
136,771 137,60 148,20 150,70
151,2112 152,300 153,20 162,40
163,90 164,10 176,10 190,10
191,170 192,30 204,10 205,30
206,1441 218,30 222,10 223,110
224,10 234,30 250,10 265,290
266,50
##END=
