##TITLE=l-Serine, N,O-bis(4-fluorobenzoyl)-, methyl ester
##JCAMP-DX=4.24
##DATA TYPE=MASS SPECTRUM
##ORIGIN=Zaikin V.G., TIPS RAS, Moscow, Russia
##OWNER=NIST Mass Spectrometry Data Center
Collection (C) 2014 copyright by the U.S. Secretary of Commerce
on behalf of the United States of America. All rights reserved.
##$NIST MASS SPEC NO=299609
##MOLFORM=C18 H15 F2 N O5
##MW=363
##$NIST SOURCE=MSDC
##XUNITS=M/Z
##YUNITS=RELATIVE INTENSITY
##XFACTOR=1
##YFACTOR=1
##FIRSTX=28
##LASTX=333
##FIRSTY=50
##MAXX=333
##MINX=28
##MAXY=9999
##MINY=30
##NPOINTS=31
##PEAK TABLE=(XY..XY)
28,50 41,30 44,60 50,40
69,40 74,30 75,270 76,30
94,80 95,1552 96,170 109,30
121,30 122,50 123,9999 124,641
125,40 140,150 141,30 164,1582
165,180 191,260 192,70 193,30
223,611 224,80 240,220 262,450
263,70 304,80 333,30
##END=
