##TITLE=4-Cyanobenzoic acid, pent-2-en-4-ynyl ester
##JCAMP-DX=4.24
##DATA TYPE=MASS SPECTRUM
##ORIGIN=Zaikin V.G., TIPS RAS, Moscow, Russia
##OWNER=NIST Mass Spectrometry Data Center
Collection (C) 2014 copyright by the U.S. Secretary of Commerce
on behalf of the United States of America. All rights reserved.
##$NIST MASS SPEC NO=299223
##MOLFORM=C13 H9 N O2
##MW=211
##$NIST SOURCE=MSDC
##XUNITS=M/Z
##YUNITS=RELATIVE INTENSITY
##XFACTOR=1
##YFACTOR=1
##FIRSTX=26
##LASTX=211
##FIRSTY=40
##MAXX=211
##MINX=26
##MAXY=9999
##MINY=10
##NPOINTS=34
##PEAK TABLE=(XY..XY)
26,40 27,100 28,10 37,30
38,110 39,601 44,60 49,30
50,260 51,370 52,110 53,80
62,70 63,390 64,260 65,641
66,40 74,70 75,440 76,310
77,40 81,330 101,50 102,2182
103,280 104,40 109,60 130,9999
131,791 132,40 147,150 148,40
166,30 211,60
##END=
