##TITLE=(Phenylthio)acetic acid, but-3-yn-2-yl ester
##JCAMP-DX=4.24
##DATA TYPE=MASS SPECTRUM
##ORIGIN=Zaikin V.G., TIPS RAS, Moscow, Russia
##OWNER=NIST Mass Spectrometry Data Center
Collection (C) 2014 copyright by the U.S. Secretary of Commerce
on behalf of the United States of America. All rights reserved.
##$NIST MASS SPEC NO=299420
##MOLFORM=C12 H12 O2 S
##MW=220
##$NIST SOURCE=MSDC
##XUNITS=M/Z
##YUNITS=RELATIVE INTENSITY
##XFACTOR=1
##YFACTOR=1
##FIRSTX=26
##LASTX=223
##FIRSTY=70
##MAXX=223
##MINX=26
##MAXY=9999
##MINY=10
##NPOINTS=68
##PEAK TABLE=(XY..XY)
26,70 27,340 28,10 29,30
38,50 39,290 40,30 41,30
42,80 43,80 44,190 45,2102
46,110 47,100 50,270 51,791
52,190 53,1221 54,60 58,40
63,80 65,561 66,130 69,240
71,40 74,60 75,50 76,60
77,911 78,280 79,360 82,60
83,40 84,50 89,30 91,150
97,60 105,80 108,180 109,951
110,811 111,501 112,60 115,40
121,370 122,130 123,9999 124,871
125,480 126,40 128,50 130,30
134,30 135,50 143,40 147,60
149,60 150,120 151,110 161,200
168,611 169,60 170,30 178,40
220,5424 221,761 222,300 223,30
##END=
