##TITLE=3-Chloro-1-dimethylisopropylsilyloxyprop-2-ene
##JCAMP-DX=4.24
##DATA TYPE=MASS SPECTRUM
##ORIGIN=Zaikin V.G., TIPS RAS, Moscow, Russia
##OWNER=NIST Mass Spectrometry Data Center
Collection (C) 2014 copyright by the U.S. Secretary of Commerce
on behalf of the United States of America. All rights reserved.
##$NIST MASS SPEC NO=299501
##MOLFORM=C8 H17 Cl O Si
##MW=192
##$NIST SOURCE=MSDC
##XUNITS=M/Z
##YUNITS=RELATIVE INTENSITY
##XFACTOR=1
##YFACTOR=1
##FIRSTX=26
##LASTX=179
##FIRSTY=50
##MAXX=179
##MINX=26
##MAXY=9999
##MINY=30
##NPOINTS=67
##PEAK TABLE=(XY..XY)
26,50 27,120 28,70 29,40
31,40 39,420 40,40 41,190
42,70 43,360 44,30 45,330
47,200 49,110 53,30 54,30
55,210 57,130 58,190 59,631
60,80 61,140 63,150 65,220
67,110 71,40 73,731 74,70
75,1061 76,60 77,190 78,60
79,360 81,110 83,80 85,1542
86,130 87,60 89,40 92,50
93,9999 94,761 95,3984 96,260
97,230 98,40 99,270 101,230
105,90 107,30 113,150 115,80
119,400 120,30 121,230 123,100
133,60 135,80 149,5494 150,571
151,1952 152,180 153,50 157,571
158,70 177,190 179,70
##END=
