##TITLE=2-Fluorobenzoic acid, oct-3-en-2-yl ester
##JCAMP-DX=4.24
##DATA TYPE=MASS SPECTRUM
##ORIGIN=Zaikin V.G., TIPS RAS, Moscow, Russia
##OWNER=NIST Mass Spectrometry Data Center
Collection (C) 2014 copyright by the U.S. Secretary of Commerce
on behalf of the United States of America. All rights reserved.
##$NIST MASS SPEC NO=299165
##MOLFORM=C15 H19 F O2
##MW=250
##$NIST SOURCE=MSDC
##XUNITS=M/Z
##YUNITS=RELATIVE INTENSITY
##XFACTOR=1
##YFACTOR=1
##FIRSTX=27
##LASTX=250
##FIRSTY=60
##MAXX=250
##MINX=27
##MAXY=9999
##MINY=10
##NPOINTS=54
##PEAK TABLE=(XY..XY)
27,60 28,10 29,30 38,30
39,110 40,50 41,270 42,30
43,110 44,160 50,40 51,40
53,130 54,150 55,561 56,50
65,40 66,30 67,380 68,881
69,601 70,40 71,100 74,30
75,250 76,30 77,80 79,140
81,781 82,90 93,20 94,70
95,1051 96,160 97,30 110,430
111,140 122,30 123,9999 124,821
125,50 127,1031 128,90 140,260
141,360 151,60 152,130 165,60
166,30 193,120 194,60 207,310
208,100 250,50
##END=
