##TITLE=1-Chloro-2-tributylsilyloxybenzene
##JCAMP-DX=4.24
##DATA TYPE=MASS SPECTRUM
##ORIGIN=Zaikin V.G., TIPS RAS, Moscow, Russia
##OWNER=NIST Mass Spectrometry Data Center
Collection (C) 2014 copyright by the U.S. Secretary of Commerce
on behalf of the United States of America. All rights reserved.
##$NIST MASS SPEC NO=299115
##MOLFORM=C18 H31 Cl O Si
##MW=326
##$NIST SOURCE=MSDC
##XUNITS=M/Z
##YUNITS=RELATIVE INTENSITY
##XFACTOR=1
##YFACTOR=1
##FIRSTX=26
##LASTX=328
##FIRSTY=80
##MAXX=328
##MINX=26
##MAXY=9999
##MINY=20
##NPOINTS=81
##PEAK TABLE=(XY..XY)
26,80 27,130 28,40 29,120
36,60 39,110 41,260 42,40
43,50 44,60 45,60 55,220
56,100 57,70 58,20 59,200
63,360 64,30 65,220 67,40
77,340 78,50 79,470 80,30
81,170 83,50 85,90 87,50
91,310 92,70 93,390 94,30
95,120 105,40 117,20 119,80
121,2122 122,250 123,190 128,30
135,130 137,40 143,40 147,140
148,50 149,170 150,40 155,531
156,140 157,2633 158,340 159,911
160,100 161,40 169,80 170,60
171,120 172,30 173,30 175,50
177,90 179,60 183,140 184,50
185,90 211,70 212,30 213,3203
214,551 215,1181 216,180 217,40
239,30 269,9999 270,2022 271,3604
272,701 273,170 326,140 327,30
328,40
##END=
