##TITLE=1-Diphenylmethylsilyloxytridec-2-yne
##JCAMP-DX=4.24
##DATA TYPE=MASS SPECTRUM
##ORIGIN=Zaikin V.G., TIPS RAS, Moscow, Russia
##OWNER=NIST Mass Spectrometry Data Center
Collection (C) 2014 copyright by the U.S. Secretary of Commerce
on behalf of the United States of America. All rights reserved.
##$NIST MASS SPEC NO=299489
##MOLFORM=C26 H36 O Si
##MW=392
##$NIST SOURCE=MSDC
##XUNITS=M/Z
##YUNITS=RELATIVE INTENSITY
##XFACTOR=1
##YFACTOR=1
##FIRSTX=25
##LASTX=394
##FIRSTY=20
##MAXX=394
##MINX=25
##MAXY=9999
##MINY=10
##NPOINTS=222
##PEAK TABLE=(XY..XY)
25,20 26,170 27,330 28,10
29,490 37,30 38,40 39,330
40,70 41,931 42,200 43,1101
45,310 50,130 51,190 52,150
53,270 54,70 55,490 56,150
57,290 59,50 61,100 63,50
65,130 66,50 67,280 68,50
69,190 70,60 71,50 74,40
75,40 76,50 77,561 78,400
79,300 80,70 81,200 82,80
83,90 85,50 89,30 91,761
92,110 93,220 94,50 95,200
96,60 97,50 99,30 102,60
103,70 104,60 105,951 106,140
107,280 108,40 109,80 111,70
115,350 116,60 117,150 118,230
119,310 120,160 121,1532 122,210
123,661 124,80 125,50 127,70
128,350 129,711 130,521 131,370
132,60 133,90 134,30 135,260
136,50 137,7947 138,1031 139,380
140,30 141,210 142,180 143,811
144,340 145,380 146,80 147,210
148,80 149,200 150,100 151,180
152,180 153,110 154,90 155,290
156,120 157,260 158,150 159,200
160,90 161,190 162,60 163,90
165,260 166,50 167,130 168,30
169,180 170,90 171,511 172,130
173,440 174,160 175,240 176,150
177,50 178,50 179,40 180,140
181,661 182,160 183,3013 184,601
185,370 186,70 187,360 188,601
189,260 190,50 191,70 193,100
194,30 195,551 196,130 197,4454
198,891 199,2362 200,440 201,340
202,100 203,60 204,30 205,60
210,30 211,140 212,30 213,170
214,50 215,170 216,30 217,50
219,100 220,190 221,230 222,60
223,100 224,30 225,110 226,30
227,110 228,20 229,70 230,30
231,40 233,420 234,120 235,90
236,100 237,320 238,80 239,320
240,180 241,150 242,30 243,60
245,30 247,160 248,40 249,190
250,100 251,9999 252,2392 253,661
254,320 255,100 256,300 257,70
259,30 261,90 263,120 264,90
265,1972 266,561 267,180 268,30
275,50 277,50 279,80 280,70
285,140 286,30 293,90 299,60
307,90 314,110 315,70 347,1221
348,370 349,100 377,2553 378,821
379,210 380,30 391,160 392,1111
393,340 394,90
##END=
