##TITLE=l-Serine, N,O-bis(2-trifluoromethylbenzoyl)-, methyl ester
##JCAMP-DX=4.24
##DATA TYPE=MASS SPECTRUM
##ORIGIN=Zaikin V.G., TIPS RAS, Moscow, Russia
##OWNER=NIST Mass Spectrometry Data Center
Collection (C) 2014 copyright by the U.S. Secretary of Commerce
on behalf of the United States of America. All rights reserved.
##$NIST MASS SPEC NO=299689
##MOLFORM=C20 H15 F6 N O5
##MW=463
##$NIST SOURCE=MSDC
##XUNITS=M/Z
##YUNITS=RELATIVE INTENSITY
##XFACTOR=1
##YFACTOR=1
##FIRSTX=29
##LASTX=463
##FIRSTY=10
##MAXX=463
##MINX=29
##MAXY=9999
##MINY=10
##NPOINTS=71
##PEAK TABLE=(XY..XY)
29,10 41,20 42,10 43,10
44,50 50,30 51,20 55,10
57,40 59,10 69,20 71,20
74,20 75,80 76,30 77,20
85,10 94,10 95,150 96,30
99,10 105,10 107,10 119,20
125,120 126,150 127,40 130,10
143,20 144,40 145,1762 146,190
147,10 151,50 152,20 154,50
159,30 170,10 171,20 172,40
173,9999 174,771 175,40 186,40
190,120 191,10 194,30 204,30
210,10 214,2092 215,250 216,10
241,80 242,30 253,10 258,30
260,10 272,10 273,380 274,170
275,60 290,601 291,80 362,290
363,50 404,290 405,60 432,30
433,10 444,20 463,20
##END=
