##TITLE=p-Anisic acid, 3-methylbut-2-enyl ester
##JCAMP-DX=4.24
##DATA TYPE=MASS SPECTRUM
##ORIGIN=Zaikin V.G., TIPS RAS, Moscow, Russia
##OWNER=NIST Mass Spectrometry Data Center
Collection (C) 2014 copyright by the U.S. Secretary of Commerce
on behalf of the United States of America. All rights reserved.
##$NIST MASS SPEC NO=299192
##MOLFORM=C13 H16 O3
##MW=220
##$NIST SOURCE=MSDC
##XUNITS=M/Z
##YUNITS=RELATIVE INTENSITY
##XFACTOR=1
##YFACTOR=1
##FIRSTX=26
##LASTX=221
##FIRSTY=30
##MAXX=221
##MINX=26
##MAXY=9999
##MINY=20
##NPOINTS=54
##PEAK TABLE=(XY..XY)
26,30 27,110 28,20 29,50
38,70 39,250 40,60 41,981
42,60 43,30 44,70 50,110
51,100 52,30 53,250 55,30
62,40 63,230 64,340 65,140
66,30 67,380 68,250 69,1331
70,80 74,40 75,60 76,100
77,841 78,130 79,70 81,50
85,120 92,711 93,70 94,20
104,30 105,50 107,420 108,150
109,90 121,80 135,9999 136,861
137,90 151,30 152,8087 153,861
154,90 161,80 175,90 191,200
220,1001 221,150
##END=
