##TITLE=2,7-Dimethyl-4-dimethyloctylsilyloxyoct-7-en-5-yne
##JCAMP-DX=4.24
##DATA TYPE=MASS SPECTRUM
##ORIGIN=Zaikin V.G., TIPS RAS, Moscow, Russia
##OWNER=NIST Mass Spectrometry Data Center
Collection (C) 2014 copyright by the U.S. Secretary of Commerce
on behalf of the United States of America. All rights reserved.
##$NIST MASS SPEC NO=299505
##MOLFORM=C20 H38 O Si
##MW=322
##$NIST SOURCE=MSDC
##XUNITS=M/Z
##YUNITS=RELATIVE INTENSITY
##XFACTOR=1
##YFACTOR=1
##FIRSTX=26
##LASTX=323
##FIRSTY=60
##MAXX=323
##MINX=26
##MAXY=9999
##MINY=30
##NPOINTS=145
##PEAK TABLE=(XY..XY)
26,60 27,140 28,50 29,140
39,190 40,60 41,480 42,140
43,521 44,60 45,90 47,100
50,30 51,60 52,30 53,80
55,210 56,120 57,110 58,60
59,2152 60,170 61,591 62,40
63,40 65,80 66,30 67,70
69,200 70,80 71,60 72,40
73,370 74,70 75,3263 76,280
77,420 78,110 79,190 80,30
81,40 83,110 85,220 86,30
87,300 88,30 89,80 91,420
92,160 93,210 94,50 95,90
96,30 97,170 98,30 99,320
100,30 101,320 102,30 103,80
105,160 106,30 107,130 108,50
109,681 110,90 111,210 112,40
113,160 115,120 117,50 119,250
120,40 121,70 122,60 123,5935
124,781 125,390 126,50 127,130
129,150 133,150 134,110 135,561
136,90 137,290 138,80 139,340
140,50 141,90 143,731 144,90
145,70 147,80 149,90 151,330
152,100 153,9999 154,1411 155,490
156,40 163,40 165,240 166,60
167,791 168,250 169,100 171,330
172,40 173,60 177,40 179,280
180,50 181,90 182,30 189,90
191,110 193,140 194,30 195,851
196,160 197,60 209,3423 210,2513
211,541 212,110 221,30 223,60
224,30 237,50 241,50 265,2893
266,711 267,190 279,250 280,80
281,290 282,60 301,40 307,1542
308,380 309,100 321,60 322,410
323,110
##END=
