##TITLE=4-Bromobenzoic acid, but-3-yn-2-yl ester
##JCAMP-DX=4.24
##DATA TYPE=MASS SPECTRUM
##ORIGIN=Zaikin V.G., TIPS RAS, Moscow, Russia
##OWNER=NIST Mass Spectrometry Data Center
Collection (C) 2014 copyright by the U.S. Secretary of Commerce
on behalf of the United States of America. All rights reserved.
##$NIST MASS SPEC NO=299243
##MOLFORM=C11 H9 Br O2
##MW=252
##$NIST SOURCE=MSDC
##XUNITS=M/Z
##YUNITS=RELATIVE INTENSITY
##XFACTOR=1
##YFACTOR=1
##FIRSTX=26
##LASTX=255
##FIRSTY=100
##MAXX=255
##MINX=26
##MAXY=9999
##MINY=10
##NPOINTS=75
##PEAK TABLE=(XY..XY)
26,100 27,310 28,10 29,30
37,80 38,260 39,150 40,40
41,60 43,70 44,290 45,60
49,90 50,1301 51,571 52,490
53,1221 54,60 57,20 62,30
63,70 64,30 65,230 69,110
73,140 74,681 75,1542 76,1572
77,440 78,100 79,200 80,300
81,120 82,290 86,60 87,50
93,30 102,240 103,60 104,250
105,130 106,30 115,30 122,30
123,40 127,130 128,290 129,480
130,571 131,120 145,90 147,330
154,40 155,2002 156,220 157,1972
158,180 172,70 173,180 174,50
183,9999 184,821 185,9649 186,751
187,30 193,40 195,20 200,1862
201,280 202,1892 203,270 252,991
253,110 254,951 255,110
##END=
