##TITLE=l-Leucine, N-(3-cyclopentylpropionyl)-, methyl ester
##JCAMP-DX=4.24
##DATA TYPE=MASS SPECTRUM
##ORIGIN=Zaikin V.G., TIPS RAS, Moscow, Russia
##OWNER=NIST Mass Spectrometry Data Center
Collection (C) 2014 copyright by the U.S. Secretary of Commerce
on behalf of the United States of America. All rights reserved.
##$NIST MASS SPEC NO=299653
##MOLFORM=C15 H27 N O3
##MW=269
##$NIST SOURCE=MSDC
##XUNITS=M/Z
##YUNITS=RELATIVE INTENSITY
##XFACTOR=1
##YFACTOR=1
##FIRSTX=26
##LASTX=269
##FIRSTY=40
##MAXX=269
##MINX=26
##MAXY=9999
##MINY=30
##NPOINTS=90
##PEAK TABLE=(XY..XY)
26,40 27,160 28,60 29,150
30,430 33,30 39,200 40,50
41,761 42,160 43,430 44,521
53,120 54,100 55,1131 56,130
57,120 59,170 60,50 65,30
66,30 67,330 68,120 69,410
70,270 71,30 72,110 73,40
74,30 77,30 79,270 80,100
81,360 82,80 83,90 84,180
85,90 86,9999 87,531 88,360
89,260 90,30 95,130 96,90
97,210 98,50 99,240 100,90
101,30 102,280 103,30 107,390
108,40 112,90 113,80 124,60
125,390 126,50 127,80 128,390
129,100 130,170 131,1461 132,100
140,140 141,40 142,230 144,370
145,100 146,170 155,60 166,40
168,90 172,80 181,260 182,40
184,60 187,801 188,90 194,120
200,280 201,30 210,1451 211,220
213,631 214,80 226,60 238,60
254,80 269,30
##END=
