##TITLE=1,3-Difluoro-5-tributylsilyloxybenzene
##JCAMP-DX=4.24
##DATA TYPE=MASS SPECTRUM
##ORIGIN=Zaikin V.G., TIPS RAS, Moscow, Russia
##OWNER=NIST Mass Spectrometry Data Center
Collection (C) 2014 copyright by the U.S. Secretary of Commerce
on behalf of the United States of America. All rights reserved.
##$NIST MASS SPEC NO=299112
##MOLFORM=C18 H30 F2 O Si
##MW=328
##$NIST SOURCE=MSDC
##XUNITS=M/Z
##YUNITS=RELATIVE INTENSITY
##XFACTOR=1
##YFACTOR=1
##FIRSTX=26
##LASTX=330
##FIRSTY=140
##MAXX=330
##MINX=26
##MAXY=9999
##MINY=20
##NPOINTS=89
##PEAK TABLE=(XY..XY)
26,140 27,260 28,20 29,240
39,320 40,40 41,470 42,70
43,210 44,70 45,200 47,60
50,30 51,30 53,40 55,440
56,160 57,210 58,50 59,290
61,30 63,160 65,150 71,50
73,30 75,60 77,70 79,30
81,180 82,30 83,200 85,1041
86,120 87,110 91,150 93,130
94,100 95,70 96,30 99,40
101,100 105,100 107,60 113,390
114,160 115,951 116,60 121,40
127,100 130,60 139,50 141,30
143,60 157,3203 158,420 159,3343
160,460 161,140 171,290 172,160
173,3704 174,531 175,160 183,110
184,40 185,671 186,350 187,1041
188,160 189,40 199,100 200,80
211,120 213,981 214,240 215,9999
216,1712 217,480 218,40 241,60
242,30 243,30 271,9629 272,2092
273,571 274,60 328,1371 329,350
330,80
##END=
