##TITLE=3-Phenylpropionic acid, oct-3-en-2-yl ester
##JCAMP-DX=4.24
##DATA TYPE=MASS SPECTRUM
##ORIGIN=Zaikin V.G., TIPS RAS, Moscow, Russia
##OWNER=NIST Mass Spectrometry Data Center
Collection (C) 2014 copyright by the U.S. Secretary of Commerce
on behalf of the United States of America. All rights reserved.
##$NIST MASS SPEC NO=299175
##MOLFORM=C17 H24 O2
##MW=260
##$NIST SOURCE=MSDC
##XUNITS=M/Z
##YUNITS=RELATIVE INTENSITY
##XFACTOR=1
##YFACTOR=1
##FIRSTX=25
##LASTX=260
##FIRSTY=20
##MAXX=260
##MINX=25
##MAXY=9999
##MINY=10
##NPOINTS=133
##PEAK TABLE=(XY..XY)
25,20 26,140 27,501 28,10
29,370 37,20 38,80 39,771
40,220 41,1772 42,200 43,1031
44,370 45,50 49,20 50,200
51,561 52,190 53,641 54,641
55,6025 56,400 57,360 58,90
59,30 61,10 62,40 63,180
64,40 65,721 66,160 67,1371
68,2953 69,9999 70,611 71,460
72,70 73,20 74,70 75,70
76,90 77,1361 78,801 79,1171
80,130 81,2172 82,280 83,200
84,30 85,130 86,190 87,10
89,140 90,80 91,7366 92,731
93,80 94,20 95,581 96,50
97,40 98,10 99,30 101,40
102,140 103,931 104,2212 105,7136
106,641 107,1041 108,80 109,90
110,3473 111,5805 112,511 113,80
115,20 116,10 117,30 118,10
119,30 120,10 121,10 123,100
126,10 127,721 128,961 129,100
130,20 131,260 132,220 133,2773
134,320 135,30 140,20 141,40
142,10 143,70 144,20 145,50
146,10 147,30 148,50 149,280
150,891 151,110 152,10 155,30
157,20 159,30 160,90 161,40
162,90 163,10 173,10 174,10
175,30 176,10 184,10 185,10
187,10 189,10 190,10 191,10
192,10 200,80 201,10 202,40
203,20 210,20 217,40 218,10
260,80
##END=
