##TITLE=l-Alanine, N-(4-bromobenzoyl)-, methyl ester
##JCAMP-DX=4.24
##DATA TYPE=MASS SPECTRUM
##ORIGIN=Zaikin V.G., TIPS RAS, Moscow, Russia
##OWNER=NIST Mass Spectrometry Data Center
Collection (C) 2014 copyright by the U.S. Secretary of Commerce
on behalf of the United States of America. All rights reserved.
##$NIST MASS SPEC NO=299612
##MOLFORM=C11 H12 Br N O3
##MW=285
##$NIST SOURCE=MSDC
##XUNITS=M/Z
##YUNITS=RELATIVE INTENSITY
##XFACTOR=1
##YFACTOR=1
##FIRSTX=26
##LASTX=288
##FIRSTY=30
##MAXX=288
##MINX=26
##MAXY=9999
##MINY=10
##NPOINTS=81
##PEAK TABLE=(XY..XY)
26,30 27,60 28,10 29,40
30,30 36,50 38,30 39,40
40,40 41,70 42,230 43,80
44,330 50,501 51,150 52,40
55,50 59,100 63,30 70,70
73,30 74,250 75,1011 76,1301
77,230 78,30 79,40 80,100
81,40 82,100 86,90 88,30
89,30 90,30 91,60 102,230
103,150 104,611 105,130 107,40
108,30 117,30 118,50 119,170
129,30 131,30 147,40 148,30
154,40 155,2012 156,200 157,1912
158,150 169,80 171,70 181,40
182,50 183,9999 184,861 185,9579
186,771 187,40 196,50 198,50
199,30 200,30 224,270 225,40
226,5565 227,621 228,5214 229,551
230,30 253,40 254,50 255,40
256,40 285,420 286,60 287,400
288,50
##END=
