##TITLE=2-Trifluoromethylbenzoic acid, 3-methylbut-2-enyl ester
##JCAMP-DX=4.24
##DATA TYPE=MASS SPECTRUM
##ORIGIN=Zaikin V.G., TIPS RAS, Moscow, Russia
##OWNER=NIST Mass Spectrometry Data Center
Collection (C) 2014 copyright by the U.S. Secretary of Commerce
on behalf of the United States of America. All rights reserved.
##$NIST MASS SPEC NO=299401
##MOLFORM=C13 H13 F3 O2
##MW=258
##$NIST SOURCE=MSDC
##XUNITS=M/Z
##YUNITS=RELATIVE INTENSITY
##XFACTOR=1
##YFACTOR=1
##FIRSTX=26
##LASTX=258
##FIRSTY=70
##MAXX=258
##MINX=26
##MAXY=9999
##MINY=10
##NPOINTS=57
##PEAK TABLE=(XY..XY)
26,70 27,290 28,10 29,210
38,50 39,621 40,200 41,1652
42,140 43,30 44,70 49,70
50,200 51,130 52,40 53,611
54,80 55,80 57,120 63,30
65,40 66,40 67,1552 68,4254
69,2803 70,150 74,90 75,651
76,130 77,140 83,40 85,230
94,40 95,460 96,80 99,60
104,30 107,30 119,50 123,30
125,320 126,370 127,90 143,40
144,70 145,2723 146,290 151,190
154,591 155,50 171,30 173,9999
174,771 175,40 190,110 199,70
258,80
##END=
