##TITLE=5-Bromovaleric acid, 2-tetradecyl ester
##JCAMP-DX=4.24
##DATA TYPE=MASS SPECTRUM
##ORIGIN=Zaikin V.G., TIPS RAS, Moscow, Russia
##OWNER=NIST Mass Spectrometry Data Center
Collection (C) 2014 copyright by the U.S. Secretary of Commerce
on behalf of the United States of America. All rights reserved.
##$NIST MASS SPEC NO=299928
##MOLFORM=C19 H37 Br O2
##MW=376
##$NIST SOURCE=MSDC
##XUNITS=M/Z
##YUNITS=RELATIVE INTENSITY
##XFACTOR=1
##YFACTOR=1
##FIRSTX=25
##LASTX=334
##FIRSTY=30
##MAXX=334
##MINX=25
##MAXY=9999
##MINY=20
##NPOINTS=114
##PEAK TABLE=(XY..XY)
25,30 26,250 27,751 28,20
29,1331 36,60 38,40 39,601
40,140 41,2903 42,981 43,3904
44,330 45,220 50,30 51,40
52,30 53,260 54,561 55,6966
56,2813 57,4615 58,320 59,220
60,30 65,30 66,60 67,661
68,681 69,3203 70,2683 71,2863
72,140 73,400 74,30 77,30
79,180 80,270 81,571 82,1461
83,3974 84,1952 85,1932 86,110
87,30 91,50 95,310 96,931
97,3784 98,1381 99,771 100,240
101,3754 102,220 103,40 107,100
109,240 110,541 111,2282 112,1061
113,320 119,70 123,60 124,300
125,1211 126,721 127,240 135,2102
136,110 137,2062 138,280 139,470
140,470 141,160 152,190 153,370
154,631 155,130 162,70 163,9999
164,601 165,9659 166,581 167,230
168,701 169,90 171,30 178,280
179,100 180,781 181,3013 182,651
183,2853 184,150 191,30 193,30
194,50 196,4154 197,1311 198,130
207,601 208,50 209,551 210,30
213,270 214,30 241,40 250,30
252,30 253,811 254,140 279,40
332,30 334,30
##END=
