##TITLE=4-Nitrobenzoic acid, undec-2-enyl ester
##JCAMP-DX=4.24
##DATA TYPE=MASS SPECTRUM
##ORIGIN=Zaikin V.G., TIPS RAS, Moscow, Russia
##OWNER=NIST Mass Spectrometry Data Center
Collection (C) 2014 copyright by the U.S. Secretary of Commerce
on behalf of the United States of America. All rights reserved.
##$NIST MASS SPEC NO=299272
##MOLFORM=C18 H25 N O4
##MW=319
##$NIST SOURCE=MSDC
##XUNITS=M/Z
##YUNITS=RELATIVE INTENSITY
##XFACTOR=1
##YFACTOR=1
##FIRSTX=26
##LASTX=302
##FIRSTY=40
##MAXX=302
##MINX=26
##MAXY=9999
##MINY=30
##NPOINTS=91
##PEAK TABLE=(XY..XY)
26,40 27,140 28,100 29,260
30,30 36,30 39,250 40,40
41,931 42,160 43,711 44,90
50,140 51,60 52,30 53,210
54,1161 55,1251 56,340 57,490
63,30 64,50 65,210 66,100
67,961 68,811 69,711 70,260
71,90 74,50 75,160 76,511
77,140 78,30 79,170 80,100
81,931 82,1071 83,420 84,80
85,30 91,50 92,400 93,90
94,40 95,761 96,921 97,320
98,80 103,50 104,1111 105,160
109,360 110,511 111,80 120,1281
121,250 122,60 123,180 124,741
125,70 134,400 135,70 136,40
137,470 138,70 150,9999 151,1572
152,521 153,70 165,60 167,70
168,80 169,140 178,80 179,40
191,40 206,30 220,130 221,220
222,80 234,30 235,60 248,60
249,30 262,60 273,40 276,40
289,50 290,40 302,30
##END=
