##TITLE=1-Dimethyloctylsilyloxytridec-2-yne
##JCAMP-DX=4.24
##DATA TYPE=MASS SPECTRUM
##ORIGIN=Zaikin V.G., TIPS RAS, Moscow, Russia
##OWNER=NIST Mass Spectrometry Data Center
Collection (C) 2014 copyright by the U.S. Secretary of Commerce
on behalf of the United States of America. All rights reserved.
##$NIST MASS SPEC NO=299508
##MOLFORM=C23 H46 O Si
##MW=366
##$NIST SOURCE=MSDC
##XUNITS=M/Z
##YUNITS=RELATIVE INTENSITY
##XFACTOR=1
##YFACTOR=1
##FIRSTX=26
##LASTX=283
##FIRSTY=110
##MAXX=283
##MINX=26
##MAXY=9999
##MINY=20
##NPOINTS=127
##PEAK TABLE=(XY..XY)
26,110 27,250 28,130 29,320
39,250 40,60 41,711 42,220
43,811 44,30 45,170 47,70
51,40 52,60 53,140 54,90
55,521 56,200 57,440 58,40
59,2262 60,160 61,631 62,30
65,60 66,50 67,420 68,80
69,310 70,110 71,220 72,30
73,360 74,60 75,9999 76,721
77,470 78,60 79,460 80,110
81,390 82,80 83,250 84,60
85,330 86,30 87,210 88,30
89,1161 90,100 91,210 92,40
93,501 94,110 95,420 96,160
97,370 98,70 99,420 100,40
101,701 102,60 103,90 105,70
107,340 108,50 109,350 110,50
111,330 112,90 113,551 114,100
115,300 116,30 117,30 119,60
121,270 122,30 123,160 125,300
126,110 127,821 128,120 129,190
133,30 135,140 137,130 139,350
140,50 141,370 142,50 143,90
149,80 151,120 152,30 153,160
154,30 155,340 156,50 157,70
163,150 165,40 167,120 169,100
171,330 172,40 173,260 174,30
177,581 178,120 179,50 181,90
185,1161 186,180 187,60 195,40
223,521 224,90 225,50 235,90
239,581 240,110 241,20 253,751
254,170 255,40 283,30
##END=
