##TITLE=1-(Dimethyldodecylsilyloxy)decane
##JCAMP-DX=4.24
##DATA TYPE=MASS SPECTRUM
##ORIGIN=Zaikin V.G., TIPS RAS, Moscow, Russia
##OWNER=NIST Mass Spectrometry Data Center
Collection (C) 2014 copyright by the U.S. Secretary of Commerce
on behalf of the United States of America. All rights reserved.
##$NIST MASS SPEC NO=299993
##MOLFORM=C24 H52 O Si
##MW=384
##$NIST SOURCE=MSDC
##XUNITS=M/Z
##YUNITS=RELATIVE INTENSITY
##XFACTOR=1
##YFACTOR=1
##FIRSTX=26
##LASTX=371
##FIRSTY=70
##MAXX=371
##MINX=26
##MAXY=9999
##MINY=30
##NPOINTS=63
##PEAK TABLE=(XY..XY)
26,70 27,150 28,80 29,200
39,120 40,30 41,470 42,170
43,651 45,40 47,30 53,30
54,50 55,571 56,220 57,561
58,40 59,611 60,50 61,420
67,90 68,50 69,671 70,160
71,190 73,70 75,2302 76,170
77,110 81,70 82,40 83,1141
84,120 85,120 87,140 88,40
89,881 90,70 91,30 95,40
97,521 98,50 99,160 101,300
102,30 103,30 111,40 113,80
115,240 127,40 129,120 143,100
157,90 199,70 201,180 215,9999
216,1802 217,501 218,50 227,40
369,1251 370,390 371,100
##END=
