##TITLE=3-Methyl-1-tributylsilyloxybut-2-ene
##JCAMP-DX=4.24
##DATA TYPE=MASS SPECTRUM
##ORIGIN=Zaikin V.G., TIPS RAS, Moscow, Russia
##OWNER=NIST Mass Spectrometry Data Center
Collection (C) 2014 copyright by the U.S. Secretary of Commerce
on behalf of the United States of America. All rights reserved.
##$NIST MASS SPEC NO=299540
##MOLFORM=C17 H36 O Si
##MW=284
##$NIST SOURCE=MSDC
##XUNITS=M/Z
##YUNITS=RELATIVE INTENSITY
##XFACTOR=1
##YFACTOR=1
##FIRSTX=26
##LASTX=286
##FIRSTY=60
##MAXX=286
##MINX=26
##MAXY=9999
##MINY=10
##NPOINTS=106
##PEAK TABLE=(XY..XY)
26,60 27,120 28,40 29,110
39,140 40,50 41,501 42,60
43,100 44,20 45,310 46,10
47,521 48,20 49,20 50,10
51,20 52,10 53,100 54,20
55,210 56,70 57,110 58,30
59,420 60,100 61,1712 62,110
63,70 64,190 65,20 67,120
68,80 69,320 70,30 71,160
72,30 73,340 74,180 75,591
76,40 77,30 78,100 79,10
81,10 83,60 84,10 85,320
86,40 87,170 88,70 89,20
92,10 95,20 96,10 97,30
99,220 100,30 101,370 102,50
103,6796 104,631 105,250 106,30
111,40 112,10 113,260 114,40
115,150 116,20 117,40 127,40
128,10 129,110 130,20 131,10
141,30 142,10 143,140 144,20
155,50 156,10 157,60 158,10
159,9999 160,1321 161,410 162,30
169,60 170,20 171,450 172,60
173,60 185,10 199,20 211,10
213,30 227,4424 228,891 229,300
230,30 269,130 270,30 284,310
285,70 286,10
##END=
