##TITLE=Glycine, N-(2-chlorobenzoyl)-, methyl ester
##JCAMP-DX=4.24
##DATA TYPE=MASS SPECTRUM
##ORIGIN=Zaikin V.G., TIPS RAS, Moscow, Russia
##OWNER=NIST Mass Spectrometry Data Center
Collection (C) 2014 copyright by the U.S. Secretary of Commerce
on behalf of the United States of America. All rights reserved.
##$NIST MASS SPEC NO=299587
##MOLFORM=C10 H10 Cl N O3
##MW=227
##$NIST SOURCE=MSDC
##XUNITS=M/Z
##YUNITS=RELATIVE INTENSITY
##XFACTOR=1
##YFACTOR=1
##FIRSTX=27
##LASTX=230
##FIRSTY=30
##MAXX=230
##MINX=27
##MAXY=9999
##MINY=10
##NPOINTS=44
##PEAK TABLE=(XY..XY)
27,30 28,10 29,70 32,20
36,60 44,70 50,230 51,170
56,70 59,50 74,130 75,831
76,270 77,140 84,30 85,90
87,30 104,90 105,80 110,50
111,1562 112,160 113,511 114,40
132,30 138,40 139,9999 140,701
141,2933 142,230 168,2352 169,220
170,761 171,70 180,50 182,30
195,460 196,150 197,160 198,40
227,801 228,100 229,270 230,30
##END=
