##TITLE=Dichloromethyldimethylsilyloxybenzene
##JCAMP-DX=4.24
##DATA TYPE=MASS SPECTRUM
##ORIGIN=Zaikin V.G., TIPS RAS, Moscow, Russia
##OWNER=NIST Mass Spectrometry Data Center
Collection (C) 2014 copyright by the U.S. Secretary of Commerce
on behalf of the United States of America. All rights reserved.
##$NIST MASS SPEC NO=299107
##MOLFORM=C9 H12 Cl2 O Si
##MW=234
##$NIST SOURCE=MSDC
##XUNITS=M/Z
##YUNITS=RELATIVE INTENSITY
##XFACTOR=1
##YFACTOR=1
##FIRSTX=27
##LASTX=238
##FIRSTY=30
##MAXX=238
##MINX=27
##MAXY=9999
##MINY=30
##NPOINTS=55
##PEAK TABLE=(XY..XY)
27,30 28,30 36,80 39,80
43,80 45,70 47,40 50,50
51,240 59,40 63,210 65,170
75,250 76,120 77,601 78,90
79,60 81,30 89,60 90,30
91,300 92,30 93,150 94,30
95,280 96,30 97,30 105,90
113,190 115,150 117,30 121,170
123,80 125,60 133,40 135,350
136,40 147,100 148,30 149,80
151,9999 152,1261 153,410 154,30
155,50 171,130 173,40 183,90
185,30 186,30 234,561 235,80
236,390 237,50 238,70
##END=
