##TITLE=4-Diphenylethenylsilyloxy-2-methyloct-5-yne
##JCAMP-DX=4.24
##DATA TYPE=MASS SPECTRUM
##ORIGIN=Zaikin V.G., TIPS RAS, Moscow, Russia
##OWNER=NIST Mass Spectrometry Data Center
Collection (C) 2014 copyright by the U.S. Secretary of Commerce
on behalf of the United States of America. All rights reserved.
##$NIST MASS SPEC NO=299562
##MOLFORM=C23 H28 O Si
##MW=348
##$NIST SOURCE=MSDC
##XUNITS=M/Z
##YUNITS=RELATIVE INTENSITY
##XFACTOR=1
##YFACTOR=1
##FIRSTX=25
##LASTX=349
##FIRSTY=30
##MAXX=349
##MINX=25
##MAXY=9999
##MINY=20
##NPOINTS=222
##PEAK TABLE=(XY..XY)
25,30 26,190 27,180 28,50
29,130 37,30 38,40 39,300
40,60 41,440 42,80 43,210
44,80 45,430 50,160 51,310
52,120 53,340 54,30 55,200
56,50 57,70 63,60 65,120
66,50 67,70 69,40 71,30
73,40 74,60 75,40 76,100
77,1361 78,671 79,340 80,50
81,150 82,30 89,30 91,340
92,60 93,120 94,60 95,30
97,40 99,90 102,100 103,220
104,340 105,2022 106,310 107,410
108,40 109,30 112,100 113,30
115,190 116,40 117,70 118,30
119,30 120,30 121,861 122,220
123,1121 124,160 125,90 126,30
127,90 128,260 129,380 130,230
131,651 132,140 133,140 134,30
135,30 137,160 138,70 139,40
141,310 142,110 143,300 144,80
145,90 146,220 147,400 148,120
149,2372 150,390 151,260 152,490
153,220 154,220 155,410 156,100
157,280 158,130 159,480 160,110
161,170 162,30 163,30 165,110
166,40 167,290 168,70 169,140
170,40 171,180 172,40 173,240
174,60 175,450 176,70 177,40
178,110 179,110 180,380 181,1842
182,400 183,5474 184,1111 185,2312
186,490 187,250 188,240 189,120
190,30 191,40 193,40 195,70
196,50 197,1762 198,781 199,2773
200,581 201,380 202,90 203,70
204,30 205,90 207,581 208,511
209,9999 210,2052 211,621 212,90
213,511 214,130 215,120 216,30
217,240 218,60 219,150 220,90
221,90 223,531 224,1021 225,711
226,180 227,130 228,200 229,140
230,30 231,40 233,360 234,150
235,2973 236,701 237,260 238,40
241,60 243,20 244,30 245,70
247,200 248,50 249,210 250,60
251,40 253,30 255,90 257,50
259,70 261,110 262,110 263,1582
264,460 265,150 267,20 271,80
273,120 274,50 275,971 276,270
277,420 278,120 279,50 287,30
289,50 290,50 291,6125 292,5635
293,1562 294,360 295,50 301,30
302,1181 303,330 304,90 305,110
306,40 319,6435 320,1852 321,511
322,80 333,180 334,50 347,30
348,130 349,40
##END=
