##TITLE=3-Chloro-1-cyclohexyldimethylsilyloxyprop-2-ene
##JCAMP-DX=4.24
##DATA TYPE=MASS SPECTRUM
##ORIGIN=Zaikin V.G., TIPS RAS, Moscow, Russia
##OWNER=NIST Mass Spectrometry Data Center
Collection (C) 2014 copyright by the U.S. Secretary of Commerce
on behalf of the United States of America. All rights reserved.
##$NIST MASS SPEC NO=299576
##MOLFORM=C11 H21 Cl O Si
##MW=232
##$NIST SOURCE=MSDC
##XUNITS=M/Z
##YUNITS=RELATIVE INTENSITY
##XFACTOR=1
##YFACTOR=1
##FIRSTX=26
##LASTX=234
##FIRSTY=60
##MAXX=234
##MINX=26
##MAXY=9999
##MINY=10
##NPOINTS=97
##PEAK TABLE=(XY..XY)
26,60 27,90 28,10 29,40
35,60 36,380 38,120 39,350
40,70 41,360 42,30 43,160
44,240 45,180 47,120 49,60
50,40 51,60 52,70 53,120
54,240 55,340 56,30 57,50
58,130 59,971 60,90 61,260
63,100 65,210 67,561 68,30
69,40 71,100 73,80 74,40
75,1291 76,80 77,290 78,80
79,931 80,140 81,841 82,370
83,160 85,2012 86,190 87,90
88,30 89,120 91,30 92,70
93,9999 94,801 95,4144 96,300
97,350 98,70 99,981 100,90
101,50 103,30 105,270 107,150
109,90 111,60 113,120 114,70
115,501 116,50 117,40 119,541
120,60 121,220 123,120 125,50
133,180 135,511 136,50 137,150
141,120 149,9609 150,1341 151,3684
152,490 153,170 193,30 196,30
197,1211 198,210 199,50 217,340
218,40 219,120 232,280 233,40
234,110
##END=
