##TITLE=2,6-Difluorobenzoic acid, 3-pentadecyl ester
##JCAMP-DX=4.24
##DATA TYPE=MASS SPECTRUM
##ORIGIN=Zaikin V.G., TIPS RAS, Moscow, Russia
##OWNER=NIST Mass Spectrometry Data Center
Collection (C) 2014 copyright by the U.S. Secretary of Commerce
on behalf of the United States of America. All rights reserved.
##$NIST MASS SPEC NO=299776
##MOLFORM=C22 H34 F2 O2
##MW=368
##$NIST SOURCE=MSDC
##XUNITS=M/Z
##YUNITS=RELATIVE INTENSITY
##XFACTOR=1
##YFACTOR=1
##FIRSTX=26
##LASTX=227
##FIRSTY=70
##MAXX=227
##MINX=26
##MAXY=9999
##MINY=30
##NPOINTS=73
##PEAK TABLE=(XY..XY)
26,70 27,210 28,170 29,440
39,170 40,40 41,1091 42,290
43,1291 44,110 50,30 53,70
54,200 55,1391 56,761 57,1221
58,60 63,250 66,30 67,310
68,270 69,1111 70,831 71,571
72,50 79,40 81,210 82,380
83,1011 84,551 85,340 91,30
93,40 94,60 95,140 96,290
97,1031 98,350 99,70 109,50
110,180 111,631 112,250 113,711
114,160 123,30 124,100 125,340
126,170 133,30 135,30 138,60
139,160 140,160 141,9999 142,711
143,40 152,60 153,80 154,100
156,130 158,170 159,2432 160,170
161,50 167,50 168,30 181,70
182,110 199,50 210,811 211,110
227,60
##END=
