##TITLE=l-Alanine, N-(2,3,4-trifluorobenzoyl)-, methyl ester
##JCAMP-DX=4.24
##DATA TYPE=MASS SPECTRUM
##ORIGIN=Zaikin V.G., TIPS RAS, Moscow, Russia
##OWNER=NIST Mass Spectrometry Data Center
Collection (C) 2014 copyright by the U.S. Secretary of Commerce
on behalf of the United States of America. All rights reserved.
##$NIST MASS SPEC NO=299627
##MOLFORM=C11 H10 F3 N O3
##MW=261
##$NIST SOURCE=MSDC
##XUNITS=M/Z
##YUNITS=RELATIVE INTENSITY
##XFACTOR=1
##YFACTOR=1
##FIRSTX=28
##LASTX=261
##FIRSTY=10
##MAXX=261
##MINX=28
##MAXY=9999
##MINY=10
##NPOINTS=27
##PEAK TABLE=(XY..XY)
28,10 42,140 43,40 44,50
59,40 62,40 80,20 81,501
82,30 102,30 112,70 130,70
131,1231 132,120 140,30 158,40
159,9999 160,691 161,40 182,40
188,150 201,20 202,4665 203,450
204,30 230,40 261,30
##END=
