##TITLE=l-Valine, N-(3-fluorobenzoyl)-, methyl ester
##JCAMP-DX=4.24
##DATA TYPE=MASS SPECTRUM
##ORIGIN=Zaikin V.G., TIPS RAS, Moscow, Russia
##OWNER=NIST Mass Spectrometry Data Center
Collection (C) 2014 copyright by the U.S. Secretary of Commerce
on behalf of the United States of America. All rights reserved.
##$NIST MASS SPEC NO=299676
##MOLFORM=C13 H16 F N O3
##MW=253
##$NIST SOURCE=MSDC
##XUNITS=M/Z
##YUNITS=RELATIVE INTENSITY
##XFACTOR=1
##YFACTOR=1
##FIRSTX=27
##LASTX=253
##FIRSTY=60
##MAXX=253
##MINX=27
##MAXY=9999
##MINY=20
##NPOINTS=48
##PEAK TABLE=(XY..XY)
27,60 28,130 39,50 41,90
42,30 43,90 44,80 50,50
51,30 55,40 56,60 57,20
59,40 69,60 70,60 74,30
75,340 76,40 82,40 83,90
88,80 94,110 95,2072 96,220
114,150 115,60 122,60 123,9999
124,721 125,40 140,1351 141,110
150,30 151,160 152,30 178,30
179,490 180,60 193,40 194,3974
195,470 196,30 206,60 210,40
211,280 212,30 222,30 253,40
##END=
