##TITLE=l-Alanine, N-(2-thienylcarbonyl)-, methyl ester
##JCAMP-DX=4.24
##DATA TYPE=MASS SPECTRUM
##ORIGIN=Zaikin V.G., TIPS RAS, Moscow, Russia
##OWNER=NIST Mass Spectrometry Data Center
Collection (C) 2014 copyright by the U.S. Secretary of Commerce
on behalf of the United States of America. All rights reserved.
##$NIST MASS SPEC NO=299594
##MOLFORM=C9 H11 N O3 S
##MW=213
##$NIST SOURCE=MSDC
##XUNITS=M/Z
##YUNITS=RELATIVE INTENSITY
##XFACTOR=1
##YFACTOR=1
##FIRSTX=27
##LASTX=215
##FIRSTY=30
##MAXX=215
##MINX=27
##MAXY=9999
##MINY=10
##NPOINTS=31
##PEAK TABLE=(XY..XY)
27,30 28,10 38,30 39,721
40,30 42,110 44,100 45,90
53,30 57,110 58,60 59,70
70,50 81,40 82,90 83,400
84,70 102,60 110,40 111,9999
112,581 113,400 154,4364 155,360
156,200 180,40 181,20 182,30
213,551 214,60 215,30
##END=
