##TITLE=5-Chlorovaleric acid, 4-tetradecyl ester
##JCAMP-DX=4.24
##DATA TYPE=MASS SPECTRUM
##ORIGIN=Zaikin V.G., TIPS RAS, Moscow, Russia
##OWNER=NIST Mass Spectrometry Data Center
Collection (C) 2014 copyright by the U.S. Secretary of Commerce
on behalf of the United States of America. All rights reserved.
##$NIST MASS SPEC NO=299918
##MOLFORM=C19 H37 Cl O2
##MW=332
##$NIST SOURCE=MSDC
##XUNITS=M/Z
##YUNITS=RELATIVE INTENSITY
##XFACTOR=1
##YFACTOR=1
##FIRSTX=26
##LASTX=289
##FIRSTY=100
##MAXX=289
##MINX=26
##MAXY=9999
##MINY=30
##NPOINTS=89
##PEAK TABLE=(XY..XY)
26,100 27,350 28,230 29,591
36,130 38,30 39,280 40,60
41,1321 42,370 43,1451 44,200
45,30 53,130 54,250 55,3163
56,901 57,1381 58,110 59,40
63,70 65,30 67,320 68,270
69,1111 70,801 71,831 72,60
73,120 77,30 79,50 81,240
82,380 83,1131 84,611 85,531
86,70 87,30 91,1812 92,90
93,581 94,30 95,160 96,280
97,991 98,430 99,160 100,320
101,150 109,70 110,180 111,641
112,290 113,90 118,40 119,9999
120,621 121,3223 122,190 123,30
124,130 125,380 126,270 127,100
134,210 135,90 136,230 137,651
138,100 139,440 140,120 141,80
152,50 153,160 154,90 155,30
163,50 167,40 168,190 169,260
170,30 191,300 192,30 193,100
196,1091 197,220 213,80 260,30
289,70
##END=
