##TITLE=m-Toluic acid, 4-tridecyl ester
##JCAMP-DX=4.24
##DATA TYPE=MASS SPECTRUM
##ORIGIN=Zaikin V.G., TIPS RAS, Moscow, Russia
##OWNER=NIST Mass Spectrometry Data Center
Collection (C) 2014 copyright by the U.S. Secretary of Commerce
on behalf of the United States of America. All rights reserved.
##$NIST MASS SPEC NO=299780
##MOLFORM=C21 H34 O2
##MW=318
##$NIST SOURCE=MSDC
##XUNITS=M/Z
##YUNITS=RELATIVE INTENSITY
##XFACTOR=1
##YFACTOR=1
##FIRSTX=26
##LASTX=199
##FIRSTY=50
##MAXX=199
##MINX=26
##MAXY=9999
##MINY=30
##NPOINTS=70
##PEAK TABLE=(XY..XY)
26,50 27,150 28,110 29,270
36,30 39,200 40,30 41,781
42,200 43,791 44,90 50,30
51,50 53,50 54,120 55,891
56,521 57,671 58,40 63,70
65,450 66,40 67,180 68,140
69,741 70,601 71,330 77,80
79,40 81,130 82,230 83,701
84,450 85,190 89,140 90,160
91,2362 92,270 93,260 95,60
96,170 97,641 98,320 99,60
105,40 110,130 111,440 112,230
113,30 118,70 119,9999 120,911
121,60 124,60 125,270 126,130
134,80 135,90 136,591 137,3824
138,370 139,140 140,90 153,40
154,160 155,30 182,1411 183,200
191,40 199,190
##END=
