##TITLE=4-Fluorobenzoic acid, 3-chloroprop-2-enyl ester
##JCAMP-DX=4.24
##DATA TYPE=MASS SPECTRUM
##ORIGIN=Zaikin V.G., TIPS RAS, Moscow, Russia
##OWNER=NIST Mass Spectrometry Data Center
Collection (C) 2014 copyright by the U.S. Secretary of Commerce
on behalf of the United States of America. All rights reserved.
##$NIST MASS SPEC NO=299160
##MOLFORM=C10 H8 Cl F O2
##MW=214
##$NIST SOURCE=MSDC
##XUNITS=M/Z
##YUNITS=RELATIVE INTENSITY
##XFACTOR=1
##YFACTOR=1
##FIRSTX=26
##LASTX=180
##FIRSTY=50
##MAXX=180
##MINX=26
##MAXY=9999
##MINY=20
##NPOINTS=46
##PEAK TABLE=(XY..XY)
26,50 27,80 28,20 29,50
36,120 38,90 39,511 40,100
41,70 44,160 49,170 50,170
51,110 53,40 57,30 61,30
62,30 63,30 67,160 68,400
69,430 70,30 73,40 74,140
75,1682 76,110 77,310 85,60
91,130 93,60 94,170 95,2422
96,240 97,40 123,9999 124,811
125,50 133,140 134,50 135,170
140,80 141,40 151,50 169,50
179,1842 180,180
##END=
