##TITLE=2-Trifluoromethylbenzoic acid, phenyl ester
##JCAMP-DX=4.24
##DATA TYPE=MASS SPECTRUM
##ORIGIN=Zaikin V.G., TIPS RAS, Moscow, Russia
##OWNER=NIST Mass Spectrometry Data Center
Collection (C) 2014 copyright by the U.S. Secretary of Commerce
on behalf of the United States of America. All rights reserved.
##$NIST MASS SPEC NO=299009
##MOLFORM=C14 H9 F3 O2
##MW=266
##$NIST SOURCE=MSDC
##XUNITS=M/Z
##YUNITS=RELATIVE INTENSITY
##XFACTOR=1
##YFACTOR=1
##FIRSTX=28
##LASTX=267
##FIRSTY=10
##MAXX=267
##MINX=28
##MAXY=9999
##MINY=10
##NPOINTS=36
##PEAK TABLE=(XY..XY)
28,10 38,40 39,260 50,130
51,130 57,30 62,30 63,80
64,30 65,290 66,60 69,50
74,60 75,220 76,70 77,120
93,50 94,190 95,340 96,40
99,40 119,50 125,250 126,140
127,30 143,30 144,70 145,3313
146,270 151,110 173,9999 174,811
175,50 247,40 266,310 267,50
##END=
