##TITLE=(Phenylthio)acetic acid, octyl ester
##JCAMP-DX=4.24
##DATA TYPE=MASS SPECTRUM
##ORIGIN=Zaikin V.G., TIPS RAS, Moscow, Russia
##OWNER=NIST Mass Spectrometry Data Center
Collection (C) 2014 copyright by the U.S. Secretary of Commerce
on behalf of the United States of America. All rights reserved.
##$NIST MASS SPEC NO=299846
##MOLFORM=C16 H24 O2 S
##MW=280
##$NIST SOURCE=MSDC
##XUNITS=M/Z
##YUNITS=RELATIVE INTENSITY
##XFACTOR=1
##YFACTOR=1
##FIRSTX=26
##LASTX=283
##FIRSTY=80
##MAXX=283
##MINX=26
##MAXY=9999
##MINY=30
##NPOINTS=68
##PEAK TABLE=(XY..XY)
26,80 27,290 28,240 29,601
39,340 40,50 41,1341 42,300
43,2112 44,200 45,1451 46,70
47,70 50,90 51,290 52,40
53,70 54,50 55,881 56,330
57,1702 58,100 63,40 65,450
66,140 67,90 68,80 69,761
70,240 71,941 72,50 74,30
76,30 77,581 78,280 79,280
81,40 82,80 83,190 84,170
85,40 91,170 94,50 97,70
105,40 108,140 109,1201 110,1021
111,210 112,40 121,310 122,130
123,9999 124,1832 125,561 126,140
150,30 151,350 152,50 157,360
158,30 168,8568 169,1001 170,470
171,40 280,7496 282,480 283,60
##END=
