##TITLE=4-Cyanobenzoic acid, 3-methyl-2-enyl ester
##JCAMP-DX=4.24
##DATA TYPE=MASS SPECTRUM
##ORIGIN=Zaikin V.G., TIPS RAS, Moscow, Russia
##OWNER=NIST Mass Spectrometry Data Center
Collection (C) 2014 copyright by the U.S. Secretary of Commerce
on behalf of the United States of America. All rights reserved.
##$NIST MASS SPEC NO=299222
##MOLFORM=C13 H13 N O2
##MW=215
##$NIST SOURCE=MSDC
##XUNITS=M/Z
##YUNITS=RELATIVE INTENSITY
##XFACTOR=1
##YFACTOR=1
##FIRSTX=26
##LASTX=216
##FIRSTY=60
##MAXX=216
##MINX=26
##MAXY=9999
##MINY=10
##NPOINTS=51
##PEAK TABLE=(XY..XY)
26,60 27,340 28,10 29,310
37,30 38,50 39,551 40,310
41,2092 42,230 43,120 44,110
50,280 51,430 52,130 53,961
54,100 55,120 56,30 57,290
62,30 63,40 65,70 66,70
67,3043 68,6906 69,2513 70,130
74,100 75,581 76,440 77,60
83,60 85,781 86,40 99,30
101,80 102,2833 103,1191 104,110
129,40 130,9999 131,1562 132,120
147,370 148,170 170,30 200,60
214,240 215,200 216,30
##END=
