##TITLE=3-Chloropropionic acid, undec-2-enyl ester
##JCAMP-DX=4.24
##DATA TYPE=MASS SPECTRUM
##ORIGIN=Zaikin V.G., TIPS RAS, Moscow, Russia
##OWNER=NIST Mass Spectrometry Data Center
Collection (C) 2014 copyright by the U.S. Secretary of Commerce
on behalf of the United States of America. All rights reserved.
##$NIST MASS SPEC NO=299219
##MOLFORM=C14 H25 Cl O2
##MW=260
##$NIST SOURCE=MSDC
##XUNITS=M/Z
##YUNITS=RELATIVE INTENSITY
##XFACTOR=1
##YFACTOR=1
##FIRSTX=26
##LASTX=226
##FIRSTY=140
##MAXX=226
##MINX=26
##MAXY=9999
##MINY=30
##NPOINTS=104
##PEAK TABLE=(XY..XY)
26,140 27,771 28,270 29,681
36,90 38,60 39,541 40,130
41,1882 42,390 43,1642 44,180
50,50 51,130 52,300 53,490
54,1582 55,9999 56,751 57,911
58,90 63,921 64,40 65,420
66,370 67,1752 68,1191 69,1241
70,450 71,360 72,170 73,300
77,390 78,150 79,1301 80,460
81,1792 82,1582 83,1011 84,240
85,160 86,50 91,2312 92,120
93,1812 94,501 95,1692 96,1351
97,741 98,190 99,120 105,110
106,60 107,400 108,280 109,771
110,621 111,601 112,150 113,100
114,30 119,160 120,40 121,420
122,110 123,741 124,941 125,220
126,70 127,50 133,80 134,30
135,280 136,110 137,280 138,70
139,50 141,120 147,50 148,80
149,150 150,50 151,280 152,420
153,70 155,30 161,80 162,80
163,130 164,30 165,150 169,70
170,280 171,30 175,30 177,160
178,40 179,50 181,40 189,30
193,30 195,80 225,300 226,40
##END=
