##TITLE=2,6-Difluorobenzoic acid, 4-tetradecyl ester
##JCAMP-DX=4.24
##DATA TYPE=MASS SPECTRUM
##ORIGIN=Zaikin V.G., TIPS RAS, Moscow, Russia
##OWNER=NIST Mass Spectrometry Data Center
Collection (C) 2014 copyright by the U.S. Secretary of Commerce
on behalf of the United States of America. All rights reserved.
##$NIST MASS SPEC NO=299774
##MOLFORM=C21 H32 F2 O2
##MW=354
##$NIST SOURCE=MSDC
##XUNITS=M/Z
##YUNITS=RELATIVE INTENSITY
##XFACTOR=1
##YFACTOR=1
##FIRSTX=26
##LASTX=283
##FIRSTY=30
##MAXX=283
##MINX=26
##MAXY=9999
##MINY=30
##NPOINTS=57
##PEAK TABLE=(XY..XY)
26,30 27,90 28,60 29,160
39,70 41,440 42,140 43,561
44,60 53,30 54,90 55,611
56,400 57,531 63,100 67,120
68,110 69,561 70,460 71,300
81,90 82,190 83,571 84,370
85,180 94,30 95,50 96,140
97,591 98,250 99,40 110,100
111,390 112,190 113,420 114,100
123,30 124,80 125,240 126,160
138,30 139,90 140,110 141,9999
142,701 143,40 153,100 154,50
156,140 158,130 159,1602 160,120
168,130 196,1291 197,200 213,110
283,30
##END=
