##TITLE=4-(Trifluoromethyl)benzoic acid, tridec-2-ynyl ester
##JCAMP-DX=4.24
##DATA TYPE=MASS SPECTRUM
##ORIGIN=Zaikin V.G., TIPS RAS, Moscow, Russia
##OWNER=NIST Mass Spectrometry Data Center
Collection (C) 2014 copyright by the U.S. Secretary of Commerce
on behalf of the United States of America. All rights reserved.
##$NIST MASS SPEC NO=299447
##MOLFORM=C21 H27 F3 O2
##MW=368
##$NIST SOURCE=MSDC
##XUNITS=M/Z
##YUNITS=RELATIVE INTENSITY
##XFACTOR=1
##YFACTOR=1
##FIRSTX=27
##LASTX=242
##FIRSTY=90
##MAXX=242
##MINX=27
##MAXY=9999
##MINY=20
##NPOINTS=70
##PEAK TABLE=(XY..XY)
27,90 28,70 29,180 39,110
40,30 41,400 42,80 43,420
44,20 50,40 51,50 52,100
53,110 54,80 55,360 56,100
57,140 65,70 66,80 67,260
68,60 69,160 70,40 71,40
75,30 77,130 78,50 79,390
80,110 81,230 82,80 83,80
91,140 93,250 94,150 95,230
96,60 97,40 105,30 107,110
108,110 109,70 110,20 111,90
121,150 122,40 124,30 125,50
126,50 127,30 135,110 136,40
145,771 146,80 149,50 151,50
152,30 155,40 173,9999 174,691
175,40 177,60 178,50 188,30
190,40 191,50 195,70 201,50
241,200 242,100
##END=
