##TITLE=2-Fluorobenzoic acid, 2-methylphenyl ester
##JCAMP-DX=4.24
##DATA TYPE=MASS SPECTRUM
##ORIGIN=Zaikin V.G., TIPS RAS, Moscow, Russia
##OWNER=NIST Mass Spectrometry Data Center
Collection (C) 2014 copyright by the U.S. Secretary of Commerce
on behalf of the United States of America. All rights reserved.
##$NIST MASS SPEC NO=299045
##MOLFORM=C14 H11 F O2
##MW=230
##$NIST SOURCE=MSDC
##XUNITS=M/Z
##YUNITS=RELATIVE INTENSITY
##XFACTOR=1
##YFACTOR=1
##FIRSTX=28
##LASTX=231
##FIRSTY=30
##MAXX=231
##MINX=28
##MAXY=9999
##MINY=30
##NPOINTS=28
##PEAK TABLE=(XY..XY)
28,30 39,70 50,80 51,110
52,50 53,40 63,40 65,40
68,30 69,60 74,50 75,400
76,40 77,240 78,120 79,70
94,100 95,1471 96,130 107,120
108,90 122,30 123,9999 124,661
125,40 157,40 230,831 231,120
##END=
