##TITLE=2-Bromobenzoic acid, but-3-yn-2-yl ester
##JCAMP-DX=4.24
##DATA TYPE=MASS SPECTRUM
##ORIGIN=Zaikin V.G., TIPS RAS, Moscow, Russia
##OWNER=NIST Mass Spectrometry Data Center
Collection (C) 2014 copyright by the U.S. Secretary of Commerce
on behalf of the United States of America. All rights reserved.
##$NIST MASS SPEC NO=299392
##MOLFORM=C11 H9 Br O2
##MW=252
##$NIST SOURCE=MSDC
##XUNITS=M/Z
##YUNITS=RELATIVE INTENSITY
##XFACTOR=1
##YFACTOR=1
##FIRSTX=25
##LASTX=255
##FIRSTY=30
##MAXX=255
##MINX=25
##MAXY=9999
##MINY=10
##NPOINTS=73
##PEAK TABLE=(XY..XY)
25,30 26,220 27,1211 28,10
29,30 37,70 38,180 39,210
40,20 41,60 43,110 44,200
49,110 50,1822 51,1011 52,901
53,3684 54,160 62,30 63,80
64,50 65,160 69,200 73,70
74,541 75,2012 76,2342 77,671
78,120 79,90 80,230 81,90
82,220 92,40 93,60 101,50
102,100 103,40 104,300 105,90
114,80 115,60 117,30 121,50
127,260 128,741 129,1441 130,140
131,70 133,130 139,30 145,230
155,1672 156,220 157,1592 158,170
173,280 174,30 183,9999 184,691
185,9509 186,651 187,30 193,60
195,60 200,490 201,240 202,480
203,230 252,521 253,50 254,511
255,50
##END=
