##TITLE=Acetoxyacetic acid, 2,6-dimethylnon-1-en-3-yn-5-yl ester
##JCAMP-DX=4.24
##DATA TYPE=MASS SPECTRUM
##ORIGIN=Zaikin V.G., TIPS RAS, Moscow, Russia
##OWNER=NIST Mass Spectrometry Data Center
Collection (C) 2014 copyright by the U.S. Secretary of Commerce
on behalf of the United States of America. All rights reserved.
##$NIST MASS SPEC NO=299208
##MOLFORM=C15 H22 O4
##MW=266
##$NIST SOURCE=MSDC
##XUNITS=M/Z
##YUNITS=RELATIVE INTENSITY
##XFACTOR=1
##YFACTOR=1
##FIRSTX=26
##LASTX=266
##FIRSTY=40
##MAXX=266
##MINX=26
##MAXY=9999
##MINY=20
##NPOINTS=110
##PEAK TABLE=(XY..XY)
26,40 27,170 28,20 29,220
30,30 38,60 39,360 40,90
41,821 42,310 43,4194 44,290
45,50 50,70 51,190 52,140
53,280 54,40 55,490 56,180
57,110 60,30 61,90 62,30
63,140 64,50 65,410 66,220
67,300 68,40 69,531 70,100
71,210 72,30 73,4354 74,200
75,50 76,30 77,1161 78,821
79,1001 80,210 81,330 82,280
83,120 84,30 89,50 90,30
91,1812 92,450 93,1171 94,200
95,1191 96,330 97,80 98,140
99,30 100,30 101,9999 102,490
103,300 104,120 105,1161 106,891
107,1171 108,250 109,1151 110,210
111,120 115,100 116,30 117,190
118,50 119,1191 120,410 121,400
122,110 123,941 124,4525 125,460
126,40 131,60 132,240 133,1301
134,170 135,100 136,90 137,531
138,450 139,60 147,70 148,1081
149,310 150,50 151,330 152,80
163,100 164,30 165,230 166,551
167,100 173,40 174,50 191,30
193,90 194,130 223,761 224,140
251,90 266,90
##END=
