##TITLE=Isonicotinic acid, tetradecyl ester
##JCAMP-DX=4.24
##DATA TYPE=MASS SPECTRUM
##ORIGIN=Zaikin V.G., TIPS RAS, Moscow, Russia
##OWNER=NIST Mass Spectrometry Data Center
Collection (C) 2014 copyright by the U.S. Secretary of Commerce
on behalf of the United States of America. All rights reserved.
##$NIST MASS SPEC NO=299889
##MOLFORM=C20 H33 N O2
##MW=319
##$NIST SOURCE=MSDC
##XUNITS=M/Z
##YUNITS=RELATIVE INTENSITY
##XFACTOR=1
##YFACTOR=1
##FIRSTX=26
##LASTX=319
##FIRSTY=90
##MAXX=319
##MINX=26
##MAXY=9999
##MINY=30
##NPOINTS=93
##PEAK TABLE=(XY..XY)
26,90 27,230 28,190 29,480
36,30 39,230 40,50 41,1391
42,420 43,1712 44,130 50,120
51,551 52,120 53,110 54,330
55,1732 56,751 57,1011 58,40
67,370 68,320 69,1151 70,571
71,330 77,60 78,1351 79,771
80,380 81,180 82,230 83,731
84,270 85,130 93,320 94,30
95,70 96,90 97,390 98,120
105,40 106,2793 107,1772 108,120
111,130 112,50 120,280 121,110
122,30 123,290 124,9999 125,791
126,70 134,60 135,70 137,90
148,50 149,50 150,60 151,60
162,90 163,40 164,140 165,50
176,70 177,30 178,80 179,30
190,30 191,50 192,70 204,30
206,90 218,60 219,30 220,130
221,30 232,100 233,30 234,140
235,30 247,30 248,160 262,190
263,30 275,250 276,280 277,50
290,220 291,40 304,80 318,70
319,80
##END=
