##TITLE=p-Anisic acid, hex-4-yn-3-yl ester
##JCAMP-DX=4.24
##DATA TYPE=MASS SPECTRUM
##ORIGIN=Zaikin V.G., TIPS RAS, Moscow, Russia
##OWNER=NIST Mass Spectrometry Data Center
Collection (C) 2014 copyright by the U.S. Secretary of Commerce
on behalf of the United States of America. All rights reserved.
##$NIST MASS SPEC NO=299194
##MOLFORM=C14 H16 O3
##MW=232
##$NIST SOURCE=MSDC
##XUNITS=M/Z
##YUNITS=RELATIVE INTENSITY
##XFACTOR=1
##YFACTOR=1
##FIRSTX=27
##LASTX=233
##FIRSTY=80
##MAXX=233
##MINX=27
##MAXY=9999
##MINY=10
##NPOINTS=51
##PEAK TABLE=(XY..XY)
27,80 28,10 29,30 38,40
39,160 40,30 41,210 44,30
50,70 51,90 52,50 53,300
55,50 63,130 64,190 65,120
66,50 67,30 76,60 77,621
78,90 79,901 80,340 81,230
92,440 93,40 97,110 104,30
105,30 107,250 108,80 109,60
121,40 135,9999 136,741 137,70
152,951 153,360 154,30 159,60
162,30 173,60 175,30 176,50
187,50 203,180 204,501 205,60
217,110 232,210 233,30
##END=
