##TITLE=Dichloroacetic acid, tridec-2-ynyl ester
##JCAMP-DX=4.24
##DATA TYPE=MASS SPECTRUM
##ORIGIN=Zaikin V.G., TIPS RAS, Moscow, Russia
##OWNER=NIST Mass Spectrometry Data Center
Collection (C) 2014 copyright by the U.S. Secretary of Commerce
on behalf of the United States of America. All rights reserved.
##$NIST MASS SPEC NO=299437
##MOLFORM=C15 H24 Cl2 O2
##MW=306
##$NIST SOURCE=MSDC
##XUNITS=M/Z
##YUNITS=RELATIVE INTENSITY
##XFACTOR=1
##YFACTOR=1
##FIRSTX=25
##LASTX=271
##FIRSTY=50
##MAXX=271
##MINX=25
##MAXY=9999
##MINY=30
##NPOINTS=137
##PEAK TABLE=(XY..XY)
25,50 26,400 27,1662 28,30
29,3153 30,60 35,110 36,801
37,90 38,390 39,1922 40,541
41,6916 42,1441 43,8618 44,711
45,90 47,140 48,390 49,270
50,270 51,841 52,1802 53,2492
54,2272 55,7977 56,1992 57,3524
58,180 59,40 63,120 64,120
65,1141 66,1782 67,6586 68,2172
69,5715 70,4895 71,2142 72,140
75,50 76,561 77,2322 78,941
79,9999 80,3504 81,7246 82,3604
83,6325 84,2883 85,1992 86,180
87,240 88,130 89,130 90,50
91,2202 92,591 93,8828 94,5044
95,7226 96,2382 97,1902 98,450
99,120 100,40 101,60 103,110
104,30 105,490 106,160 107,3734
108,3393 109,2292 110,841 111,3894
112,490 113,280 114,60 115,70
117,290 118,30 119,180 120,70
121,4555 122,1061 123,591 124,460
125,490 126,110 127,80 128,40
129,100 131,80 133,80 134,30
135,2893 136,771 137,390 138,180
139,120 141,60 144,50 145,130
146,40 147,120 149,1522 150,240
151,130 152,110 153,60 154,40
155,80 157,30 159,120 161,40
163,360 164,40 165,90 167,90
172,30 177,150 178,320 179,200
180,901 181,300 182,591 183,150
184,100 193,30 194,480 195,170
196,450 198,40 221,220 223,180
271,30
##END=
