##TITLE=1-Tributylsilyloxytridec-2-yne
##JCAMP-DX=4.24
##DATA TYPE=MASS SPECTRUM
##ORIGIN=Zaikin V.G., TIPS RAS, Moscow, Russia
##OWNER=NIST Mass Spectrometry Data Center
Collection (C) 2014 copyright by the U.S. Secretary of Commerce
on behalf of the United States of America. All rights reserved.
##$NIST MASS SPEC NO=299548
##MOLFORM=C25 H50 O Si
##MW=394
##$NIST SOURCE=MSDC
##XUNITS=M/Z
##YUNITS=RELATIVE INTENSITY
##XFACTOR=1
##YFACTOR=1
##FIRSTX=25
##LASTX=339
##FIRSTY=10
##MAXX=339
##MINX=25
##MAXY=9999
##MINY=10
##NPOINTS=180
##PEAK TABLE=(XY..XY)
25,10 26,100 27,170 29,200
39,170 40,40 41,490 42,90
43,400 44,30 45,140 47,180
49,10 50,20 51,20 52,40
53,80 54,40 55,310 56,140
57,150 58,20 59,571 60,60
61,581 62,30 63,20 65,30
66,20 67,190 68,30 69,110
70,30 71,120 72,10 73,170
74,50 75,220 76,20 77,90
78,20 79,180 80,40 81,170
82,40 83,360 84,90 85,480
86,50 87,280 88,50 89,30
91,110 92,20 93,150 94,40
95,290 96,60 97,601 98,150
99,330 100,30 101,320 102,30
103,1712 104,170 105,100 106,10
107,90 108,20 109,290 110,50
111,531 112,100 113,200 114,20
115,110 116,10 117,210 118,20
119,40 121,110 122,20 123,220
124,60 125,420 126,70 127,160
128,20 129,80 130,10 131,10
133,20 135,90 136,10 137,200
138,30 139,270 140,40 141,150
142,20 143,260 144,30 145,10
147,10 149,50 151,120 152,20
153,230 154,90 155,340 156,50
157,70 159,2813 160,400 161,140
162,10 163,100 164,10 165,60
166,10 167,340 168,50 169,100
170,10 171,30 173,140 174,20
175,10 177,120 178,20 179,30
181,240 182,40 183,60 184,10
185,60 191,10 193,50 194,10
195,280 196,40 197,60 198,10
199,30 201,10 209,60 210,20
211,30 213,70 214,10 221,10
223,180 224,30 225,430 226,80
227,20 237,40 239,20 249,20
251,280 252,60 253,70 254,10
255,100 256,20 269,751 270,170
271,40 279,70 280,10 281,9999
282,2232 283,601 284,80 307,40
308,10 337,781 338,220 339,60
##END=
