##TITLE=Glycine, N-(4-butylbenzoyl)-, methyl ester
##JCAMP-DX=4.24
##DATA TYPE=MASS SPECTRUM
##ORIGIN=Zaikin V.G., TIPS RAS, Moscow, Russia
##OWNER=NIST Mass Spectrometry Data Center
Collection (C) 2014 copyright by the U.S. Secretary of Commerce
on behalf of the United States of America. All rights reserved.
##$NIST MASS SPEC NO=299693
##MOLFORM=C14 H19 N O3
##MW=249
##$NIST SOURCE=MSDC
##XUNITS=M/Z
##YUNITS=RELATIVE INTENSITY
##XFACTOR=1
##YFACTOR=1
##FIRSTX=27
##LASTX=250
##FIRSTY=40
##MAXX=250
##MINX=27
##MAXY=9999
##MINY=10
##NPOINTS=42
##PEAK TABLE=(XY..XY)
27,40 28,10 29,30 39,40
41,50 44,30 51,30 55,40
56,30 63,30 65,90 77,110
78,40 79,30 89,140 90,350
91,731 92,70 103,100 104,70
105,80 115,50 116,30 117,40
118,340 119,70 131,110 132,40
133,80 159,50 161,9999 162,1001
163,70 178,30 189,30 190,521
191,70 206,90 217,200 218,120
249,1091 250,170
##END=
