##TITLE=l-Methionine, N-(m-anisoyl)-, methyl ester
##JCAMP-DX=4.24
##DATA TYPE=MASS SPECTRUM
##ORIGIN=Zaikin V.G., TIPS RAS, Moscow, Russia
##OWNER=NIST Mass Spectrometry Data Center
Collection (C) 2014 copyright by the U.S. Secretary of Commerce
on behalf of the United States of America. All rights reserved.
##$NIST MASS SPEC NO=299711
##MOLFORM=C14 H19 N O4 S
##MW=297
##$NIST SOURCE=MSDC
##XUNITS=M/Z
##YUNITS=RELATIVE INTENSITY
##XFACTOR=1
##YFACTOR=1
##FIRSTX=26
##LASTX=299
##FIRSTY=30
##MAXX=299
##MINX=26
##MAXY=9999
##MINY=10
##NPOINTS=129
##PEAK TABLE=(XY..XY)
26,30 27,60 28,10 29,40
30,10 31,20 33,10 35,20
36,10 38,20 39,60 41,90
42,20 43,20 44,80 45,80
46,30 47,80 48,30 49,20
50,50 51,50 52,10 53,20
54,20 55,30 56,80 57,20
58,10 59,70 60,10 61,310
62,20 63,140 64,260 65,60
66,10 73,10 74,70 75,220
76,140 77,991 78,110 79,50
85,10 86,10 87,40 88,270
89,20 90,10 91,40 92,791
93,80 94,10 95,10 99,10
102,20 103,30 104,50 105,30
106,30 107,1321 108,200 109,40
114,190 115,20 117,20 119,40
120,30 121,50 122,10 131,10
132,10 133,70 134,50 135,9999
136,1121 137,100 145,10 146,10
147,10 148,110 149,20 150,10
151,30 152,130 153,10 160,20
161,10 162,651 163,871 164,120
165,10 176,30 177,20 178,70
179,10 181,10 189,40 190,160
191,2703 192,340 193,40 196,10
203,10 204,340 205,130 206,250
217,30 218,30 222,70 223,3994
224,501 225,60 235,30 236,601
237,80 238,230 239,30 240,10
249,10 250,140 251,20 265,30
266,30 282,10 297,581 298,110
299,30
##END=
