##TITLE=l-Cysteine, N,S-bis(2,3,4-trifluorobenzoyl)-, methyl ester
##JCAMP-DX=4.24
##DATA TYPE=MASS SPECTRUM
##ORIGIN=Zaikin V.G., TIPS RAS, Moscow, Russia
##OWNER=NIST Mass Spectrometry Data Center
Collection (C) 2014 copyright by the U.S. Secretary of Commerce
on behalf of the United States of America. All rights reserved.
##$NIST MASS SPEC NO=299635
##MOLFORM=C18 H11 F6 N O4 S
##MW=451
##$NIST SOURCE=MSDC
##XUNITS=M/Z
##YUNITS=RELATIVE INTENSITY
##XFACTOR=1
##YFACTOR=1
##FIRSTX=28
##LASTX=393
##FIRSTY=10
##MAXX=393
##MINX=28
##MAXY=9999
##MINY=10
##NPOINTS=34
##PEAK TABLE=(XY..XY)
28,10 44,30 45,30 59,30
81,310 112,40 117,30 130,30
131,991 132,130 158,30 159,9999
160,641 161,40 175,30 176,30
200,130 216,30 217,40 227,30
228,50 246,70 259,90 260,561
261,70 276,230 277,30 292,1101
293,140 294,60 334,450 335,70
392,330 393,60
##END=
