##TITLE=2-Fluorobenzoic acid, 3,5-difluorophenyl ester
##JCAMP-DX=4.24
##DATA TYPE=MASS SPECTRUM
##ORIGIN=Zaikin V.G., TIPS RAS, Moscow, Russia
##OWNER=NIST Mass Spectrometry Data Center
Collection (C) 2014 copyright by the U.S. Secretary of Commerce
on behalf of the United States of America. All rights reserved.
##$NIST MASS SPEC NO=299043
##MOLFORM=C13 H7 F3 O2
##MW=252
##$NIST SOURCE=MSDC
##XUNITS=M/Z
##YUNITS=RELATIVE INTENSITY
##XFACTOR=1
##YFACTOR=1
##FIRSTX=28
##LASTX=252
##FIRSTY=40
##MAXX=252
##MINX=28
##MAXY=9999
##MINY=30
##NPOINTS=26
##PEAK TABLE=(XY..XY)
28,40 50,100 51,110 57,60
63,70 68,60 69,120 74,80
75,701 76,60 81,50 82,30
93,30 94,150 95,1892 96,160
101,240 102,50 113,30 122,40
123,9999 124,651 125,40 129,40
130,150 252,70
##END=
