##TITLE=2,6-Dimethyl-5-diphenylethenylsilyloxynon-1-en-3-yne
##JCAMP-DX=4.24
##DATA TYPE=MASS SPECTRUM
##ORIGIN=Zaikin V.G., TIPS RAS, Moscow, Russia
##OWNER=NIST Mass Spectrometry Data Center
Collection (C) 2014 copyright by the U.S. Secretary of Commerce
on behalf of the United States of America. All rights reserved.
##$NIST MASS SPEC NO=299564
##MOLFORM=C25 H30 O Si
##MW=374
##$NIST SOURCE=MSDC
##XUNITS=M/Z
##YUNITS=RELATIVE INTENSITY
##XFACTOR=1
##YFACTOR=1
##FIRSTX=26
##LASTX=376
##FIRSTY=80
##MAXX=376
##MINX=26
##MAXY=9999
##MINY=20
##NPOINTS=166
##PEAK TABLE=(XY..XY)
26,80 27,90 28,30 29,70
39,140 40,40 41,210 42,80
43,190 44,60 45,120 50,60
51,90 52,50 53,110 55,100
57,30 63,30 65,70 66,40
67,30 69,30 71,40 76,30
77,440 78,260 79,120 81,30
91,250 92,50 93,70 94,30
102,30 103,90 104,60 105,921
106,160 107,170 115,90 117,60
119,60 121,110 122,50 123,360
124,40 127,30 128,60 129,120
130,70 131,290 132,60 133,80
136,30 137,40 141,120 142,50
143,40 145,50 147,100 148,40
149,1081 150,160 151,70 152,110
153,90 154,60 155,2863 156,420
157,70 161,50 165,120 166,60
167,300 168,70 169,80 171,200
172,40 173,50 175,40 178,50
179,90 180,160 181,1021 182,230
183,3974 184,781 185,230 186,30
187,110 195,90 196,50 197,1662
198,350 199,1411 200,290 201,100
202,30 203,30 205,30 207,230
208,100 209,7416 210,1502 211,470
212,60 213,50 215,40 221,50
223,50 224,70 225,711 226,190
227,80 231,60 233,50 237,60
239,70 241,30 242,30 245,40
247,1361 248,330 249,100 253,90
254,80 255,40 257,50 259,70
260,30 261,50 263,40 273,300
274,120 275,310 276,80 277,50
278,130 279,30 285,40 287,80
288,30 289,70 290,30 291,50
297,30 301,100 302,70 303,9999
304,2743 305,741 306,140 317,60
318,20 319,50 331,210 332,90
333,100 334,30 345,70 358,80
359,250 360,70 373,50 374,561
375,180 376,40
##END=
