##TITLE=5-Chlorovaleric acid, 3-tetradecyl ester
##JCAMP-DX=4.24
##DATA TYPE=MASS SPECTRUM
##ORIGIN=Zaikin V.G., TIPS RAS, Moscow, Russia
##OWNER=NIST Mass Spectrometry Data Center
Collection (C) 2014 copyright by the U.S. Secretary of Commerce
on behalf of the United States of America. All rights reserved.
##$NIST MASS SPEC NO=299917
##MOLFORM=C19 H37 Cl O2
##MW=332
##$NIST SOURCE=MSDC
##XUNITS=M/Z
##YUNITS=RELATIVE INTENSITY
##XFACTOR=1
##YFACTOR=1
##FIRSTX=26
##LASTX=303
##FIRSTY=90
##MAXX=303
##MINX=26
##MAXY=9999
##MINY=20
##NPOINTS=86
##PEAK TABLE=(XY..XY)
26,90 27,270 28,210 29,541
36,80 39,200 40,40 41,1021
42,310 43,1241 44,110 45,30
53,90 54,200 55,2513 56,881
57,1441 58,110 59,70 63,60
67,250 68,230 69,1081 70,891
71,821 72,80 73,120 79,30
81,180 82,350 83,1111 84,631
85,571 86,30 87,30 91,1441
92,70 93,470 95,120 96,290
97,1121 98,470 99,150 100,380
101,180 109,50 110,180 111,721
112,330 113,110 118,30 119,9999
120,561 121,3073 122,170 124,90
125,370 126,220 127,70 134,210
135,80 136,260 137,1091 138,150
139,370 140,190 141,60 149,50
152,30 153,80 154,80 166,20
167,130 168,210 169,30 177,330
178,30 179,110 183,240 184,30
196,1081 197,200 198,30 213,100
274,30 303,60
##END=
