##TITLE=Glycine, N-(3-trifluoromethylbenzoyl)-, methyl ester
##JCAMP-DX=4.24
##DATA TYPE=MASS SPECTRUM
##ORIGIN=Zaikin V.G., TIPS RAS, Moscow, Russia
##OWNER=NIST Mass Spectrometry Data Center
Collection (C) 2014 copyright by the U.S. Secretary of Commerce
on behalf of the United States of America. All rights reserved.
##$NIST MASS SPEC NO=299699
##MOLFORM=C11 H10 F3 N O3
##MW=261
##$NIST SOURCE=MSDC
##XUNITS=M/Z
##YUNITS=RELATIVE INTENSITY
##XFACTOR=1
##YFACTOR=1
##FIRSTX=27
##LASTX=271
##FIRSTY=10
##MAXX=271
##MINX=27
##MAXY=9999
##MINY=10
##NPOINTS=64
##PEAK TABLE=(XY..XY)
27,10 28,10 29,30 30,10
31,10 33,10 39,10 42,10
43,10 44,50 50,80 51,30
56,40 57,60 59,50 63,20
69,40 74,40 75,170 76,60
77,40 81,10 88,80 94,20
95,290 96,30 99,30 100,20
101,10 107,20 119,30 125,210
126,180 127,40 141,10 143,30
144,80 145,2713 146,220 154,30
155,10 171,10 172,60 173,9999
174,741 175,40 182,10 185,30
190,10 200,10 201,20 202,2372
203,230 204,10 216,10 229,410
230,160 231,10 242,340 243,50
244,10 261,511 262,70 271,20
##END=
