##TITLE=4-Butylbenzoic acid, 4-pentadecyl ester
##JCAMP-DX=4.24
##DATA TYPE=MASS SPECTRUM
##ORIGIN=Zaikin V.G., TIPS RAS, Moscow, Russia
##OWNER=NIST Mass Spectrometry Data Center
Collection (C) 2014 copyright by the U.S. Secretary of Commerce
on behalf of the United States of America. All rights reserved.
##$NIST MASS SPEC NO=299945
##MOLFORM=C26 H44 O2
##MW=388
##$NIST SOURCE=MSDC
##XUNITS=M/Z
##YUNITS=RELATIVE INTENSITY
##XFACTOR=1
##YFACTOR=1
##FIRSTX=26
##LASTX=345
##FIRSTY=120
##MAXX=345
##MINX=26
##MAXY=9999
##MINY=20
##NPOINTS=114
##PEAK TABLE=(XY..XY)
26,120 27,290 28,160 29,420
36,50 38,30 39,280 40,60
41,1201 42,280 43,1441 44,160
50,60 51,80 52,30 53,90
54,210 55,1502 56,701 57,1411
58,70 63,60 65,170 66,40
67,340 68,270 69,1111 70,741
71,541 72,30 75,30 76,40
77,270 78,90 79,200 80,30
81,270 82,440 83,1081 84,591
85,340 86,30 89,180 90,470
91,1902 92,521 93,80 95,160
96,330 97,1081 98,400 99,100
102,30 103,160 104,120 105,330
106,30 107,290 108,30 109,80
110,200 111,681 112,270 113,50
115,90 116,30 117,80 118,350
119,160 123,210 124,120 125,360
126,190 127,30 128,30 129,30
131,240 132,50 133,310 134,50
135,761 136,811 137,200 138,110
139,340 140,130 141,50 147,30
149,90 150,30 151,40 152,50
153,90 154,80 159,90 160,40
161,9999 162,1201 163,110 166,40
167,90 168,60 176,70 177,60
178,811 179,8087 180,1001 181,110
182,150 210,951 211,150 227,200
233,30 345,20
##END=
