##TITLE=2,6-Dimethyl-6-dimethylisopropylsilyloxynon-1-en-3-yne
##JCAMP-DX=4.24
##DATA TYPE=MASS SPECTRUM
##ORIGIN=Zaikin V.G., TIPS RAS, Moscow, Russia
##OWNER=NIST Mass Spectrometry Data Center
Collection (C) 2014 copyright by the U.S. Secretary of Commerce
on behalf of the United States of America. All rights reserved.
##$NIST MASS SPEC NO=299498
##MOLFORM=C16 H30 O Si
##MW=266
##$NIST SOURCE=MSDC
##XUNITS=M/Z
##YUNITS=RELATIVE INTENSITY
##XFACTOR=1
##YFACTOR=1
##FIRSTX=26
##LASTX=266
##FIRSTY=80
##MAXX=266
##MINX=26
##MAXY=9999
##MINY=30
##NPOINTS=119
##PEAK TABLE=(XY..XY)
26,80 27,180 28,40 29,110
39,260 40,70 41,460 42,120
43,380 44,160 45,290 47,200
50,40 51,90 52,70 53,120
55,230 58,110 59,1181 60,110
61,230 63,50 65,140 66,50
67,70 69,160 71,50 73,2312
74,220 75,4114 76,330 77,581
78,190 79,230 81,30 83,180
85,120 87,30 89,110 91,490
92,90 93,170 95,70 96,40
97,190 98,30 99,130 101,1792
102,190 103,230 104,40 105,250
106,100 107,250 108,50 109,260
110,40 111,110 112,30 113,80
115,320 116,40 117,70 119,150
120,30 121,100 122,60 123,3784
124,490 125,300 126,30 127,50
129,80 133,90 135,40 137,350
138,70 139,140 141,40 143,30
147,490 148,100 149,1141 150,150
151,410 152,90 153,1311 154,190
155,80 157,1101 158,150 159,50
163,60 165,140 166,30 167,260
168,40 177,40 179,370 180,80
181,270 182,50 185,90 191,50
193,400 194,80 195,9999 196,1762
197,511 198,40 205,90 209,40
223,3684 224,791 225,230 237,50
251,200 252,40 266,40
##END=
