##TITLE=5-Chlorovaleric acid, 2-tetradecyl ester
##JCAMP-DX=4.24
##DATA TYPE=MASS SPECTRUM
##ORIGIN=Zaikin V.G., TIPS RAS, Moscow, Russia
##OWNER=NIST Mass Spectrometry Data Center
Collection (C) 2014 copyright by the U.S. Secretary of Commerce
on behalf of the United States of America. All rights reserved.
##$NIST MASS SPEC NO=299916
##MOLFORM=C19 H37 Cl O2
##MW=332
##$NIST SOURCE=MSDC
##XUNITS=M/Z
##YUNITS=RELATIVE INTENSITY
##XFACTOR=1
##YFACTOR=1
##FIRSTX=26
##LASTX=288
##FIRSTY=140
##MAXX=288
##MINX=26
##MAXY=9999
##MINY=10
##NPOINTS=99
##PEAK TABLE=(XY..XY)
26,140 27,490 28,10 29,981
36,150 38,80 39,420 40,100
41,2112 42,681 43,2593 44,210
45,160 49,30 51,30 53,200
54,400 55,4494 56,1822 57,2953
58,260 59,100 60,50 62,30
63,110 65,40 66,40 67,470
68,420 69,2042 70,1662 71,1712
72,100 73,240 77,40 79,60
81,330 82,771 83,2272 84,1191
85,1091 86,70 87,60 91,1842
92,100 93,591 94,40 95,200
96,581 97,2282 98,921 99,310
100,801 101,490 102,30 109,90
110,330 111,1381 112,651 113,190
118,70 119,9999 120,611 121,3293
122,190 123,40 124,180 125,751
126,450 127,140 134,360 135,170
136,531 137,2703 138,310 139,931
140,290 141,160 147,40 152,110
153,200 154,330 155,80 161,50
163,571 164,40 165,190 166,30
167,100 168,420 169,60 194,30
196,1802 197,801 198,90 206,40
212,30 213,160 288,50
##END=
