##TITLE=3-Diphenylmethylsilyloxyhex-4-yne
##JCAMP-DX=4.24
##DATA TYPE=MASS SPECTRUM
##ORIGIN=Zaikin V.G., TIPS RAS, Moscow, Russia
##OWNER=NIST Mass Spectrometry Data Center
Collection (C) 2014 copyright by the U.S. Secretary of Commerce
on behalf of the United States of America. All rights reserved.
##$NIST MASS SPEC NO=299484
##MOLFORM=C19 H22 O Si
##MW=294
##$NIST SOURCE=MSDC
##XUNITS=M/Z
##YUNITS=RELATIVE INTENSITY
##XFACTOR=1
##YFACTOR=1
##FIRSTX=26
##LASTX=296
##FIRSTY=60
##MAXX=296
##MINX=26
##MAXY=9999
##MINY=20
##NPOINTS=144
##PEAK TABLE=(XY..XY)
26,60 27,70 28,20 29,50
39,120 40,40 41,100 43,120
44,30 45,320 50,80 51,140
52,60 53,250 59,40 61,60
63,30 65,70 66,30 67,110
69,30 76,40 77,541 78,250
79,150 80,40 81,30 85,40
91,300 92,50 93,200 94,30
95,40 98,30 99,80 102,30
103,70 104,30 105,911 106,110
107,50 115,110 116,50 117,80
118,70 119,350 120,100 121,260
122,40 123,80 125,190 126,30
127,50 128,140 129,420 130,60
131,70 132,140 133,40 135,90
137,1522 138,200 139,100 141,50
142,40 143,200 144,30 145,140
147,50 151,30 152,150 153,70
154,60 155,170 156,50 157,60
158,50 159,2022 160,330 161,390
162,50 163,100 165,360 166,70
167,320 168,50 169,50 171,30
177,100 178,30 179,50 180,230
181,731 182,140 183,100 187,270
188,90 189,40 191,130 192,30
193,130 194,30 195,641 196,150
197,8147 198,1491 199,1191 200,190
201,410 202,80 203,70 205,40
215,50 216,90 217,170 218,40
219,50 220,40 221,5124 222,1071
223,290 224,30 235,90 237,30
239,50 245,30 247,30 249,40
250,40 251,170 252,30 263,40
264,80 265,9999 266,2503 267,631
268,90 279,3854 280,951 282,30
293,70 294,671 295,170 296,40
##END=
