##TITLE=l-Alanine, N-(p-toluoyl)-, methyl ester
##JCAMP-DX=4.24
##DATA TYPE=MASS SPECTRUM
##ORIGIN=Zaikin V.G., TIPS RAS, Moscow, Russia
##OWNER=NIST Mass Spectrometry Data Center
Collection (C) 2014 copyright by the U.S. Secretary of Commerce
on behalf of the United States of America. All rights reserved.
##$NIST MASS SPEC NO=299646
##MOLFORM=C12 H15 N O3
##MW=221
##$NIST SOURCE=MSDC
##XUNITS=M/Z
##YUNITS=RELATIVE INTENSITY
##XFACTOR=1
##YFACTOR=1
##FIRSTX=26
##LASTX=222
##FIRSTY=10
##MAXX=222
##MINX=26
##MAXY=9999
##MINY=10
##NPOINTS=58
##PEAK TABLE=(XY..XY)
26,10 27,20 29,10 31,10
36,10 38,10 39,120 40,20
41,60 42,60 43,20 44,80
50,30 51,60 52,10 55,10
59,30 62,20 63,110 64,30
65,551 66,30 70,10 75,10
76,10 77,20 81,10 89,210
90,180 91,1642 92,140 102,50
103,10 104,10 105,60 116,10
117,30 118,100 119,9999 120,761
121,40 132,40 133,10 136,10
146,10 148,10 160,170 161,30
162,3183 163,340 164,20 189,30
190,40 204,10 219,10 220,10
221,290 222,40
##END=
