##TITLE=trans-3-(Trifluoromethyl)cinnamic acid, heptyl ester
##JCAMP-DX=4.24
##DATA TYPE=MASS SPECTRUM
##ORIGIN=Zaikin V.G., TIPS RAS, Moscow, Russia
##OWNER=NIST Mass Spectrometry Data Center
Collection (C) 2014 copyright by the U.S. Secretary of Commerce
on behalf of the United States of America. All rights reserved.
##$NIST MASS SPEC NO=299871
##MOLFORM=C17 H21 F3 O2
##MW=314
##$NIST SOURCE=MSDC
##XUNITS=M/Z
##YUNITS=RELATIVE INTENSITY
##XFACTOR=1
##YFACTOR=1
##FIRSTX=26
##LASTX=315
##FIRSTY=80
##MAXX=315
##MINX=26
##MAXY=9999
##MINY=30
##NPOINTS=75
##PEAK TABLE=(XY..XY)
26,80 27,250 29,501 39,170
40,30 41,961 42,501 43,591
53,50 54,150 55,1321 56,1832
57,601 67,80 68,350 69,1001
70,1822 71,100 81,60 83,220
95,40 96,100 97,390 98,911
99,70 100,30 101,40 102,430
103,50 120,70 125,30 126,40
131,80 145,210 146,40 147,330
148,30 151,2362 152,330 153,40
155,80 168,40 169,160 170,300
171,2482 172,761 173,80 175,60
180,50 185,30 186,30 188,110
197,1031 198,370 199,9999 200,1141
201,90 215,2002 216,6926 217,6275
218,781 219,70 230,30 242,30
243,40 254,30 257,641 258,90
271,240 272,50 295,831 296,150
297,30 314,871 315,170
##END=
