##TITLE=4-Bromobenzoic acid, phenyl ester
##JCAMP-DX=4.24
##DATA TYPE=MASS SPECTRUM
##ORIGIN=Zaikin V.G., TIPS RAS, Moscow, Russia
##OWNER=NIST Mass Spectrometry Data Center
Collection (C) 2014 copyright by the U.S. Secretary of Commerce
on behalf of the United States of America. All rights reserved.
##$NIST MASS SPEC NO=299026
##MOLFORM=C13 H9 Br O2
##MW=276
##$NIST SOURCE=MSDC
##XUNITS=M/Z
##YUNITS=RELATIVE INTENSITY
##XFACTOR=1
##YFACTOR=1
##FIRSTX=26
##LASTX=279
##FIRSTY=50
##MAXX=279
##MINX=26
##MAXY=9999
##MINY=30
##NPOINTS=43
##PEAK TABLE=(XY..XY)
26,50 28,40 38,90 39,440
40,40 44,30 50,651 51,230
62,40 63,130 64,60 65,440
66,100 73,30 74,280 75,981
76,1241 77,290 80,60 82,60
93,80 94,320 104,280 105,70
115,80 129,30 131,30 139,50
141,50 154,40 155,1992 156,190
157,1932 158,150 183,9999 184,711
185,9729 186,681 187,40 276,571
277,80 278,561 279,80
##END=
