##TITLE=5-Chlorovaleric acid, 4-pentadecyl ester
##JCAMP-DX=4.24
##DATA TYPE=MASS SPECTRUM
##ORIGIN=Zaikin V.G., TIPS RAS, Moscow, Russia
##OWNER=NIST Mass Spectrometry Data Center
Collection (C) 2014 copyright by the U.S. Secretary of Commerce
on behalf of the United States of America. All rights reserved.
##$NIST MASS SPEC NO=299922
##MOLFORM=C20 H39 Cl O2
##MW=346
##$NIST SOURCE=MSDC
##XUNITS=M/Z
##YUNITS=RELATIVE INTENSITY
##XFACTOR=1
##YFACTOR=1
##FIRSTX=26
##LASTX=303
##FIRSTY=100
##MAXX=303
##MINX=26
##MAXY=9999
##MINY=30
##NPOINTS=90
##PEAK TABLE=(XY..XY)
26,100 27,340 28,230 29,591
36,110 38,30 39,270 40,60
41,1331 42,380 43,1642 44,110
45,30 53,130 54,270 55,3143
56,931 57,1572 58,120 59,40
60,30 63,70 65,30 66,30
67,320 68,270 69,1201 70,851
71,951 72,70 73,120 79,50
81,250 82,420 83,1221 84,601
85,591 86,80 87,30 91,1632
92,70 93,531 94,30 95,160
96,310 97,1121 98,430 99,170
100,330 101,150 109,70 110,200
111,741 112,290 113,90 118,40
119,9999 120,531 121,3193 122,160
123,30 124,110 125,390 126,220
127,90 134,210 135,90 136,220
137,761 138,240 139,480 140,180
141,80 152,50 153,90 154,70
155,30 163,50 166,40 167,130
168,60 181,30 182,160 183,230
191,270 193,90 210,901 211,170
227,60 303,40
##END=
