##TITLE=l-Phenylalanine, N-(3-fluorobenzoyl)-, methyl ester
##JCAMP-DX=4.24
##DATA TYPE=MASS SPECTRUM
##ORIGIN=Zaikin V.G., TIPS RAS, Moscow, Russia
##OWNER=NIST Mass Spectrometry Data Center
Collection (C) 2014 copyright by the U.S. Secretary of Commerce
on behalf of the United States of America. All rights reserved.
##$NIST MASS SPEC NO=299679
##MOLFORM=C17 H16 F N O3
##MW=301
##$NIST SOURCE=MSDC
##XUNITS=M/Z
##YUNITS=RELATIVE INTENSITY
##XFACTOR=1
##YFACTOR=1
##FIRSTX=28
##LASTX=301
##FIRSTY=30
##MAXX=301
##MINX=28
##MAXY=9999
##MINY=30
##NPOINTS=47
##PEAK TABLE=(XY..XY)
28,30 39,60 44,60 50,50
51,70 59,30 63,40 65,180
69,30 74,30 75,270 76,40
77,90 78,30 89,50 90,40
91,951 92,170 94,90 95,2192
96,200 102,50 103,130 104,60
117,100 118,80 119,40 121,80
122,60 123,9999 124,631 125,30
130,40 131,1131 132,120 139,60
140,30 144,40 161,521 162,7056
163,691 164,70 210,100 241,50
242,721 243,120 301,30
##END=
