##TITLE=Isonicotinic acid, pentyl ester
##JCAMP-DX=4.24
##DATA TYPE=MASS SPECTRUM
##ORIGIN=Zaikin V.G., TIPS RAS, Moscow, Russia
##OWNER=NIST Mass Spectrometry Data Center
Collection (C) 2014 copyright by the U.S. Secretary of Commerce
on behalf of the United States of America. All rights reserved.
##$NIST MASS SPEC NO=299881
##MOLFORM=C11 H15 N O2
##MW=193
##$NIST SOURCE=MSDC
##XUNITS=M/Z
##YUNITS=RELATIVE INTENSITY
##XFACTOR=1
##YFACTOR=1
##FIRSTX=26
##LASTX=194
##FIRSTY=60
##MAXX=194
##MINX=26
##MAXY=9999
##MINY=20
##NPOINTS=51
##PEAK TABLE=(XY..XY)
26,60 27,400 28,230 29,571
30,20 39,240 40,50 41,1021
42,2082 43,911 44,70 50,40
51,1431 53,40 54,40 55,1832
56,110 57,70 67,30 69,420
70,3504 71,220 77,80 78,3784
79,721 80,150 96,40 106,8728
107,691 108,60 115,30 121,130
122,30 123,2352 124,9999 125,701
126,60 136,60 137,1461 138,110
148,40 150,480 151,420 152,30
164,2773 165,501 166,40 178,50
192,1461 193,611 194,130
##END=
