##TITLE=4-(Dichloromethyl)dimethylsilyloxy-2,7-dimethyloct-7-en-5-yne
##JCAMP-DX=4.24
##DATA TYPE=MASS SPECTRUM
##ORIGIN=Zaikin V.G., TIPS RAS, Moscow, Russia
##OWNER=NIST Mass Spectrometry Data Center
Collection (C) 2014 copyright by the U.S. Secretary of Commerce
on behalf of the United States of America. All rights reserved.
##$NIST MASS SPEC NO=299454
##MOLFORM=C13 H22 Cl2 O Si
##MW=292
##$NIST SOURCE=MSDC
##XUNITS=M/Z
##YUNITS=RELATIVE INTENSITY
##XFACTOR=1
##YFACTOR=1
##FIRSTX=25
##LASTX=294
##FIRSTY=10
##MAXX=294
##MINX=25
##MAXY=9999
##MINY=10
##NPOINTS=205
##PEAK TABLE=(XY..XY)
25,10 26,80 27,330 29,210
31,10 35,40 36,320 37,30
38,140 39,470 40,110 41,971
42,100 43,1021 44,70 45,220
46,10 47,290 48,30 49,40
50,90 51,270 52,140 53,300
54,20 55,190 56,70 57,180
58,40 59,210 60,50 61,110
62,40 63,410 64,100 65,521
66,110 67,240 68,20 69,280
70,10 71,30 72,10 73,80
74,70 75,6065 76,511 77,1361
78,551 79,991 80,210 81,330
82,80 83,270 84,30 85,170
86,10 87,20 89,80 90,20
91,1341 92,350 93,1662 94,150
95,1231 96,120 97,220 98,80
99,140 100,30 101,551 102,60
103,140 104,50 105,340 106,100
107,380 108,110 109,340 110,40
111,130 112,20 113,3624 114,230
115,2523 116,190 117,561 118,60
119,501 120,80 121,100 122,80
123,9999 124,1251 125,571 126,80
127,120 128,30 129,80 130,10
131,50 133,250 134,100 135,1031
136,130 137,240 138,40 139,70
140,10 141,80 142,10 143,1892
144,220 145,340 146,30 147,40
148,10 149,200 150,30 151,340
152,70 153,3103 154,440 155,250
156,30 157,80 158,10 159,30
161,20 162,40 163,110 164,40
165,400 166,100 167,1061 168,150
169,50 170,30 171,60 172,30
173,50 174,10 175,30 177,110
178,20 179,210 180,30 181,20
183,20 185,270 186,30 187,170
188,30 189,40 191,170 192,30
193,120 194,20 195,20 197,10
199,110 200,20 201,220 202,40
203,80 204,10 205,10 209,8768
210,1572 211,440 212,40 213,30
215,70 216,10 217,20 221,50
223,30 226,20 227,10 228,20
229,90 230,10 231,30 235,2973
236,841 237,2132 238,561 239,440
240,100 241,20 244,10 249,60
250,10 251,110 252,10 253,50
257,40 259,10 277,611 278,100
279,420 280,70 292,30 293,10
294,20
##END=
