##TITLE=2-Trifluoromethylbenzoic acid, oct-3-en-2-yl ester
##JCAMP-DX=4.24
##DATA TYPE=MASS SPECTRUM
##ORIGIN=Zaikin V.G., TIPS RAS, Moscow, Russia
##OWNER=NIST Mass Spectrometry Data Center
Collection (C) 2014 copyright by the U.S. Secretary of Commerce
on behalf of the United States of America. All rights reserved.
##$NIST MASS SPEC NO=299404
##MOLFORM=C16 H19 F3 O2
##MW=300
##$NIST SOURCE=MSDC
##XUNITS=M/Z
##YUNITS=RELATIVE INTENSITY
##XFACTOR=1
##YFACTOR=1
##FIRSTX=27
##LASTX=300
##FIRSTY=130
##MAXX=300
##MINX=27
##MAXY=9999
##MINY=20
##NPOINTS=48
##PEAK TABLE=(XY..XY)
27,130 28,40 29,100 39,140
40,40 41,400 42,50 43,220
44,30 50,40 51,30 53,160
54,100 55,821 56,60 57,30
65,30 66,20 67,310 68,1151
69,771 70,50 71,50 75,60
76,20 77,30 79,60 81,651
82,80 95,250 96,30 110,250
111,180 125,70 126,70 127,110
144,30 145,1041 146,110 151,70
173,9999 174,641 175,30 190,70
202,50 243,30 258,40 300,30
##END=
