##TITLE=4-Fluorobenzoic acid, pent-2-en-4-ynyl ester
##JCAMP-DX=4.24
##DATA TYPE=MASS SPECTRUM
##ORIGIN=Zaikin V.G., TIPS RAS, Moscow, Russia
##OWNER=NIST Mass Spectrometry Data Center
Collection (C) 2014 copyright by the U.S. Secretary of Commerce
on behalf of the United States of America. All rights reserved.
##$NIST MASS SPEC NO=299152
##MOLFORM=C12 H9 F O2
##MW=204
##$NIST SOURCE=MSDC
##XUNITS=M/Z
##YUNITS=RELATIVE INTENSITY
##XFACTOR=1
##YFACTOR=1
##FIRSTX=27
##LASTX=204
##FIRSTY=30
##MAXX=204
##MINX=27
##MAXY=9999
##MINY=10
##NPOINTS=29
##PEAK TABLE=(XY..XY)
27,30 28,10 29,40 38,30
39,130 40,130 44,220 50,70
51,50 62,30 63,130 64,70
65,280 69,60 74,50 75,380
76,40 77,30 94,90 95,1682
96,160 97,40 123,9999 124,841
125,50 133,40 140,130 159,120
204,200
##END=
