##TITLE=4-Bromobenzoic acid, 2,6-dimethylnon-1-en-3-yn-5-yl ester
##JCAMP-DX=4.24
##DATA TYPE=MASS SPECTRUM
##ORIGIN=Zaikin V.G., TIPS RAS, Moscow, Russia
##OWNER=NIST Mass Spectrometry Data Center
Collection (C) 2014 copyright by the U.S. Secretary of Commerce
on behalf of the United States of America. All rights reserved.
##$NIST MASS SPEC NO=299250
##MOLFORM=C18 H21 Br O2
##MW=348
##$NIST SOURCE=MSDC
##XUNITS=M/Z
##YUNITS=RELATIVE INTENSITY
##XFACTOR=1
##YFACTOR=1
##FIRSTX=26
##LASTX=335
##FIRSTY=90
##MAXX=335
##MINX=26
##MAXY=9999
##MINY=10
##NPOINTS=117
##PEAK TABLE=(XY..XY)
26,90 27,220 28,10 29,210
37,30 38,140 39,400 40,160
41,741 42,90 43,501 44,350
49,30 50,470 51,330 52,160
53,240 54,30 55,350 56,30
57,70 62,30 63,160 64,60
65,390 66,130 67,220 68,30
69,300 70,40 71,100 73,60
74,240 75,691 76,951 77,1101
78,390 79,681 80,260 81,280
82,400 83,160 89,50 91,1371
92,370 93,460 94,80 95,440
96,60 102,40 103,180 104,611
105,1021 106,861 107,340 108,60
109,110 111,60 115,130 116,30
117,150 118,40 119,1001 120,310
121,100 122,40 123,390 124,100
126,70 127,230 128,100 130,40
131,40 133,1311 134,140 135,40
136,631 137,210 147,80 148,941
149,130 150,50 151,40 154,70
155,1662 156,170 157,1451 158,130
165,440 166,40 171,30 172,210
183,9989 184,801 185,9999 186,771
187,30 191,30 193,30 200,420
201,30 202,410 203,30 265,30
267,50 277,70 278,90 279,80
280,80 305,541 306,90 307,531
308,80 319,30 321,30 333,60
335,60
##END=
