##TITLE=L-Leucine, N-(m-anisoyl)-, methyl ester
##JCAMP-DX=4.24
##DATA TYPE=MASS SPECTRUM
##ORIGIN=Zaikin V.G., TIPS RAS, Moscow, Russia
##OWNER=NIST Mass Spectrometry Data Center
Collection (C) 2014 copyright by the U.S. Secretary of Commerce
on behalf of the United States of America. All rights reserved.
##$NIST MASS SPEC NO=299709
##MOLFORM=C15 H21 N O4
##MW=279
##$NIST SOURCE=MSDC
##XUNITS=M/Z
##YUNITS=RELATIVE INTENSITY
##XFACTOR=1
##YFACTOR=1
##FIRSTX=26
##LASTX=279
##FIRSTY=10
##MAXX=279
##MINX=26
##MAXY=9999
##MINY=10
##NPOINTS=82
##PEAK TABLE=(XY..XY)
26,10 27,40 29,40 31,10
38,10 39,50 40,10 41,100
42,30 43,90 44,40 50,30
51,20 53,20 55,20 56,10
57,10 59,20 63,70 64,150
65,40 67,10 69,10 70,20
75,20 76,90 77,621 78,70
79,30 84,10 88,10 91,10
92,511 93,50 94,10 102,20
103,10 104,30 105,20 106,20
107,921 108,100 109,10 119,20
120,30 121,60 122,10 133,50
134,30 135,9999 136,781 137,70
144,40 148,10 149,10 150,50
151,410 152,80 162,30 163,100
164,20 176,20 177,30 178,30
191,571 192,70 193,20 204,70
205,30 206,70 218,10 219,10
220,1241 221,180 222,30 223,2523
224,300 225,30 236,10 248,30
264,40 279,10
##END=
