##TITLE=l-Phenylalanine, N-(3-cyclopentylpropionyl)-, methyl ester
##JCAMP-DX=4.24
##DATA TYPE=MASS SPECTRUM
##ORIGIN=Zaikin V.G., TIPS RAS, Moscow, Russia
##OWNER=NIST Mass Spectrometry Data Center
Collection (C) 2014 copyright by the U.S. Secretary of Commerce
on behalf of the United States of America. All rights reserved.
##$NIST MASS SPEC NO=299656
##MOLFORM=C18 H25 N O3
##MW=303
##$NIST SOURCE=MSDC
##XUNITS=M/Z
##YUNITS=RELATIVE INTENSITY
##XFACTOR=1
##YFACTOR=1
##FIRSTX=26
##LASTX=304
##FIRSTY=50
##MAXX=304
##MINX=26
##MAXY=9999
##MINY=30
##NPOINTS=93
##PEAK TABLE=(XY..XY)
26,50 27,110 28,40 29,110
30,30 33,50 39,180 40,40
41,621 42,90 43,90 44,70
50,30 51,60 53,100 54,90
55,1451 56,90 57,50 59,200
60,60 63,30 65,170 66,30
67,290 68,70 69,390 70,40
72,110 73,30 77,150 78,70
79,450 80,90 81,470 82,60
83,100 84,40 88,1572 89,120
90,60 91,971 92,210 93,50
95,110 96,40 97,330 98,40
101,60 102,100 103,280 104,150
105,50 107,861 108,80 116,30
117,170 118,200 119,260 120,2763
121,330 124,30 125,1351 126,120
128,60 130,220 131,1221 132,140
133,30 134,40 142,60 144,80
146,70 147,40 161,691 162,9999
163,1001 164,90 174,60 178,120
180,100 184,460 185,50 196,40
212,40 221,350 222,50 234,70
244,230 245,40 272,40 303,100
304,30
##END=
