##TITLE=Butanoic acid, 3-methylbut-2-enyl ester
##JCAMP-DX=4.24
##DATA TYPE=MASS SPECTRUM
##ORIGIN=Zaikin V.G., TIPS RAS, Moscow, Russia
##OWNER=NIST Mass Spectrometry Data Center
Collection (C) 2014 copyright by the U.S. Secretary of Commerce
on behalf of the United States of America. All rights reserved.
##$NIST MASS SPEC NO=299118
##MOLFORM=C9 H16 O2
##MW=156
##$NIST SOURCE=MSDC
##XUNITS=M/Z
##YUNITS=RELATIVE INTENSITY
##XFACTOR=1
##YFACTOR=1
##FIRSTX=26
##LASTX=157
##FIRSTY=130
##MAXX=157
##MINX=26
##MAXY=9999
##MINY=20
##NPOINTS=42
##PEAK TABLE=(XY..XY)
26,130 27,1101 28,20 29,571
31,30 38,100 39,1161 40,551
41,4244 42,511 43,5565 44,360
45,80 50,60 51,110 52,90
53,1461 54,150 55,300 56,110
57,200 60,190 65,90 66,110
67,4575 68,8217 69,5454 70,390
71,9999 72,430 73,100 79,30
83,100 84,50 85,751 86,140
89,280 113,50 114,150 128,30
156,330 157,30
##END=
