##TITLE=11-(Dimethyldodecylsilyloxy)undec-1-ene
##JCAMP-DX=4.24
##DATA TYPE=MASS SPECTRUM
##ORIGIN=Zaikin V.G., TIPS RAS, Moscow, Russia
##OWNER=NIST Mass Spectrometry Data Center
Collection (C) 2014 copyright by the U.S. Secretary of Commerce
on behalf of the United States of America. All rights reserved.
##$NIST MASS SPEC NO=299994
##MOLFORM=C25 H52 O Si
##MW=396
##$NIST SOURCE=MSDC
##XUNITS=M/Z
##YUNITS=RELATIVE INTENSITY
##XFACTOR=1
##YFACTOR=1
##FIRSTX=26
##LASTX=381
##FIRSTY=70
##MAXX=381
##MINX=26
##MAXY=9999
##MINY=30
##NPOINTS=94
##PEAK TABLE=(XY..XY)
26,70 27,130 28,60 29,160
39,140 40,30 41,501 42,170
43,410 45,40 47,30 53,50
54,110 55,631 56,200 57,250
58,40 59,641 60,50 61,581
62,30 67,310 68,110 69,440
70,120 71,90 73,90 75,9999
76,721 77,390 79,40 81,310
82,110 83,250 84,60 85,120
87,180 88,50 89,1171 90,90
91,50 95,470 96,80 97,140
98,30 99,270 100,30 101,420
102,50 103,110 109,200 110,40
111,90 113,190 115,310 116,30
117,30 123,40 125,50 127,170
129,250 130,30 131,30 133,50
139,50 141,80 143,130 149,30
151,50 152,30 153,60 155,30
157,110 167,30 169,30 171,100
181,50 185,170 197,40 199,400
200,70 204,30 210,40 211,100
213,3664 214,691 215,190 227,5855
228,1221 229,581 230,90 255,30
273,30 381,30
##END=
