##TITLE=2-Tripropylsilyloxybut-3-yne
##JCAMP-DX=4.24
##DATA TYPE=MASS SPECTRUM
##ORIGIN=Zaikin V.G., TIPS RAS, Moscow, Russia
##OWNER=NIST Mass Spectrometry Data Center
Collection (C) 2014 copyright by the U.S. Secretary of Commerce
on behalf of the United States of America. All rights reserved.
##$NIST MASS SPEC NO=299509
##MOLFORM=C13 H26 O Si
##MW=226
##$NIST SOURCE=MSDC
##XUNITS=M/Z
##YUNITS=RELATIVE INTENSITY
##XFACTOR=1
##YFACTOR=1
##FIRSTX=26
##LASTX=185
##FIRSTY=40
##MAXX=185
##MINX=26
##MAXY=9999
##MINY=20
##NPOINTS=52
##PEAK TABLE=(XY..XY)
26,40 27,110 28,40 39,90
41,130 42,50 43,110 44,40
45,410 47,370 52,30 53,80
55,120 59,130 60,60 61,480
62,30 69,521 70,60 71,180
72,30 73,190 74,70 79,40
81,40 83,70 85,70 87,70
89,170 95,230 96,30 97,1532
98,240 99,951 100,90 101,30
111,501 112,100 113,70 115,80
125,30 127,40 139,370 140,60
141,9999 142,1141 143,360 157,20
169,80 183,1632 184,250 185,70
##END=
