##TITLE=4-Bromobenzoic acid, pent-2-en-4-ynyl ester
##JCAMP-DX=4.24
##DATA TYPE=MASS SPECTRUM
##ORIGIN=Zaikin V.G., TIPS RAS, Moscow, Russia
##OWNER=NIST Mass Spectrometry Data Center
Collection (C) 2014 copyright by the U.S. Secretary of Commerce
on behalf of the United States of America. All rights reserved.
##$NIST MASS SPEC NO=299245
##MOLFORM=C12 H9 Br O2
##MW=264
##$NIST SOURCE=MSDC
##XUNITS=M/Z
##YUNITS=RELATIVE INTENSITY
##XFACTOR=1
##YFACTOR=1
##FIRSTX=28
##LASTX=267
##FIRSTY=40
##MAXX=267
##MINX=28
##MAXY=9999
##MINY=30
##NPOINTS=36
##PEAK TABLE=(XY..XY)
28,40 39,100 50,170 51,60
63,120 64,70 65,350 74,160
75,430 76,511 77,90 81,30
104,180 105,40 115,50 128,60
129,50 131,30 139,40 140,40
141,110 155,1542 156,150 157,1602
158,130 183,9999 184,861 185,9699
186,831 187,40 200,190 202,210
264,320 265,40 266,320 267,50
##END=
