##TITLE=l-Alanine, N-(m-anisoyl)-, methyl ester
##JCAMP-DX=4.24
##DATA TYPE=MASS SPECTRUM
##ORIGIN=Zaikin V.G., TIPS RAS, Moscow, Russia
##OWNER=NIST Mass Spectrometry Data Center
Collection (C) 2014 copyright by the U.S. Secretary of Commerce
on behalf of the United States of America. All rights reserved.
##$NIST MASS SPEC NO=299706
##MOLFORM=C12 H15 N O4
##MW=237
##$NIST SOURCE=MSDC
##XUNITS=M/Z
##YUNITS=RELATIVE INTENSITY
##XFACTOR=1
##YFACTOR=1
##FIRSTX=26
##LASTX=239
##FIRSTY=10
##MAXX=239
##MINX=26
##MAXY=9999
##MINY=10
##NPOINTS=72
##PEAK TABLE=(XY..XY)
26,10 27,20 29,20 31,10
38,20 39,40 40,10 41,10
42,70 43,20 44,70 50,60
51,50 52,10 53,20 55,10
59,40 62,10 63,150 64,260
65,50 66,10 70,20 74,20
75,40 76,120 77,741 78,80
79,40 89,70 90,10 91,30
92,661 93,50 102,60 103,20
104,40 105,20 106,20 107,1061
108,110 117,10 119,20 120,40
121,50 133,70 134,30 135,9999
136,761 137,60 146,10 148,100
149,10 150,10 151,70 152,10
161,10 162,10 164,10 176,300
177,50 178,2633 179,280 180,20
205,20 206,80 223,30 235,50
236,10 237,921 238,130 239,10
##END=
