##TITLE=p-Toluic acid, 4-tetradecyl ester
##JCAMP-DX=4.24
##DATA TYPE=MASS SPECTRUM
##ORIGIN=Zaikin V.G., TIPS RAS, Moscow, Russia
##OWNER=NIST Mass Spectrometry Data Center
Collection (C) 2014 copyright by the U.S. Secretary of Commerce
on behalf of the United States of America. All rights reserved.
##$NIST MASS SPEC NO=299808
##MOLFORM=C22 H36 O2
##MW=332
##$NIST SOURCE=MSDC
##XUNITS=M/Z
##YUNITS=RELATIVE INTENSITY
##XFACTOR=1
##YFACTOR=1
##FIRSTX=26
##LASTX=289
##FIRSTY=50
##MAXX=289
##MINX=26
##MAXY=9999
##MINY=20
##NPOINTS=72
##PEAK TABLE=(XY..XY)
26,50 27,140 28,90 29,240
39,170 40,30 41,691 42,180
43,791 44,80 51,30 53,50
54,130 55,841 56,511 57,691
58,40 63,50 65,360 66,30
67,180 68,150 69,741 70,581
71,350 77,60 79,30 81,120
82,260 83,751 84,460 85,200
89,110 90,130 91,1742 92,200
93,210 95,70 96,180 97,741
98,310 99,50 105,40 107,40
110,110 111,460 112,220 113,30
118,70 119,9999 120,861 121,60
124,90 125,270 126,160 134,60
135,60 136,611 137,5525 138,501
139,120 140,80 152,20 153,80
154,60 168,130 191,30 196,1071
197,160 213,210 214,30 289,20
##END=
