##TITLE=4-Fluorobenzoic acid, but-3-yn-2-yl ester
##JCAMP-DX=4.24
##DATA TYPE=MASS SPECTRUM
##ORIGIN=Zaikin V.G., TIPS RAS, Moscow, Russia
##OWNER=NIST Mass Spectrometry Data Center
Collection (C) 2014 copyright by the U.S. Secretary of Commerce
on behalf of the United States of America. All rights reserved.
##$NIST MASS SPEC NO=299150
##MOLFORM=C11 H9 F O2
##MW=192
##$NIST SOURCE=MSDC
##XUNITS=M/Z
##YUNITS=RELATIVE INTENSITY
##XFACTOR=1
##YFACTOR=1
##FIRSTX=26
##LASTX=193
##FIRSTY=40
##MAXX=193
##MINX=26
##MAXY=9999
##MINY=30
##NPOINTS=33
##PEAK TABLE=(XY..XY)
26,40 27,220 28,30 39,40
40,50 44,110 50,220 51,240
52,320 53,791 54,30 68,50
69,180 70,30 74,90 75,641
76,60 94,130 95,1842 96,210
97,80 123,9999 124,761 125,50
133,150 140,230 141,150 146,60
147,200 149,40 164,70 192,721
193,80
##END=
