##TITLE=2-Trifluoromethylbenzoic acid, 2-chlorophenyl ester
##JCAMP-DX=4.24
##DATA TYPE=MASS SPECTRUM
##ORIGIN=Zaikin V.G., TIPS RAS, Moscow, Russia
##OWNER=NIST Mass Spectrometry Data Center
Collection (C) 2014 copyright by the U.S. Secretary of Commerce
on behalf of the United States of America. All rights reserved.
##$NIST MASS SPEC NO=299011
##MOLFORM=C14 H8 Cl F3 O2
##MW=300
##$NIST SOURCE=MSDC
##XUNITS=M/Z
##YUNITS=RELATIVE INTENSITY
##XFACTOR=1
##YFACTOR=1
##FIRSTX=28
##LASTX=302
##FIRSTY=10
##MAXX=302
##MINX=28
##MAXY=9999
##MINY=10
##NPOINTS=29
##PEAK TABLE=(XY..XY)
28,10 39,40 50,70 51,30
63,100 64,60 69,20 73,90
74,40 75,180 76,40 95,230
99,170 101,50 119,30 125,170
126,100 127,40 128,110 130,30
144,50 145,2312 146,200 151,30
173,9999 174,731 175,40 300,120
302,40
##END=
