##TITLE=o-Anisic acid, 2-pentadecyl ester
##JCAMP-DX=4.24
##DATA TYPE=MASS SPECTRUM
##ORIGIN=Zaikin V.G., TIPS RAS, Moscow, Russia
##OWNER=NIST Mass Spectrometry Data Center
Collection (C) 2014 copyright by the U.S. Secretary of Commerce
on behalf of the United States of America. All rights reserved.
##$NIST MASS SPEC NO=299765
##MOLFORM=C23 H38 O3
##MW=362
##$NIST SOURCE=MSDC
##XUNITS=M/Z
##YUNITS=RELATIVE INTENSITY
##XFACTOR=1
##YFACTOR=1
##FIRSTX=26
##LASTX=362
##FIRSTY=90
##MAXX=362
##MINX=26
##MAXY=9999
##MINY=20
##NPOINTS=84
##PEAK TABLE=(XY..XY)
26,90 27,200 28,20 29,490
36,40 38,30 39,240 40,80
41,1191 42,270 43,1481 44,200
45,30 50,70 51,140 52,30
53,90 54,140 55,1231 56,480
57,951 58,80 63,80 64,120
65,100 66,30 67,240 68,150
69,721 70,370 71,380 76,100
77,1241 78,190 79,370 80,30
81,170 82,180 83,490 84,210
85,190 91,50 92,511 93,80
94,60 95,90 96,100 97,420
98,130 99,30 104,40 105,901
106,250 107,160 108,90 109,50
110,50 111,200 112,70 118,50
119,50 120,200 121,180 122,90
123,2863 124,220 125,90 126,40
133,120 134,420 135,9999 136,981
137,100 138,40 139,30 151,140
152,5535 153,5865 154,521 155,50
179,110 210,60 227,40 362,110
##END=
