##TITLE=4-Bromobenzoic acid, 3-methylbut-2-enyl ester
##JCAMP-DX=4.24
##DATA TYPE=MASS SPECTRUM
##ORIGIN=Zaikin V.G., TIPS RAS, Moscow, Russia
##OWNER=NIST Mass Spectrometry Data Center
Collection (C) 2014 copyright by the U.S. Secretary of Commerce
on behalf of the United States of America. All rights reserved.
##$NIST MASS SPEC NO=299244
##MOLFORM=C12 H13 Br O2
##MW=268
##$NIST SOURCE=MSDC
##XUNITS=M/Z
##YUNITS=RELATIVE INTENSITY
##XFACTOR=1
##YFACTOR=1
##FIRSTX=26
##LASTX=271
##FIRSTY=70
##MAXX=271
##MINX=26
##MAXY=9999
##MINY=10
##NPOINTS=83
##PEAK TABLE=(XY..XY)
26,70 27,300 28,10 29,240
37,30 38,120 39,631 40,330
41,2963 42,270 43,90 44,190
49,40 50,871 51,300 52,100
53,1061 54,180 55,150 56,40
57,100 63,50 65,160 66,90
67,3053 68,9999 69,5635 70,330
73,60 74,410 75,1341 76,1481
77,390 78,70 79,90 80,120
81,50 82,120 83,70 84,30
85,1311 86,70 91,30 103,30
104,360 105,130 115,30 117,40
121,30 127,80 128,50 129,100
130,150 131,40 143,30 144,40
145,120 154,30 155,1982 156,250
157,1952 158,210 171,30 172,120
183,9879 184,811 185,9639 186,771
187,40 189,40 200,490 201,180
202,521 203,160 225,30 226,30
228,30 239,90 241,80 268,400
269,50 270,400 271,40
##END=
