##TITLE=1-Trimethylsilyoxylundec-2-ene
##JCAMP-DX=4.24
##DATA TYPE=MASS SPECTRUM
##ORIGIN=Zaikin V.G., TIPS RAS, Moscow, Russia
##OWNER=NIST Mass Spectrometry Data Center
Collection (C) 2014 copyright by the U.S. Secretary of Commerce
on behalf of the United States of America. All rights reserved.
##$NIST MASS SPEC NO=299478
##MOLFORM=C14 H30 O Si
##MW=242
##$NIST SOURCE=MSDC
##XUNITS=M/Z
##YUNITS=RELATIVE INTENSITY
##XFACTOR=1
##YFACTOR=1
##FIRSTX=26
##LASTX=243
##FIRSTY=80
##MAXX=243
##MINX=26
##MAXY=9999
##MINY=30
##NPOINTS=93
##PEAK TABLE=(XY..XY)
26,80 27,220 28,120 29,310
39,230 40,40 41,741 42,130
43,490 44,80 45,290 47,210
53,110 54,370 55,511 56,110
57,140 58,40 59,260 60,50
61,320 65,30 66,70 67,511
68,360 69,250 70,60 71,50
72,80 73,6115 74,581 75,6375
76,460 77,260 79,90 80,40
81,420 82,621 83,170 84,30
85,90 87,40 89,180 91,340
92,30 93,30 95,440 96,360
97,100 99,250 100,30 101,791
102,70 103,240 109,210 110,160
111,60 113,300 114,50 115,440
116,260 117,50 123,70 124,150
127,110 129,9999 130,1151 131,390
141,60 142,50 143,2072 144,280
145,80 151,290 152,180 155,40
157,170 169,40 171,320 172,40
185,771 186,110 187,30 197,70
199,551 200,90 213,80 227,1882
228,360 229,90 241,30 242,511
243,100
##END=
