##TITLE=4-Nitrobenzoic acid, 2-methyloct-5-yn-4-yl ester
##JCAMP-DX=4.24
##DATA TYPE=MASS SPECTRUM
##ORIGIN=Zaikin V.G., TIPS RAS, Moscow, Russia
##OWNER=NIST Mass Spectrometry Data Center
Collection (C) 2014 copyright by the U.S. Secretary of Commerce
on behalf of the United States of America. All rights reserved.
##$NIST MASS SPEC NO=299269
##MOLFORM=C16 H19 N O4
##MW=289
##$NIST SOURCE=MSDC
##XUNITS=M/Z
##YUNITS=RELATIVE INTENSITY
##XFACTOR=1
##YFACTOR=1
##FIRSTX=27
##LASTX=289
##FIRSTY=100
##MAXX=289
##MINX=27
##MAXY=9999
##MINY=20
##NPOINTS=85
##PEAK TABLE=(XY..XY)
27,100 28,50 29,120 30,40
39,220 40,40 41,501 42,40
43,400 44,110 50,220 51,120
52,60 53,200 54,30 55,330
56,60 57,150 63,80 64,90
65,320 66,120 67,220 68,80
69,280 70,30 74,70 75,230
76,771 77,561 78,130 79,1351
80,380 81,581 82,50 83,150
91,721 92,671 93,1952 94,360
95,110 96,30 97,80 98,60
103,60 104,1632 105,340 106,40
107,2462 108,230 109,50 120,1031
121,320 122,490 123,100 124,60
127,30 134,260 135,30 136,30
137,180 138,30 139,270 150,9999
151,2102 152,200 153,20 155,30
167,70 172,40 200,70 201,30
203,30 204,70 218,150 219,160
232,180 233,170 234,40 246,2573
247,501 248,60 260,70 274,180
289,120
##END=
