##TITLE=1-Dimethyldodecylsilyloxy-3-methylbut-2-ene
##JCAMP-DX=4.24
##DATA TYPE=MASS SPECTRUM
##ORIGIN=Zaikin V.G., TIPS RAS, Moscow, Russia
##OWNER=NIST Mass Spectrometry Data Center
Collection (C) 2014 copyright by the U.S. Secretary of Commerce
on behalf of the United States of America. All rights reserved.
##$NIST MASS SPEC NO=299551
##MOLFORM=C19 H40 O Si
##MW=312
##$NIST SOURCE=MSDC
##XUNITS=M/Z
##YUNITS=RELATIVE INTENSITY
##XFACTOR=1
##YFACTOR=1
##FIRSTX=26
##LASTX=313
##FIRSTY=70
##MAXX=313
##MINX=26
##MAXY=9999
##MINY=10
##NPOINTS=121
##PEAK TABLE=(XY..XY)
26,70 27,150 28,70 29,180
31,10 36,40 37,10 38,30
39,190 40,60 41,711 42,160
43,490 44,90 45,110 47,120
50,20 51,20 52,10 53,130
54,50 55,290 56,140 57,210
58,50 59,1231 60,120 61,991
62,60 63,40 64,10 65,20
66,10 67,220 68,320 69,601
70,110 71,70 72,30 73,220
74,140 75,9999 76,711 77,380
78,10 79,20 81,50 82,20
83,90 84,40 85,150 86,20
87,210 88,40 89,280 90,20
91,20 93,40 95,30 96,10
97,130 98,20 99,340 100,40
101,430 102,40 103,70 109,30
110,10 111,90 112,10 113,320
114,30 115,150 116,20 117,30
123,10 125,40 126,10 127,350
128,60 129,2362 130,280 131,110
133,10 139,10 141,140 142,30
143,1341 144,260 145,991 146,110
147,40 153,10 155,100 156,10
157,20 169,20 171,10 183,10
193,10 211,100 212,10 224,40
225,20 226,20 227,100 228,20
229,330 230,50 231,10 247,10
255,811 256,150 257,40 295,10
297,821 298,180 299,40 312,80
313,10
##END=
