##TITLE=(Phenylthio)acetic acid, decyl ester
##JCAMP-DX=4.24
##DATA TYPE=MASS SPECTRUM
##ORIGIN=Zaikin V.G., TIPS RAS, Moscow, Russia
##OWNER=NIST Mass Spectrometry Data Center
Collection (C) 2014 copyright by the U.S. Secretary of Commerce
on behalf of the United States of America. All rights reserved.
##$NIST MASS SPEC NO=299847
##MOLFORM=C18 H28 O2 S
##MW=308
##$NIST SOURCE=MSDC
##XUNITS=M/Z
##YUNITS=RELATIVE INTENSITY
##XFACTOR=1
##YFACTOR=1
##FIRSTX=26
##LASTX=311
##FIRSTY=40
##MAXX=311
##MINX=26
##MAXY=9999
##MINY=30
##NPOINTS=73
##PEAK TABLE=(XY..XY)
26,40 27,90 28,80 29,200
36,130 38,30 39,210 41,761
42,160 43,1151 44,240 45,761
46,30 47,30 50,90 51,230
52,40 53,60 54,60 55,891
56,260 57,991 58,40 63,40
65,330 66,170 67,130 68,100
69,561 70,210 71,350 73,30
74,30 76,30 77,440 78,220
79,230 81,80 82,130 83,340
84,180 85,260 91,170 94,30
95,60 96,30 97,190 98,40
105,70 108,120 109,1011 110,1031
111,130 112,80 121,320 122,120
123,8117 124,1732 125,470 126,110
150,80 151,440 152,70 168,9999
169,1221 170,561 171,50 185,470
186,50 308,8568 309,1932 310,621
311,100
##END=
