##TITLE=Hexanoic acid, hex-4-yn-3-yl ester
##JCAMP-DX=4.24
##DATA TYPE=MASS SPECTRUM
##ORIGIN=Zaikin V.G., TIPS RAS, Moscow, Russia
##OWNER=NIST Mass Spectrometry Data Center
Collection (C) 2014 copyright by the U.S. Secretary of Commerce
on behalf of the United States of America. All rights reserved.
##$NIST MASS SPEC NO=299354
##MOLFORM=C12 H20 O2
##MW=196
##$NIST SOURCE=MSDC
##XUNITS=M/Z
##YUNITS=RELATIVE INTENSITY
##XFACTOR=1
##YFACTOR=1
##FIRSTX=26
##LASTX=197
##FIRSTY=160
##MAXX=197
##MINX=26
##MAXY=9999
##MINY=10
##NPOINTS=81
##PEAK TABLE=(XY..XY)
26,160 27,861 28,10 29,901
37,30 38,80 39,1041 40,290
41,2242 42,921 43,4474 44,320
45,60 50,130 51,280 52,310
53,1552 54,200 55,931 56,210
57,240 60,400 61,50 63,80
65,490 66,330 67,460 68,100
69,1221 70,310 71,3864 72,240
73,280 74,40 77,831 78,200
79,9188 80,5194 81,3594 82,340
83,791 84,60 87,120 89,50
93,50 95,60 96,50 97,871
98,1481 99,9999 100,691 101,60
107,160 108,30 109,40 111,190
112,60 115,80 116,30 117,460
118,30 121,50 122,70 123,30
124,80 125,2523 126,511 127,50
135,40 139,531 140,310 141,30
149,40 153,340 154,40 167,751
168,200 181,2062 182,260 196,1491
197,200
##END=
