##TITLE=l-Proline, N-(2,6-difluorobenzoyl)-, methyl ester
##JCAMP-DX=4.24
##DATA TYPE=MASS SPECTRUM
##ORIGIN=Zaikin V.G., TIPS RAS, Moscow, Russia
##OWNER=NIST Mass Spectrometry Data Center
Collection (C) 2014 copyright by the U.S. Secretary of Commerce
on behalf of the United States of America. All rights reserved.
##$NIST MASS SPEC NO=299662
##MOLFORM=C13 H13 F2 N O3
##MW=269
##$NIST SOURCE=MSDC
##XUNITS=M/Z
##YUNITS=RELATIVE INTENSITY
##XFACTOR=1
##YFACTOR=1
##FIRSTX=27
##LASTX=270
##FIRSTY=60
##MAXX=270
##MINX=27
##MAXY=9999
##MINY=30
##NPOINTS=28
##PEAK TABLE=(XY..XY)
27,60 28,30 39,90 40,40
41,300 42,140 44,50 59,50
62,40 63,390 68,110 69,80
93,70 94,50 112,100 113,1051
114,130 123,30 128,70 140,80
141,9999 142,641 143,40 181,30
210,3263 211,380 269,240 270,30
##END=
