##TITLE=o-Toluic acid, 5-tridecyl ester
##JCAMP-DX=4.24
##DATA TYPE=MASS SPECTRUM
##ORIGIN=Zaikin V.G., TIPS RAS, Moscow, Russia
##OWNER=NIST Mass Spectrometry Data Center
Collection (C) 2014 copyright by the U.S. Secretary of Commerce
on behalf of the United States of America. All rights reserved.
##$NIST MASS SPEC NO=299793
##MOLFORM=C21 H34 O2
##MW=318
##$NIST SOURCE=MSDC
##XUNITS=M/Z
##YUNITS=RELATIVE INTENSITY
##XFACTOR=1
##YFACTOR=1
##FIRSTX=26
##LASTX=318
##FIRSTY=70
##MAXX=318
##MINX=26
##MAXY=9999
##MINY=20
##NPOINTS=75
##PEAK TABLE=(XY..XY)
26,70 27,210 28,170 29,430
39,270 40,40 41,1111 42,250
43,1231 44,120 50,40 51,70
53,80 54,180 55,1301 56,691
57,1281 58,70 63,90 64,30
65,621 66,50 67,240 68,150
69,991 70,671 71,631 72,30
77,160 79,110 81,160 82,220
83,771 84,430 85,390 89,210
90,420 91,3033 92,320 93,210
95,80 96,160 97,651 98,290
99,80 105,80 109,30 110,100
111,370 112,190 113,50 118,2152
119,9939 120,921 121,60 124,50
125,210 126,100 127,30 129,40
134,20 135,220 136,9999 137,2583
138,240 139,70 140,60 141,30
153,30 154,120 182,661 183,100
199,220 205,20 318,30
##END=
