##TITLE=Octanoic acid, tridec-2-ynyl ester
##JCAMP-DX=4.24
##DATA TYPE=MASS SPECTRUM
##ORIGIN=Zaikin V.G., TIPS RAS, Moscow, Russia
##OWNER=NIST Mass Spectrometry Data Center
Collection (C) 2014 copyright by the U.S. Secretary of Commerce
on behalf of the United States of America. All rights reserved.
##$NIST MASS SPEC NO=299349
##MOLFORM=C21 H38 O2
##MW=322
##$NIST SOURCE=MSDC
##XUNITS=M/Z
##YUNITS=RELATIVE INTENSITY
##XFACTOR=1
##YFACTOR=1
##FIRSTX=26
##LASTX=293
##FIRSTY=140
##MAXX=293
##MINX=26
##MAXY=9999
##MINY=30
##NPOINTS=112
##PEAK TABLE=(XY..XY)
26,140 27,501 28,340 29,871
38,40 39,460 40,130 41,1842
42,430 43,2533 44,160 45,40
50,40 51,100 52,290 53,450
54,330 55,1862 56,390 57,9999
58,440 59,140 60,130 65,200
66,250 67,1221 68,290 69,701
70,380 71,420 72,50 73,110
77,360 78,130 79,1121 80,360
81,1021 82,420 83,771 84,390
85,170 86,50 87,40 89,40
91,410 92,80 93,721 94,400
95,941 96,300 97,801 98,390
99,100 100,90 101,80 105,90
106,30 107,340 108,220 109,891
110,200 111,1762 112,240 113,100
114,110 115,50 119,30 121,330
122,110 123,120 124,180 125,551
126,150 127,8097 128,761 129,60
135,220 136,120 137,60 138,140
139,90 140,30 141,40 142,60
143,70 145,160 149,100 150,40
151,120 152,250 153,100 155,50
163,30 167,110 168,40 169,30
177,110 178,120 179,50 181,90
182,60 195,791 196,460 197,100
209,150 223,70 224,40 237,50
251,60 265,30 279,40 293,40
##END=
