##TITLE=Cyclobutanecarboxylic acid, hex-4-yn-3-yl ester
##JCAMP-DX=4.24
##DATA TYPE=MASS SPECTRUM
##ORIGIN=Zaikin V.G., TIPS RAS, Moscow, Russia
##OWNER=NIST Mass Spectrometry Data Center
Collection (C) 2014 copyright by the U.S. Secretary of Commerce
on behalf of the United States of America. All rights reserved.
##$NIST MASS SPEC NO=299131
##MOLFORM=C11 H16 O2
##MW=180
##$NIST SOURCE=MSDC
##XUNITS=M/Z
##YUNITS=RELATIVE INTENSITY
##XFACTOR=1
##YFACTOR=1
##FIRSTX=25
##LASTX=180
##FIRSTY=30
##MAXX=180
##MINX=25
##MAXY=9999
##MINY=10
##NPOINTS=64
##PEAK TABLE=(XY..XY)
25,30 26,280 27,1502 28,10
29,1191 37,40 38,140 39,1441
40,260 41,1562 42,70 43,320
44,250 50,190 51,390 52,360
53,2132 54,410 55,9999 56,450
57,140 62,20 63,80 65,450
66,310 67,270 68,40 69,390
73,70 77,741 78,140 79,5314
80,2813 81,3173 82,420 83,5825
84,290 91,30 93,40 95,80
96,50 97,340 98,80 99,60
100,30 101,260 107,40 109,150
110,30 111,30 119,60 123,170
124,90 125,1081 126,430 134,40
137,280 147,30 151,470 152,1512
153,130 165,741 166,70 180,110
##END=
