##TITLE=2-Trihexylsilyloxyoct-3-ene
##JCAMP-DX=4.24
##DATA TYPE=MASS SPECTRUM
##ORIGIN=Zaikin V.G., TIPS RAS, Moscow, Russia
##OWNER=NIST Mass Spectrometry Data Center
Collection (C) 2014 copyright by the U.S. Secretary of Commerce
on behalf of the United States of America. All rights reserved.
##$NIST MASS SPEC NO=299524
##MOLFORM=C26 H54 O Si
##MW=410
##$NIST SOURCE=MSDC
##XUNITS=M/Z
##YUNITS=RELATIVE INTENSITY
##XFACTOR=1
##YFACTOR=1
##FIRSTX=26
##LASTX=411
##FIRSTY=50
##MAXX=411
##MINX=26
##MAXY=9999
##MINY=30
##NPOINTS=106
##PEAK TABLE=(XY..XY)
26,50 27,30 29,30 39,60
41,100 42,40 43,70 45,40
47,60 53,30 54,30 55,170
56,70 57,40 59,90 61,200
67,70 68,50 69,130 71,50
73,190 74,40 75,320 77,30
79,30 81,90 83,190 84,30
85,350 86,40 87,180 89,190
97,60 99,200 100,30 101,521
102,60 103,100 109,30 110,60
111,140 112,30 113,1962 114,280
115,420 116,50 127,100 128,50
129,380 130,50 131,5565 132,661
133,210 139,30 141,60 143,40
155,160 156,30 157,320 158,40
159,80 169,70 171,60 173,60
183,180 184,30 185,120 197,501
198,140 199,671 200,120 201,30
211,30 213,60 215,9699 216,1822
217,511 218,40 225,40 227,180
228,30 239,170 240,40 241,8968
242,1852 243,691 244,100 253,50
255,60 257,40 267,80 269,240
270,50 281,110 282,30 283,110
323,50 325,9999 326,2833 327,991
328,170 353,50 395,290 396,90
410,120 411,30
##END=
