##TITLE=3-Trifluoromethylbenzoic acid, 2-isopropoxyphenyl ester
##JCAMP-DX=4.24
##DATA TYPE=MASS SPECTRUM
##ORIGIN=Zaikin V.G., TIPS RAS, Moscow, Russia
##OWNER=NIST Mass Spectrometry Data Center
Collection (C) 2014 copyright by the U.S. Secretary of Commerce
on behalf of the United States of America. All rights reserved.
##$NIST MASS SPEC NO=299042
##MOLFORM=C17 H15 F3 O3
##MW=324
##$NIST SOURCE=MSDC
##XUNITS=M/Z
##YUNITS=RELATIVE INTENSITY
##XFACTOR=1
##YFACTOR=1
##FIRSTX=27
##LASTX=325
##FIRSTY=30
##MAXX=325
##MINX=27
##MAXY=9999
##MINY=10
##NPOINTS=30
##PEAK TABLE=(XY..XY)
27,30 28,10 39,30 41,70
43,70 50,30 51,30 52,70
53,20 75,50 80,50 81,140
95,100 109,110 110,80 121,30
125,80 126,130 144,40 145,1752
146,160 155,60 173,9999 174,751
175,40 282,511 283,80 305,60
324,450 325,90
##END=
