##TITLE=2-Trifluoromethylbenzoic acid, 2,7-dimethyloct-7-en-5-yn-4-yl ester
##JCAMP-DX=4.24
##DATA TYPE=MASS SPECTRUM
##ORIGIN=Zaikin V.G., TIPS RAS, Moscow, Russia
##OWNER=NIST Mass Spectrometry Data Center
Collection (C) 2014 copyright by the U.S. Secretary of Commerce
on behalf of the United States of America. All rights reserved.
##$NIST MASS SPEC NO=299406
##MOLFORM=C18 H19 F3 O2
##MW=324
##$NIST SOURCE=MSDC
##XUNITS=M/Z
##YUNITS=RELATIVE INTENSITY
##XFACTOR=1
##YFACTOR=1
##FIRSTX=27
##LASTX=324
##FIRSTY=130
##MAXX=324
##MINX=27
##MAXY=9999
##MINY=30
##NPOINTS=62
##PEAK TABLE=(XY..XY)
27,130 28,30 29,70 39,190
40,40 41,370 42,30 43,280
50,80 51,120 52,50 53,100
55,100 57,50 63,60 64,30
65,140 66,50 67,80 69,50
74,30 75,80 76,40 77,340
78,80 79,210 80,30 81,200
91,621 92,230 93,230 94,40
95,160 96,40 103,40 104,40
105,140 106,30 107,100 109,30
117,50 119,841 120,90 123,30
125,80 126,100 127,30 133,50
134,140 135,30 144,30 145,1341
146,140 151,90 173,9999 174,661
175,30 190,90 261,60 281,1822
282,270 324,80
##END=
