##TITLE=l-Phenylalanine, N-(4-bromobenzoyl)-, methyl ester
##JCAMP-DX=4.24
##DATA TYPE=MASS SPECTRUM
##ORIGIN=Zaikin V.G., TIPS RAS, Moscow, Russia
##OWNER=NIST Mass Spectrometry Data Center
Collection (C) 2014 copyright by the U.S. Secretary of Commerce
on behalf of the United States of America. All rights reserved.
##$NIST MASS SPEC NO=299618
##MOLFORM=C17 H16 Br N O3
##MW=361
##$NIST SOURCE=MSDC
##XUNITS=M/Z
##YUNITS=RELATIVE INTENSITY
##XFACTOR=1
##YFACTOR=1
##FIRSTX=28
##LASTX=305
##FIRSTY=50
##MAXX=305
##MINX=28
##MAXY=9999
##MINY=30
##NPOINTS=52
##PEAK TABLE=(XY..XY)
28,50 39,60 44,80 50,180
51,90 59,30 63,40 65,220
74,70 75,360 76,561 77,200
78,50 80,50 82,50 89,70
90,60 91,991 92,200 102,70
103,190 104,511 105,120 117,120
118,100 119,50 130,50 131,1151
132,130 144,50 155,1101 156,110
157,1091 158,90 161,591 162,9999
163,971 164,90 165,30 178,50
183,5665 184,440 185,5575 186,400
199,50 201,50 270,60 272,60
302,300 303,70 304,300 305,40
##END=
