##TITLE=Cyclopropanecarboxyllic acid, tridec-2-ynyl ester
##JCAMP-DX=4.24
##DATA TYPE=MASS SPECTRUM
##ORIGIN=Zaikin V.G., TIPS RAS, Moscow, Russia
##OWNER=NIST Mass Spectrometry Data Center
Collection (C) 2014 copyright by the U.S. Secretary of Commerce
on behalf of the United States of America. All rights reserved.
##$NIST MASS SPEC NO=299382
##MOLFORM=C17 H28 O2
##MW=264
##$NIST SOURCE=MSDC
##XUNITS=M/Z
##YUNITS=RELATIVE INTENSITY
##XFACTOR=1
##YFACTOR=1
##FIRSTX=26
##LASTX=138
##FIRSTY=60
##MAXX=138
##MINX=26
##MAXY=9999
##MINY=20
##NPOINTS=51
##PEAK TABLE=(XY..XY)
26,60 27,190 28,120 29,300
39,380 40,100 41,1351 42,160
43,581 44,50 45,30 51,60
52,140 53,170 54,120 55,501
56,120 57,150 65,80 66,100
67,310 68,100 69,9999 70,360
71,50 77,140 78,50 79,390
80,100 81,240 82,60 83,60
84,30 87,100 91,140 93,200
94,90 95,190 96,30 97,60
105,20 107,60 108,40 109,50
110,40 111,40 121,40 123,30
124,30 137,100 138,50
##END=
