##TITLE=4-Cyanobenzoic acid, pentadecyl ester
##JCAMP-DX=4.24
##DATA TYPE=MASS SPECTRUM
##ORIGIN=Zaikin V.G., TIPS RAS, Moscow, Russia
##OWNER=NIST Mass Spectrometry Data Center
Collection (C) 2014 copyright by the U.S. Secretary of Commerce
on behalf of the United States of America. All rights reserved.
##$NIST MASS SPEC NO=299839
##MOLFORM=C23 H35 N O2
##MW=357
##$NIST SOURCE=MSDC
##XUNITS=M/Z
##YUNITS=RELATIVE INTENSITY
##XFACTOR=1
##YFACTOR=1
##FIRSTX=26
##LASTX=358
##FIRSTY=110
##MAXX=358
##MINX=26
##MAXY=9999
##MINY=30
##NPOINTS=168
##PEAK TABLE=(XY..XY)
26,110 27,460 28,450 29,1141
37,30 38,70 39,541 40,130
41,3564 42,1061 43,4935 44,270
50,210 51,360 52,100 53,260
54,881 55,5334 56,2973 57,4505
58,190 63,30 65,60 66,80
67,1301 68,1562 69,5184 70,3183
71,2032 72,90 74,90 75,551
76,470 77,150 78,30 79,140
80,60 81,791 82,2062 83,5625
84,2372 85,1211 86,60 91,80
93,40 94,30 95,430 96,951
97,4685 98,1592 99,260 101,130
102,4414 103,1151 104,330 105,70
109,190 110,460 111,2332 112,1001
113,140 117,60 119,80 121,30
123,100 124,260 125,1101 126,611
127,100 129,40 130,9999 131,1552
132,190 133,70 137,40 138,150
139,380 140,420 141,70 144,190
145,260 146,80 147,501 148,7537
149,1792 150,440 151,90 152,80
153,200 154,280 155,30 158,180
159,420 160,70 161,90 164,40
166,30 167,80 168,110 172,80
173,130 174,60 175,100 176,571
177,110 178,120 181,50 182,641
183,90 185,50 186,50 187,90
188,250 189,340 190,120 191,30
200,30 201,50 202,611 203,360
204,80 205,50 210,631 211,100
215,50 216,190 217,160 218,70
219,30 229,40 230,120 231,60
232,40 233,30 243,40 244,150
245,50 256,30 257,40 258,160
259,60 260,30 270,70 271,50
272,140 273,160 274,40 284,40
285,40 286,220 287,430 288,80
300,501 301,761 302,160 312,40
313,40 314,761 315,851 316,200
328,811 329,611 330,110 342,180
343,30 356,220 357,681 358,150
##END=
