##TITLE=o-Toluic acid, 3-tetradecyl ester
##JCAMP-DX=4.24
##DATA TYPE=MASS SPECTRUM
##ORIGIN=Zaikin V.G., TIPS RAS, Moscow, Russia
##OWNER=NIST Mass Spectrometry Data Center
Collection (C) 2014 copyright by the U.S. Secretary of Commerce
on behalf of the United States of America. All rights reserved.
##$NIST MASS SPEC NO=299795
##MOLFORM=C22 H36 O2
##MW=332
##$NIST SOURCE=MSDC
##XUNITS=M/Z
##YUNITS=RELATIVE INTENSITY
##XFACTOR=1
##YFACTOR=1
##FIRSTX=26
##LASTX=332
##FIRSTY=60
##MAXX=332
##MINX=26
##MAXY=9999
##MINY=20
##NPOINTS=69
##PEAK TABLE=(XY..XY)
26,60 27,180 28,150 29,390
39,220 40,30 41,1001 42,230
43,1251 44,110 50,30 51,50
53,70 54,130 55,1161 56,541
57,1181 58,50 63,70 65,470
66,40 67,200 68,150 69,811
70,511 71,601 72,50 77,110
79,80 81,120 82,180 83,621
84,320 85,380 89,140 90,310
91,2112 92,220 93,210 95,70
96,110 97,551 98,190 99,60
105,60 110,60 111,290 112,120
113,30 118,1952 119,6856 120,611
121,40 124,30 125,120 126,70
135,150 136,9999 137,2713 138,250
139,50 140,40 154,20 168,50
177,20 196,280 197,40 213,90
332,20
##END=
