##TITLE=Dichloroacetic acid, hex-4-yn-3-yl ester
##JCAMP-DX=4.24
##DATA TYPE=MASS SPECTRUM
##ORIGIN=Zaikin V.G., TIPS RAS, Moscow, Russia
##OWNER=NIST Mass Spectrometry Data Center
Collection (C) 2014 copyright by the U.S. Secretary of Commerce
on behalf of the United States of America. All rights reserved.
##$NIST MASS SPEC NO=299432
##MOLFORM=C8 H10 Cl2 O2
##MW=208
##$NIST SOURCE=MSDC
##XUNITS=M/Z
##YUNITS=RELATIVE INTENSITY
##XFACTOR=1
##YFACTOR=1
##FIRSTX=25
##LASTX=197
##FIRSTY=30
##MAXX=197
##MINX=25
##MAXY=9999
##MINY=30
##NPOINTS=87
##PEAK TABLE=(XY..XY)
25,30 26,300 27,1491 29,1081
35,110 36,701 37,150 38,551
39,2623 40,571 41,4134 42,170
43,1732 44,360 45,40 47,170
48,480 49,170 50,561 51,1181
52,961 53,4274 54,300 55,721
56,60 57,731 58,40 61,40
62,100 63,300 64,70 65,1081
66,661 67,801 68,110 69,3443
70,150 74,50 75,40 76,1041
77,1822 78,661 79,9999 80,5334
81,7607 82,531 83,3504 84,140
85,1852 86,60 87,1051 88,40
89,330 90,30 95,60 96,40
97,621 98,220 99,30 107,40
109,50 110,80 111,150 112,50
113,90 115,210 117,80 123,30
125,250 132,30 143,110 145,120
151,861 152,40 153,551 155,80
172,30 173,4675 174,340 175,1512
176,110 179,260 181,160 193,541
194,30 195,350 197,50
##END=
