##TITLE=3-Chloro-1-trihexylsilyloxyprop-2-ene
##JCAMP-DX=4.24
##DATA TYPE=MASS SPECTRUM
##ORIGIN=Zaikin V.G., TIPS RAS, Moscow, Russia
##OWNER=NIST Mass Spectrometry Data Center
Collection (C) 2014 copyright by the U.S. Secretary of Commerce
on behalf of the United States of America. All rights reserved.
##$NIST MASS SPEC NO=299530
##MOLFORM=C21 H43 Cl O Si
##MW=374
##$NIST SOURCE=MSDC
##XUNITS=M/Z
##YUNITS=RELATIVE INTENSITY
##XFACTOR=1
##YFACTOR=1
##FIRSTX=27
##LASTX=293
##FIRSTY=30
##MAXX=293
##MINX=27
##MAXY=9999
##MINY=30
##NPOINTS=103
##PEAK TABLE=(XY..XY)
27,30 29,30 39,80 41,220
42,70 43,170 45,70 47,40
54,30 55,200 56,90 57,100
59,120 61,90 63,60 65,80
67,120 69,100 71,60 73,120
75,310 77,80 79,200 81,270
82,30 83,290 84,90 85,501
86,50 87,150 91,160 93,440
94,40 95,270 97,100 98,40
99,170 101,430 102,40 105,130
107,460 108,40 109,230 111,220
112,30 113,260 114,30 115,180
117,90 119,831 120,130 121,3624
122,330 123,1241 124,100 125,90
127,150 129,310 130,40 131,140
133,140 134,50 135,681 136,80
137,260 139,60 141,160 143,30
145,110 147,220 148,30 149,551
150,60 151,190 161,40 163,280
164,30 165,120 169,180 171,80
175,70 177,40 179,70 195,120
196,40 197,30 199,90 203,90
205,2593 206,400 207,931 208,130
209,40 215,30 223,160 224,30
279,260 280,70 289,9999 290,2162
291,3814 292,791 293,180
##END=
