##TITLE=Glycine, N-(4-fluorobenzoyl)-, methyl ester
##JCAMP-DX=4.24
##DATA TYPE=MASS SPECTRUM
##ORIGIN=Zaikin V.G., TIPS RAS, Moscow, Russia
##OWNER=NIST Mass Spectrometry Data Center
Collection (C) 2014 copyright by the U.S. Secretary of Commerce
on behalf of the United States of America. All rights reserved.
##$NIST MASS SPEC NO=299604
##MOLFORM=C10 H10 F N O3
##MW=211
##$NIST SOURCE=MSDC
##XUNITS=M/Z
##YUNITS=RELATIVE INTENSITY
##XFACTOR=1
##YFACTOR=1
##FIRSTX=28
##LASTX=212
##FIRSTY=10
##MAXX=212
##MINX=28
##MAXY=9999
##MINY=10
##NPOINTS=28
##PEAK TABLE=(XY..XY)
28,10 29,30 44,50 50,80
51,60 56,30 57,40 59,40
68,40 69,90 74,60 75,541
76,60 93,30 94,150 95,2102
96,180 122,60 123,9999 124,641
125,40 151,20 152,2002 153,170
179,511 180,150 211,711 212,90
##END=
