##TITLE=Trichloroacetic acid, tridec-2-ynyl ester
##JCAMP-DX=4.24
##DATA TYPE=MASS SPECTRUM
##ORIGIN=Zaikin V.G., TIPS RAS, Moscow, Russia
##OWNER=NIST Mass Spectrometry Data Center
Collection (C) 2014 copyright by the U.S. Secretary of Commerce
on behalf of the United States of America. All rights reserved.
##$NIST MASS SPEC NO=299262
##MOLFORM=C15 H23 Cl3 O2
##MW=340
##$NIST SOURCE=MSDC
##XUNITS=M/Z
##YUNITS=RELATIVE INTENSITY
##XFACTOR=1
##YFACTOR=1
##FIRSTX=25
##LASTX=288
##FIRSTY=40
##MAXX=288
##MINX=25
##MAXY=9999
##MINY=20
##NPOINTS=187
##PEAK TABLE=(XY..XY)
25,40 26,320 27,1391 28,20
29,2683 30,50 35,270 36,1742
37,140 38,681 39,1792 40,490
41,6736 42,1291 43,8307 44,951
45,40 47,190 48,80 49,110
50,260 51,771 52,1632 53,2563
54,2012 55,7637 56,1962 57,3383
58,150 61,40 62,30 63,130
64,90 65,1141 66,1892 67,6285
68,1932 69,6305 70,1441 71,1431
72,70 73,100 75,90 76,60
77,2382 78,861 79,9529 80,3313
81,7226 82,3784 83,4805 84,1151
85,871 86,70 87,210 88,180
89,220 90,70 91,2292 92,611
93,9999 94,5464 95,8067 96,2402
97,1311 98,230 99,150 101,100
102,50 103,100 104,40 105,531
106,170 107,4144 108,3784 109,2653
110,2032 111,751 112,991 113,120
114,140 115,240 116,30 117,2783
118,40 119,2933 120,120 121,5805
122,1091 123,821 124,581 125,180
126,60 127,90 128,60 129,120
130,60 131,80 132,240 133,160
134,160 135,3063 136,751 137,380
138,150 139,160 141,90 143,50
144,70 145,711 146,90 147,290
148,40 149,1522 150,260 151,160
152,140 153,70 155,40 157,80
158,30 159,80 160,30 161,40
163,390 164,50 165,80 169,90
171,120 172,40 173,60 174,110
175,30 176,80 177,190 178,400
179,240 180,90 181,90 182,50
183,30 185,50 187,50 188,130
189,50 190,40 191,50 193,210
194,50 195,280 199,50 201,40
203,30 204,80 205,230 206,90
207,521 208,120 209,100 213,50
214,631 215,340 216,601 217,280
218,190 219,90 221,40 223,70
227,30 228,661 229,90 230,631
231,60 232,210 233,30 235,100
241,100 243,100 255,390 256,30
257,370 258,30 259,110 270,80
284,150 286,250 288,110
##END=
