##TITLE=l-Valine, N-(p-anisoyl)-, methyl ester
##JCAMP-DX=4.24
##DATA TYPE=MASS SPECTRUM
##ORIGIN=Zaikin V.G., TIPS RAS, Moscow, Russia
##OWNER=NIST Mass Spectrometry Data Center
Collection (C) 2014 copyright by the U.S. Secretary of Commerce
on behalf of the United States of America. All rights reserved.
##$NIST MASS SPEC NO=299670
##MOLFORM=C14 H19 N O4
##MW=265
##$NIST SOURCE=MSDC
##XUNITS=M/Z
##YUNITS=RELATIVE INTENSITY
##XFACTOR=1
##YFACTOR=1
##FIRSTX=27
##LASTX=266
##FIRSTY=30
##MAXX=266
##MINX=27
##MAXY=9999
##MINY=10
##NPOINTS=36
##PEAK TABLE=(XY..XY)
27,30 28,10 39,40 41,40
43,30 44,30 50,30 63,70
64,140 65,30 76,70 77,551
78,50 92,430 93,40 103,30
104,60 107,270 108,30 120,30
121,50 134,30 135,9999 136,741
137,60 151,2462 152,250 163,50
190,70 191,130 206,541 218,40
223,120 234,30 265,190 266,30
##END=
