##TITLE=l-Proline, N-(3-fluorobenzoyl)-, methyl ester
##JCAMP-DX=4.24
##DATA TYPE=MASS SPECTRUM
##ORIGIN=Zaikin V.G., TIPS RAS, Moscow, Russia
##OWNER=NIST Mass Spectrometry Data Center
Collection (C) 2014 copyright by the U.S. Secretary of Commerce
on behalf of the United States of America. All rights reserved.
##$NIST MASS SPEC NO=299677
##MOLFORM=C13 H14 F N O3
##MW=251
##$NIST SOURCE=MSDC
##XUNITS=M/Z
##YUNITS=RELATIVE INTENSITY
##XFACTOR=1
##YFACTOR=1
##FIRSTX=27
##LASTX=252
##FIRSTY=30
##MAXX=252
##MINX=27
##MAXY=9999
##MINY=20
##NPOINTS=32
##PEAK TABLE=(XY..XY)
27,30 28,30 39,50 41,200
42,90 44,60 50,40 51,30
59,30 68,90 69,90 70,30
74,30 75,320 76,30 94,90
95,1912 96,230 122,40 123,9999
124,621 125,30 128,90 163,30
165,30 191,20 192,4615 193,511
194,30 220,30 251,430 252,70
##END=
