##TITLE=Dichloroacetic acid, 2-methyloct-5-yn-4-yl ester
##JCAMP-DX=4.24
##DATA TYPE=MASS SPECTRUM
##ORIGIN=Zaikin V.G., TIPS RAS, Moscow, Russia
##OWNER=NIST Mass Spectrometry Data Center
Collection (C) 2014 copyright by the U.S. Secretary of Commerce
on behalf of the United States of America. All rights reserved.
##$NIST MASS SPEC NO=299433
##MOLFORM=C11 H16 Cl2 O2
##MW=250
##$NIST SOURCE=MSDC
##XUNITS=M/Z
##YUNITS=RELATIVE INTENSITY
##XFACTOR=1
##YFACTOR=1
##FIRSTX=25
##LASTX=237
##FIRSTY=30
##MAXX=237
##MINX=25
##MAXY=9999
##MINY=30
##NPOINTS=142
##PEAK TABLE=(XY..XY)
25,30 26,210 27,1562 28,40
29,1732 30,30 35,140 36,971
37,110 38,501 39,2503 40,611
41,5505 42,440 43,4234 44,751
45,90 47,140 48,400 49,210
50,350 51,911 52,641 53,2092
54,280 55,3463 56,711 57,3894
58,160 59,270 62,90 63,380
64,120 65,2442 66,1261 67,2663
68,561 69,2352 70,220 71,200
72,60 73,40 74,50 75,140
76,1411 77,3003 78,1161 79,8337
80,3684 81,8437 82,821 83,8598
84,1351 85,3514 86,160 87,410
89,90 91,3624 92,651 93,8608
94,1391 95,1311 96,240 97,2202
98,4505 99,290 101,320 102,40
103,200 104,30 105,971 106,150
107,9999 108,1021 109,260 110,160
111,1702 112,220 113,190 115,70
117,40 119,40 121,611 122,1421
123,1852 124,230 125,2352 126,200
127,50 129,260 130,60 131,110
133,40 137,60 139,581 140,1131
141,100 143,30 145,50 147,30
155,50 157,160 158,30 159,1101
160,80 161,370 165,721 166,40
167,501 168,30 169,90 171,30
172,240 173,340 174,90 175,100
179,300 180,40 181,190 183,60
185,30 193,350 194,90 195,240
196,50 197,50 199,30 200,30
202,30 207,7026 208,1021 209,4585
210,631 211,771 212,90 215,1902
216,210 217,611 218,50 221,40
235,70 237,40
##END=
