##TITLE=3-Methyl-2-butenoic acid, tridec-2-ynyl ester
##JCAMP-DX=4.24
##DATA TYPE=MASS SPECTRUM
##ORIGIN=Zaikin V.G., TIPS RAS, Moscow, Russia
##OWNER=NIST Mass Spectrometry Data Center
Collection (C) 2014 copyright by the U.S. Secretary of Commerce
on behalf of the United States of America. All rights reserved.
##$NIST MASS SPEC NO=299317
##MOLFORM=C18 H30 O2
##MW=278
##$NIST SOURCE=MSDC
##XUNITS=M/Z
##YUNITS=RELATIVE INTENSITY
##XFACTOR=1
##YFACTOR=1
##FIRSTX=27
##LASTX=152
##FIRSTY=90
##MAXX=152
##MINX=27
##MAXY=9999
##MINY=20
##NPOINTS=41
##PEAK TABLE=(XY..XY)
27,90 28,70 29,190 39,140
40,30 41,300 42,50 43,250
44,20 51,30 52,70 53,140
54,70 55,571 56,70 57,80
65,50 66,50 67,210 68,30
69,110 70,30 77,90 79,230
80,50 81,180 82,170 83,9999
84,450 85,40 91,100 93,130
94,50 95,160 100,60 101,150
107,80 109,40 121,30 151,90
152,30
##END=
