##TITLE=trans-3-(Trifluoromethyl)cinnamic acid, butyl ester
##JCAMP-DX=4.24
##DATA TYPE=MASS SPECTRUM
##ORIGIN=Zaikin V.G., TIPS RAS, Moscow, Russia
##OWNER=NIST Mass Spectrometry Data Center
Collection (C) 2014 copyright by the U.S. Secretary of Commerce
on behalf of the United States of America. All rights reserved.
##$NIST MASS SPEC NO=299868
##MOLFORM=C14 H15 F3 O2
##MW=272
##$NIST SOURCE=MSDC
##XUNITS=M/Z
##YUNITS=RELATIVE INTENSITY
##XFACTOR=1
##YFACTOR=1
##FIRSTX=26
##LASTX=273
##FIRSTY=70
##MAXX=273
##MINX=26
##MAXY=9999
##MINY=30
##NPOINTS=66
##PEAK TABLE=(XY..XY)
26,70 27,240 29,591 30,30
39,170 41,711 42,30 43,80
50,60 51,60 55,320 56,1932
57,170 73,50 75,80 76,70
95,100 101,100 102,551 103,80
113,190 119,50 120,110 121,30
125,70 126,50 131,110 145,300
146,50 147,410 148,40 151,2743
152,380 153,30 159,60 168,70
169,240 170,400 171,2482 172,661
173,70 175,90 180,50 185,30
186,30 188,130 197,751 198,360
199,9999 200,1221 201,100 212,40
215,2372 216,6506 217,2753 218,320
226,40 229,40 230,40 243,40
253,761 254,120 255,50 257,30
272,1331 273,210
##END=
