##TITLE=Acetoxyacetic acid, 3-chloroprop-2-enyl ester
##JCAMP-DX=4.24
##DATA TYPE=MASS SPECTRUM
##ORIGIN=Zaikin V.G., TIPS RAS, Moscow, Russia
##OWNER=NIST Mass Spectrometry Data Center
Collection (C) 2014 copyright by the U.S. Secretary of Commerce
on behalf of the United States of America. All rights reserved.
##$NIST MASS SPEC NO=299211
##MOLFORM=C7 H9 Cl O4
##MW=192
##$NIST SOURCE=MSDC
##XUNITS=M/Z
##YUNITS=RELATIVE INTENSITY
##XFACTOR=1
##YFACTOR=1
##FIRSTX=26
##LASTX=157
##FIRSTY=100
##MAXX=157
##MINX=26
##MAXY=9999
##MINY=30
##NPOINTS=43
##PEAK TABLE=(XY..XY)
26,100 27,150 28,80 29,210
30,70 31,70 35,40 38,160
39,791 40,90 41,60 42,861
43,9999 44,450 45,50 49,360
51,110 57,30 61,90 62,60
63,30 73,1051 74,50 75,3443
76,120 77,1121 78,40 79,40
89,100 91,320 93,80 97,390
99,100 101,1331 102,170 104,30
121,80 132,571 133,210 134,210
135,60 150,70 157,330
##END=
