##TITLE=3-Chloro-1-triisobutylsilyloxyprop-2-ene
##JCAMP-DX=4.24
##DATA TYPE=MASS SPECTRUM
##ORIGIN=Zaikin V.G., TIPS RAS, Moscow, Russia
##OWNER=NIST Mass Spectrometry Data Center
Collection (C) 2014 copyright by the U.S. Secretary of Commerce
on behalf of the United States of America. All rights reserved.
##$NIST MASS SPEC NO=299469
##MOLFORM=C15 H31 Cl O Si
##MW=290
##$NIST SOURCE=MSDC
##XUNITS=M/Z
##YUNITS=RELATIVE INTENSITY
##XFACTOR=1
##YFACTOR=1
##FIRSTX=26
##LASTX=237
##FIRSTY=60
##MAXX=237
##MINX=26
##MAXY=9999
##MINY=30
##NPOINTS=111
##PEAK TABLE=(XY..XY)
26,60 27,140 28,60 29,160
36,210 37,30 38,120 39,531
40,110 41,1131 42,180 43,310
44,120 45,541 46,30 47,170
49,50 50,30 51,30 53,60
54,140 55,480 56,270 57,721
58,120 59,711 60,110 61,851
62,50 63,280 65,220 67,220
69,170 71,140 72,30 73,110
74,140 75,1301 76,60 77,380
78,90 79,1712 80,120 81,1081
82,50 83,260 84,60 85,1091
86,120 87,250 88,40 89,70
91,150 92,70 93,831 94,100
95,2142 96,170 97,300 98,80
99,851 100,90 101,1512 102,150
103,200 105,320 106,30 107,561
108,50 109,270 111,60 113,180
115,90 117,190 118,40 119,981
120,160 121,5074 122,450 123,1892
124,150 125,140 131,150 133,210
134,60 135,841 136,90 137,330
139,40 141,240 142,30 143,230
147,50 149,70 151,60 157,70
159,60 161,60 175,30 177,6786
178,891 179,2462 180,310 181,100
191,70 193,30 233,9999 234,1702
235,3654 236,581 237,160
##END=
