##TITLE=5-Bromovaleric acid, 4-hexadecyl ester
##JCAMP-DX=4.24
##DATA TYPE=MASS SPECTRUM
##ORIGIN=Zaikin V.G., TIPS RAS, Moscow, Russia
##OWNER=NIST Mass Spectrometry Data Center
Collection (C) 2014 copyright by the U.S. Secretary of Commerce
on behalf of the United States of America. All rights reserved.
##$NIST MASS SPEC NO=299986
##MOLFORM=C21 H41 Br O2
##MW=404
##$NIST SOURCE=MSDC
##XUNITS=M/Z
##YUNITS=RELATIVE INTENSITY
##XFACTOR=1
##YFACTOR=1
##FIRSTX=26
##LASTX=363
##FIRSTY=120
##MAXX=363
##MINX=26
##MAXY=9999
##MINY=30
##NPOINTS=96
##PEAK TABLE=(XY..XY)
26,120 27,360 28,220 29,551
39,300 40,70 41,1431 42,480
43,1982 44,230 45,40 53,130
54,340 55,4004 56,1321 57,2282
58,120 59,80 66,40 67,450
68,380 69,1772 70,1301 71,1401
72,100 73,190 79,100 80,110
81,370 82,721 83,1922 84,951
85,991 86,80 95,220 96,430
97,1742 98,631 99,420 100,90
101,1311 102,80 107,60 109,150
110,300 111,1201 112,470 113,150
123,50 124,170 125,651 126,340
127,320 128,30 135,1682 136,80
137,1632 138,180 139,250 140,240
141,70 152,110 153,150 154,240
155,70 162,40 163,9999 164,571
165,9609 166,581 167,130 168,100
169,40 178,180 179,60 180,410
181,1181 182,310 183,931 184,50
195,30 196,250 197,300 198,40
224,2152 225,501 226,40 235,300
236,30 237,300 241,110 253,360
254,60 277,40 361,70 363,70
##END=
