##TITLE=l-Valine, N-(m-toluoyl)-, methyl ester
##JCAMP-DX=4.24
##DATA TYPE=MASS SPECTRUM
##ORIGIN=Zaikin V.G., TIPS RAS, Moscow, Russia
##OWNER=NIST Mass Spectrometry Data Center
Collection (C) 2014 copyright by the U.S. Secretary of Commerce
on behalf of the United States of America. All rights reserved.
##$NIST MASS SPEC NO=299639
##MOLFORM=C14 H19 N O3
##MW=249
##$NIST SOURCE=MSDC
##XUNITS=M/Z
##YUNITS=RELATIVE INTENSITY
##XFACTOR=1
##YFACTOR=1
##FIRSTX=26
##LASTX=250
##FIRSTY=20
##MAXX=250
##MINX=26
##MAXY=9999
##MINY=10
##NPOINTS=69
##PEAK TABLE=(XY..XY)
26,20 27,40 29,30 31,10
38,10 39,120 40,10 41,100
42,20 43,60 44,40 50,20
51,40 52,10 53,10 54,10
55,30 56,40 59,30 62,10
63,70 64,20 65,460 66,20
69,10 70,30 72,10 76,10
77,10 82,10 83,30 87,10
88,30 89,160 90,160 91,1972
92,170 93,30 105,10 114,10
115,30 116,10 117,20 118,90
119,9999 120,771 121,40 130,40
135,260 136,1371 137,120 146,30
147,100 148,10 174,30 175,230
176,30 189,40 190,1732 191,230
192,10 202,40 206,10 207,200
217,10 218,30 234,10 249,150
250,30
##END=
