##TITLE=2-Chlorobenzoic acid, pent-2-en-4-ynyl ester
##JCAMP-DX=4.24
##DATA TYPE=MASS SPECTRUM
##ORIGIN=Zaikin V.G., TIPS RAS, Moscow, Russia
##OWNER=NIST Mass Spectrometry Data Center
Collection (C) 2014 copyright by the U.S. Secretary of Commerce
on behalf of the United States of America. All rights reserved.
##$NIST MASS SPEC NO=299299
##MOLFORM=C12 H9 Cl O2
##MW=220
##$NIST SOURCE=MSDC
##XUNITS=M/Z
##YUNITS=RELATIVE INTENSITY
##XFACTOR=1
##YFACTOR=1
##FIRSTX=27
##LASTX=222
##FIRSTY=40
##MAXX=222
##MINX=27
##MAXY=9999
##MINY=20
##NPOINTS=38
##PEAK TABLE=(XY..XY)
27,40 28,20 38,70 39,450
44,50 50,250 51,180 52,50
53,30 61,30 62,50 63,220
64,110 65,651 66,40 74,100
75,641 76,190 77,100 85,70
104,40 110,30 111,1271 112,130
113,430 114,40 115,50 139,9999
140,731 141,3023 142,230 156,90
157,40 158,30 175,30 185,40
220,160 222,50
##END=
