##TITLE=2-Diisopropylsilyloxybut-3-yne
##JCAMP-DX=4.24
##DATA TYPE=MASS SPECTRUM
##ORIGIN=Zaikin V.G., TIPS RAS, Moscow, Russia
##OWNER=NIST Mass Spectrometry Data Center
Collection (C) 2014 copyright by the U.S. Secretary of Commerce
on behalf of the United States of America. All rights reserved.
##$NIST MASS SPEC NO=299577
##MOLFORM=C10 H20 O Si
##MW=184
##$NIST SOURCE=MSDC
##XUNITS=M/Z
##YUNITS=RELATIVE INTENSITY
##XFACTOR=1
##YFACTOR=1
##FIRSTX=26
##LASTX=184
##FIRSTY=130
##MAXX=184
##MINX=26
##MAXY=9999
##MINY=30
##NPOINTS=78
##PEAK TABLE=(XY..XY)
26,130 27,591 29,90 31,30
37,40 38,80 39,531 40,80
41,711 42,210 43,1011 44,110
45,2042 46,190 47,611 48,30
49,40 50,110 51,180 52,160
53,561 54,190 55,440 56,40
57,50 58,30 59,641 60,170
61,3113 62,210 63,150 67,130
68,70 69,4615 70,430 71,691
72,130 73,511 74,50 75,370
77,310 79,60 80,30 81,110
83,370 84,40 85,1201 86,90
87,651 88,110 89,80 95,300
96,70 97,1471 98,390 99,4124
100,501 101,260 105,130 111,470
112,180 113,9999 114,1021 115,571
116,50 123,260 124,30 125,420
126,60 127,160 139,130 140,70
141,8487 142,1191 143,370 169,150
183,30 184,210
##END=
