##TITLE=4-Nitrobenzoic acid, 2-isopropoxyphenyl ester
##JCAMP-DX=4.24
##DATA TYPE=MASS SPECTRUM
##ORIGIN=Zaikin V.G., TIPS RAS, Moscow, Russia
##OWNER=NIST Mass Spectrometry Data Center
Collection (C) 2014 copyright by the U.S. Secretary of Commerce
on behalf of the United States of America. All rights reserved.
##$NIST MASS SPEC NO=299036
##MOLFORM=C16 H15 N O5
##MW=301
##$NIST SOURCE=MSDC
##XUNITS=M/Z
##YUNITS=RELATIVE INTENSITY
##XFACTOR=1
##YFACTOR=1
##FIRSTX=27
##LASTX=302
##FIRSTY=70
##MAXX=302
##MINX=27
##MAXY=9999
##MINY=10
##NPOINTS=40
##PEAK TABLE=(XY..XY)
27,70 28,10 30,30 39,80
41,120 43,160 44,30 50,150
51,70 52,120 53,50 63,60
64,90 65,100 74,50 75,150
76,551 77,70 80,90 81,250
92,400 93,50 103,30 104,1201
105,120 109,240 110,190 120,400
121,120 122,30 134,260 135,60
150,9999 151,801 152,90 167,60
259,921 260,150 301,601 302,110
##END=
