##TITLE=5-Bromovaleric acid, 2-pentadecyl ester
##JCAMP-DX=4.24
##DATA TYPE=MASS SPECTRUM
##ORIGIN=Zaikin V.G., TIPS RAS, Moscow, Russia
##OWNER=NIST Mass Spectrometry Data Center
Collection (C) 2014 copyright by the U.S. Secretary of Commerce
on behalf of the United States of America. All rights reserved.
##$NIST MASS SPEC NO=299932
##MOLFORM=C20 H39 Br O2
##MW=390
##$NIST SOURCE=MSDC
##XUNITS=M/Z
##YUNITS=RELATIVE INTENSITY
##XFACTOR=1
##YFACTOR=1
##FIRSTX=25
##LASTX=348
##FIRSTY=40
##MAXX=348
##MINX=25
##MAXY=9999
##MINY=30
##NPOINTS=125
##PEAK TABLE=(XY..XY)
25,40 26,350 27,971 28,30
29,1642 35,30 36,240 38,130
39,881 40,230 41,4084 42,1201
43,5044 44,611 45,240 50,80
51,100 52,70 53,420 54,801
55,9519 56,3263 57,5655 58,380
59,290 60,30 65,80 66,80
67,1041 68,961 69,4134 70,2833
71,3313 72,170 73,480 74,30
77,100 78,30 79,390 80,420
81,931 82,1902 83,4955 84,2062
85,2322 86,140 87,30 91,140
92,40 93,80 94,50 95,561
96,1111 97,4474 98,1421 99,911
100,370 101,4004 102,260 103,90
105,40 107,200 109,390 110,671
111,2673 112,1071 113,370 118,30
119,190 120,30 121,50 123,130
124,420 125,1522 126,801 127,290
129,30 135,2553 136,170 137,2513
138,380 139,641 140,581 141,200
150,100 151,60 152,170 153,410
154,390 155,140 162,60 163,9999
164,651 165,9849 166,731 167,310
168,591 169,120 171,40 178,260
179,100 180,831 181,3764 182,1361
183,3564 184,170 191,120 193,50
195,30 196,40 206,30 207,671
208,60 209,561 210,3864 211,1351
212,140 227,250 228,30 250,30
255,30 267,841 268,150 293,40
348,30
##END=
