##TITLE=o-Toluic acid, 5-tetradecyl ester
##JCAMP-DX=4.24
##DATA TYPE=MASS SPECTRUM
##ORIGIN=Zaikin V.G., TIPS RAS, Moscow, Russia
##OWNER=NIST Mass Spectrometry Data Center
Collection (C) 2014 copyright by the U.S. Secretary of Commerce
on behalf of the United States of America. All rights reserved.
##$NIST MASS SPEC NO=299797
##MOLFORM=C22 H36 O2
##MW=332
##$NIST SOURCE=MSDC
##XUNITS=M/Z
##YUNITS=RELATIVE INTENSITY
##XFACTOR=1
##YFACTOR=1
##FIRSTX=26
##LASTX=332
##FIRSTY=60
##MAXX=332
##MINX=26
##MAXY=9999
##MINY=20
##NPOINTS=72
##PEAK TABLE=(XY..XY)
26,60 27,180 28,140 29,370
39,230 40,40 41,961 42,220
43,1151 44,140 50,30 51,50
53,70 54,170 55,1181 56,601
57,1191 58,70 63,70 65,480
66,40 67,220 68,150 69,901
70,601 71,641 72,30 77,120
79,80 81,150 82,220 83,791
84,400 85,400 89,150 90,320
91,2322 92,250 93,180 95,70
96,150 97,671 98,270 99,70
105,110 109,30 110,110 111,380
112,190 113,50 118,1732 119,8668
120,781 121,50 123,30 124,60
125,190 126,110 135,160 136,9999
137,2543 138,240 139,90 140,60
153,30 154,40 168,90 196,591
197,90 205,20 213,200 332,20
##END=
