##TITLE=2,2-Dimethylpropanoic acid, oct-3-en-2-yl ester
##JCAMP-DX=4.24
##DATA TYPE=MASS SPECTRUM
##ORIGIN=Zaikin V.G., TIPS RAS, Moscow, Russia
##OWNER=NIST Mass Spectrometry Data Center
Collection (C) 2014 copyright by the U.S. Secretary of Commerce
on behalf of the United States of America. All rights reserved.
##$NIST MASS SPEC NO=299333
##MOLFORM=C13 H24 O2
##MW=212
##$NIST SOURCE=MSDC
##XUNITS=M/Z
##YUNITS=RELATIVE INTENSITY
##XFACTOR=1
##YFACTOR=1
##FIRSTX=26
##LASTX=169
##FIRSTY=120
##MAXX=169
##MINX=26
##MAXY=9999
##MINY=30
##NPOINTS=56
##PEAK TABLE=(XY..XY)
26,120 27,671 28,490 29,1231
39,881 40,230 41,3093 42,420
43,1161 44,270 45,60 50,50
51,80 52,70 53,571 54,370
55,5755 56,551 57,9999 58,571
59,120 65,120 66,80 67,1041
68,2482 69,6666 70,430 71,901
72,110 77,90 79,260 80,40
81,1381 82,150 83,110 84,40
85,2392 86,320 87,40 91,30
93,40 95,450 96,30 99,70
103,140 109,60 110,310 111,3003
112,240 113,180 114,40 127,150
128,721 129,70 155,280 169,40
##END=
