##TITLE=Cyclobutanecarboxylic acid, pent-2-en-4-ynyl ester
##JCAMP-DX=4.24
##DATA TYPE=MASS SPECTRUM
##ORIGIN=Zaikin V.G., TIPS RAS, Moscow, Russia
##OWNER=NIST Mass Spectrometry Data Center
Collection (C) 2014 copyright by the U.S. Secretary of Commerce
on behalf of the United States of America. All rights reserved.
##$NIST MASS SPEC NO=299130
##MOLFORM=C10 H12 O2
##MW=164
##$NIST SOURCE=MSDC
##XUNITS=M/Z
##YUNITS=RELATIVE INTENSITY
##XFACTOR=1
##YFACTOR=1
##FIRSTX=26
##LASTX=164
##FIRSTY=170
##MAXX=164
##MINX=26
##MAXY=9999
##MINY=10
##NPOINTS=38
##PEAK TABLE=(XY..XY)
26,170 27,781 28,10 29,721
37,40 38,190 39,1481 40,80
41,80 43,50 44,230 49,30
50,200 51,270 52,170 53,490
54,150 55,9999 56,470 62,90
63,420 64,230 65,1582 66,120
73,60 77,40 79,120 80,30
81,220 82,90 83,5244 84,280
91,90 107,80 108,30 109,110
136,90 164,150
##END=
