##TITLE=o-Anisic acid, 2-tetradecyl ester
##JCAMP-DX=4.24
##DATA TYPE=MASS SPECTRUM
##ORIGIN=Zaikin V.G., TIPS RAS, Moscow, Russia
##OWNER=NIST Mass Spectrometry Data Center
Collection (C) 2014 copyright by the U.S. Secretary of Commerce
on behalf of the United States of America. All rights reserved.
##$NIST MASS SPEC NO=299761
##MOLFORM=C22 H36 O3
##MW=348
##$NIST SOURCE=MSDC
##XUNITS=M/Z
##YUNITS=RELATIVE INTENSITY
##XFACTOR=1
##YFACTOR=1
##FIRSTX=26
##LASTX=349
##FIRSTY=50
##MAXX=349
##MINX=26
##MAXY=9999
##MINY=10
##NPOINTS=78
##PEAK TABLE=(XY..XY)
26,50 27,130 28,10 29,290
39,140 40,30 41,711 42,170
43,911 44,70 50,40 51,80
53,50 54,90 55,811 56,350
57,621 58,60 63,50 64,80
65,70 67,160 68,110 69,490
70,300 71,270 76,60 77,941
78,140 79,250 81,110 82,140
83,370 84,170 85,140 91,30
92,370 93,60 94,40 95,60
96,80 97,320 98,100 104,30
105,721 106,210 107,140 108,80
109,30 110,40 111,150 112,60
118,50 119,40 120,170 121,150
122,90 123,2553 124,210 125,60
126,40 133,110 134,390 135,9999
136,971 137,100 138,50 151,140
152,6265 153,6155 154,551 155,50
168,30 179,140 196,90 213,80
348,280 349,60
##END=
