##TITLE=Dichloroacetic acid, undec-2-enyl ester
##JCAMP-DX=4.24
##DATA TYPE=MASS SPECTRUM
##ORIGIN=Zaikin V.G., TIPS RAS, Moscow, Russia
##OWNER=NIST Mass Spectrometry Data Center
Collection (C) 2014 copyright by the U.S. Secretary of Commerce
on behalf of the United States of America. All rights reserved.
##$NIST MASS SPEC NO=299436
##MOLFORM=C13 H22 Cl2 O2
##MW=280
##$NIST SOURCE=MSDC
##XUNITS=M/Z
##YUNITS=RELATIVE INTENSITY
##XFACTOR=1
##YFACTOR=1
##FIRSTX=25
##LASTX=282
##FIRSTY=40
##MAXX=282
##MINX=25
##MAXY=9999
##MINY=20
##NPOINTS=105
##PEAK TABLE=(XY..XY)
25,40 26,270 27,1411 28,40
29,2603 30,50 35,100 36,681
37,70 38,290 39,1922 40,390
41,7617 42,1742 43,6315 44,611
45,70 47,90 48,320 49,190
50,250 51,170 52,140 53,1471
54,7717 55,9999 56,4384 57,5825
58,330 63,40 65,310 66,661
67,6335 68,5194 69,7176 70,4074
71,1562 72,190 73,30 75,60
76,791 77,280 78,330 79,721
80,440 81,6065 82,6986 83,8457
84,1582 85,2112 86,100 87,270
89,170 91,160 93,200 94,200
95,5214 96,5184 97,3964 98,2192
99,190 105,30 107,80 108,70
109,2412 110,2352 111,1461 112,621
113,280 114,30 115,50 121,70
122,30 123,951 124,2863 125,310
126,50 127,60 133,50 135,30
137,140 139,70 141,90 150,30
151,140 152,1712 153,230 155,60
167,160 168,90 169,521 170,70
171,230 172,70 173,40 181,30
182,60 183,220 184,50 185,140
197,430 198,40 245,80 280,30
282,20
##END=
