##TITLE=o-Anisic acid, 2-(1-adamantyl)ethyl ester
##JCAMP-DX=4.24
##DATA TYPE=MASS SPECTRUM
##ORIGIN=Zaikin V.G., TIPS RAS, Moscow, Russia
##OWNER=NIST Mass Spectrometry Data Center
Collection (C) 2014 copyright by the U.S. Secretary of Commerce
on behalf of the United States of America. All rights reserved.
##$NIST MASS SPEC NO=299950
##MOLFORM=C20 H26 O3
##MW=314
##$NIST SOURCE=MSDC
##XUNITS=M/Z
##YUNITS=RELATIVE INTENSITY
##XFACTOR=1
##YFACTOR=1
##FIRSTX=26
##LASTX=315
##FIRSTY=40
##MAXX=315
##MINX=26
##MAXY=9999
##MINY=20
##NPOINTS=77
##PEAK TABLE=(XY..XY)
26,40 27,50 28,20 29,50
39,130 40,30 41,300 43,60
44,50 50,50 51,110 52,30
53,110 54,30 55,290 56,100
57,30 63,70 64,100 65,120
66,80 67,460 68,40 69,150
70,30 76,70 77,1461 78,320
79,1291 80,430 81,460 82,50
83,40 84,200 91,751 92,1131
93,1191 94,280 95,150 103,40
104,80 105,991 106,611 107,681
108,170 117,50 118,60 119,611
120,490 121,270 122,60 123,1241
124,100 133,490 134,460 135,9999
136,921 137,90 147,210 148,30
149,60 150,40 151,170 152,8197
153,1491 154,140 161,50 162,2503
163,641 164,60 179,310 180,30
268,80 296,210 297,40 314,881
315,200
##END=
