##TITLE=2-Furoic acid, pent-2-en-4-ynyl ester
##JCAMP-DX=4.24
##DATA TYPE=MASS SPECTRUM
##ORIGIN=Zaikin V.G., TIPS RAS, Moscow, Russia
##OWNER=NIST Mass Spectrometry Data Center
Collection (C) 2014 copyright by the U.S. Secretary of Commerce
on behalf of the United States of America. All rights reserved.
##$NIST MASS SPEC NO=299234
##MOLFORM=C10 H8 O3
##MW=176
##$NIST SOURCE=MSDC
##XUNITS=M/Z
##YUNITS=RELATIVE INTENSITY
##XFACTOR=1
##YFACTOR=1
##FIRSTX=26
##LASTX=176
##FIRSTY=70
##MAXX=176
##MINX=26
##MAXY=9999
##MINY=20
##NPOINTS=42
##PEAK TABLE=(XY..XY)
26,70 27,100 28,30 29,70
37,100 38,310 39,1662 40,80
41,30 44,160 50,130 51,190
52,80 53,100 55,20 62,90
63,360 64,160 65,1281 66,100
67,160 68,110 73,30 77,90
78,130 79,40 81,270 91,70
95,9999 96,531 97,50 103,200
104,70 108,30 112,120 113,50
119,20 131,300 132,30 147,150
148,50 176,150
##END=
