##TITLE=2-Tributylsilyloxyoct-3-ene
##JCAMP-DX=4.24
##DATA TYPE=MASS SPECTRUM
##ORIGIN=Zaikin V.G., TIPS RAS, Moscow, Russia
##OWNER=NIST Mass Spectrometry Data Center
Collection (C) 2014 copyright by the U.S. Secretary of Commerce
on behalf of the United States of America. All rights reserved.
##$NIST MASS SPEC NO=299543
##MOLFORM=C20 H42 O Si
##MW=326
##$NIST SOURCE=MSDC
##XUNITS=M/Z
##YUNITS=RELATIVE INTENSITY
##XFACTOR=1
##YFACTOR=1
##FIRSTX=26
##LASTX=327
##FIRSTY=60
##MAXX=327
##MINX=26
##MAXY=9999
##MINY=10
##NPOINTS=138
##PEAK TABLE=(XY..XY)
26,60 27,110 28,30 29,90
39,140 40,30 41,370 42,50
43,140 44,60 45,230 46,10
47,410 48,20 49,10 50,20
51,20 52,10 53,70 54,80
55,551 56,100 57,130 58,30
59,601 60,90 61,1732 62,110
63,70 64,10 65,20 66,10
67,150 68,110 69,240 70,20
71,70 72,20 73,340 74,150
75,621 76,50 77,50 78,10
79,60 80,10 81,130 82,10
83,70 84,10 85,300 86,40
87,310 88,80 89,20 91,10
93,10 95,30 97,40 98,10
99,220 100,40 101,541 102,80
103,6816 104,681 105,270 106,10
109,30 110,70 111,60 112,10
113,180 114,50 115,60 116,10
117,30 125,10 127,90 128,30
129,120 130,30 131,50 139,10
141,70 142,20 143,541 144,80
145,60 153,10 155,210 156,40
157,270 158,40 159,9999 160,1431
161,450 162,30 167,10 169,240
170,80 171,120 172,20 183,50
184,10 185,60 187,110 188,10
195,10 197,20 199,340 200,60
201,50 211,90 212,20 213,4815
214,951 215,290 216,30 225,150
226,30 227,50 241,280 242,60
243,10 255,10 267,10 269,5975
270,1461 271,501 272,80 283,30
311,260 312,60 313,10 325,10
326,130 327,30
##END=
