##TITLE=Octanoic acid, but-3-yn-2-yl ester
##JCAMP-DX=4.24
##DATA TYPE=MASS SPECTRUM
##ORIGIN=Zaikin V.G., TIPS RAS, Moscow, Russia
##OWNER=NIST Mass Spectrometry Data Center
Collection (C) 2014 copyright by the U.S. Secretary of Commerce
on behalf of the United States of America. All rights reserved.
##$NIST MASS SPEC NO=299340
##MOLFORM=C12 H20 O2
##MW=196
##$NIST SOURCE=MSDC
##XUNITS=M/Z
##YUNITS=RELATIVE INTENSITY
##XFACTOR=1
##YFACTOR=1
##FIRSTX=25
##LASTX=196
##FIRSTY=30
##MAXX=196
##MINX=25
##MAXY=9999
##MINY=30
##NPOINTS=90
##PEAK TABLE=(XY..XY)
25,30 26,250 27,1732 28,631
29,1512 30,30 31,30 37,30
38,80 39,791 40,190 41,3083
42,881 43,3273 44,320 45,260
49,40 50,280 51,551 52,1211
53,5004 54,511 55,4014 56,641
57,9999 58,450 59,390 60,1532
61,210 65,40 66,110 67,1001
68,190 69,1341 70,551 71,320
72,40 73,1131 74,120 77,50
79,200 80,110 81,591 82,470
83,2833 84,2072 85,490 86,30
87,501 88,30 89,140 91,50
93,110 94,100 95,230 96,170
97,2062 98,761 99,150 100,40
101,691 102,40 103,70 107,310
108,60 109,871 110,80 111,470
112,1381 113,140 115,190 121,40
123,40 124,100 125,5505 126,781
127,8948 128,771 129,60 139,350
140,70 143,100 144,210 145,370
153,901 154,90 167,330 168,30
181,120 196,150
##END=
