##TITLE=1-(Dimethyldodecylsilyloxy)dodecane
##JCAMP-DX=4.24
##DATA TYPE=MASS SPECTRUM
##ORIGIN=Zaikin V.G., TIPS RAS, Moscow, Russia
##OWNER=NIST Mass Spectrometry Data Center
Collection (C) 2014 copyright by the U.S. Secretary of Commerce
on behalf of the United States of America. All rights reserved.
##$NIST MASS SPEC NO=299995
##MOLFORM=C26 H56 O Si
##MW=412
##$NIST SOURCE=MSDC
##XUNITS=M/Z
##YUNITS=RELATIVE INTENSITY
##XFACTOR=1
##YFACTOR=1
##FIRSTX=26
##LASTX=399
##FIRSTY=40
##MAXX=399
##MINX=26
##MAXY=9999
##MINY=30
##NPOINTS=57
##PEAK TABLE=(XY..XY)
26,40 27,80 28,40 29,100
39,70 41,240 42,90 43,370
54,30 55,330 56,130 57,330
59,310 61,240 67,60 68,30
69,410 70,90 71,140 73,40
75,1221 76,90 77,60 81,40
82,30 83,480 84,60 85,140
87,70 89,531 90,40 95,30
97,480 98,50 99,90 101,170
111,270 113,50 115,140 125,40
129,80 133,90 143,40 157,50
171,50 185,40 227,90 229,160
230,30 243,9999 244,1902 245,531
246,60 301,40 397,1622 398,561
399,150
##END=
