##TITLE=4-Butylbenzoic acid, 4-tridecyl ester
##JCAMP-DX=4.24
##DATA TYPE=MASS SPECTRUM
##ORIGIN=Zaikin V.G., TIPS RAS, Moscow, Russia
##OWNER=NIST Mass Spectrometry Data Center
Collection (C) 2014 copyright by the U.S. Secretary of Commerce
on behalf of the United States of America. All rights reserved.
##$NIST MASS SPEC NO=299938
##MOLFORM=C24 H40 O2
##MW=360
##$NIST SOURCE=MSDC
##XUNITS=M/Z
##YUNITS=RELATIVE INTENSITY
##XFACTOR=1
##YFACTOR=1
##FIRSTX=26
##LASTX=317
##FIRSTY=70
##MAXX=317
##MINX=26
##MAXY=9999
##MINY=20
##NPOINTS=91
##PEAK TABLE=(XY..XY)
26,70 27,200 28,110 29,290
39,180 40,30 41,811 42,190
43,881 44,90 50,30 51,50
53,60 54,130 55,981 56,551
57,901 58,40 63,40 65,130
67,200 68,180 69,811 70,651
71,350 77,200 78,70 79,140
81,140 82,290 83,781 84,521
85,200 89,140 90,410 91,1481
92,390 93,50 95,70 96,210
97,761 98,370 99,60 103,130
104,90 105,240 107,230 110,160
111,521 112,270 113,30 115,70
116,30 117,60 118,320 119,120
123,160 124,70 125,300 126,150
131,190 132,30 133,210 134,30
135,651 136,711 137,140 138,60
139,210 140,110 149,60 153,50
154,190 155,30 159,60 160,30
161,9999 162,1211 163,100 176,60
177,40 178,721 179,8167 180,991
181,80 182,1271 183,170 199,250
200,30 233,30 317,20
##END=
