##TITLE=Acetoxyacetic acid, hex-4-yn-3-yl ester
##JCAMP-DX=4.24
##DATA TYPE=MASS SPECTRUM
##ORIGIN=Zaikin V.G., TIPS RAS, Moscow, Russia
##OWNER=NIST Mass Spectrometry Data Center
Collection (C) 2014 copyright by the U.S. Secretary of Commerce
on behalf of the United States of America. All rights reserved.
##$NIST MASS SPEC NO=299205
##MOLFORM=C10 H14 O4
##MW=198
##$NIST SOURCE=MSDC
##XUNITS=M/Z
##YUNITS=RELATIVE INTENSITY
##XFACTOR=1
##YFACTOR=1
##FIRSTX=26
##LASTX=198
##FIRSTY=130
##MAXX=198
##MINX=26
##MAXY=9999
##MINY=20
##NPOINTS=72
##PEAK TABLE=(XY..XY)
26,130 27,591 28,80 29,511
30,100 31,60 37,40 38,160
39,1211 40,300 41,2202 42,571
43,9999 44,531 45,70 50,230
51,470 52,460 53,2873 54,240
55,501 56,40 57,150 60,30
61,50 62,50 63,140 64,40
65,691 66,511 67,490 68,80
69,691 70,40 73,3874 74,170
75,30 77,1201 78,230 79,7727
80,4484 81,7507 82,571 83,430
91,90 95,140 96,50 97,541
98,270 99,260 100,190 101,9258
102,390 103,60 109,80 110,60
111,130 114,30 119,130 123,90
124,30 125,400 126,330 127,50
139,90 140,170 141,20 156,70
169,30 183,661 184,50 198,320
##END=
