##TITLE=2-Bromobenzoic acid, 2-bromo-4-fluorophenyl ester
##JCAMP-DX=4.24
##DATA TYPE=MASS SPECTRUM
##ORIGIN=Zaikin V.G., TIPS RAS, Moscow, Russia
##OWNER=NIST Mass Spectrometry Data Center
Collection (C) 2014 copyright by the U.S. Secretary of Commerce
on behalf of the United States of America. All rights reserved.
##$NIST MASS SPEC NO=299018
##MOLFORM=C13 H7 Br2 F O2
##MW=372
##$NIST SOURCE=MSDC
##XUNITS=M/Z
##YUNITS=RELATIVE INTENSITY
##XFACTOR=1
##YFACTOR=1
##FIRSTX=26
##LASTX=376
##FIRSTY=30
##MAXX=376
##MINX=26
##MAXY=9999
##MINY=10
##NPOINTS=53
##PEAK TABLE=(XY..XY)
26,30 28,10 31,30 38,30
44,50 49,30 50,581 51,90
56,50 57,110 61,30 62,40
63,110 73,30 74,240 75,951
76,1191 77,130 79,60 80,130
81,280 82,460 83,80 94,80
104,230 105,50 110,90 111,40
113,30 129,40 131,40 135,40
137,40 155,1692 156,160 157,1752
158,160 161,290 163,270 170,60
183,9999 184,721 185,9739 186,841
187,70 189,90 190,190 191,110
192,190 214,50 372,30 374,70
376,30
##END=
