##TITLE=4-Chlorobenzoic acid, 2-methyloct-5-yn-4-yl ester
##JCAMP-DX=4.24
##DATA TYPE=MASS SPECTRUM
##ORIGIN=Zaikin V.G., TIPS RAS, Moscow, Russia
##OWNER=NIST Mass Spectrometry Data Center
Collection (C) 2014 copyright by the U.S. Secretary of Commerce
on behalf of the United States of America. All rights reserved.
##$NIST MASS SPEC NO=299367
##MOLFORM=C16 H19 Cl O2
##MW=278
##$NIST SOURCE=MSDC
##XUNITS=M/Z
##YUNITS=RELATIVE INTENSITY
##XFACTOR=1
##YFACTOR=1
##FIRSTX=26
##LASTX=238
##FIRSTY=40
##MAXX=238
##MINX=26
##MAXY=9999
##MINY=30
##NPOINTS=75
##PEAK TABLE=(XY..XY)
26,40 27,190 28,70 29,180
36,60 38,30 39,250 40,50
41,541 42,50 43,420 44,50
50,160 51,140 52,60 53,180
54,30 55,310 56,50 57,90
63,40 65,150 66,90 67,190
68,60 69,240 74,70 75,410
76,170 77,420 78,90 79,891
80,240 81,541 82,40 83,60
85,30 91,430 92,90 93,1161
94,220 95,90 97,40 104,100
105,140 107,1251 108,110 110,30
111,1191 112,140 113,400 114,40
121,60 122,340 123,60 124,80
139,9999 140,631 141,2933 142,210
156,130 157,40 158,40 181,30
207,100 208,50 209,40 221,30
222,120 223,30 224,40 235,691
236,100 237,230 238,30
##END=
