##TITLE=Butanoic acid, 3-chloroprop-2-enyl ester
##JCAMP-DX=4.24
##DATA TYPE=MASS SPECTRUM
##ORIGIN=Zaikin V.G., TIPS RAS, Moscow, Russia
##OWNER=NIST Mass Spectrometry Data Center
Collection (C) 2014 copyright by the U.S. Secretary of Commerce
on behalf of the United States of America. All rights reserved.
##$NIST MASS SPEC NO=299127
##MOLFORM=C7 H11 Cl O2
##MW=162
##$NIST SOURCE=MSDC
##XUNITS=M/Z
##YUNITS=RELATIVE INTENSITY
##XFACTOR=1
##YFACTOR=1
##FIRSTX=26
##LASTX=162
##FIRSTY=180
##MAXX=162
##MINX=26
##MAXY=9999
##MINY=30
##NPOINTS=48
##PEAK TABLE=(XY..XY)
26,180 27,961 28,40 29,240
31,30 35,30 37,40 38,220
39,1481 40,150 41,1331 42,551
43,5825 44,390 45,250 49,480
51,150 52,30 55,260 56,40
57,230 60,80 61,100 62,70
63,40 67,30 69,60 70,110
71,9999 72,470 73,90 74,100
75,4014 76,200 77,1341 78,60
79,80 81,70 87,50 89,240
91,541 93,170 99,40 102,40
127,2963 128,230 133,30 162,60
##END=
