##TITLE=Glycine, N-(m-anisoyl)-, methyl ester
##JCAMP-DX=4.24
##DATA TYPE=MASS SPECTRUM
##ORIGIN=Zaikin V.G., TIPS RAS, Moscow, Russia
##OWNER=NIST Mass Spectrometry Data Center
Collection (C) 2014 copyright by the U.S. Secretary of Commerce
on behalf of the United States of America. All rights reserved.
##$NIST MASS SPEC NO=299707
##MOLFORM=C11 H13 N O4
##MW=223
##$NIST SOURCE=MSDC
##XUNITS=M/Z
##YUNITS=RELATIVE INTENSITY
##XFACTOR=1
##YFACTOR=1
##FIRSTX=26
##LASTX=225
##FIRSTY=10
##MAXX=225
##MINX=26
##MAXY=9999
##MINY=10
##NPOINTS=67
##PEAK TABLE=(XY..XY)
26,10 27,20 28,10 29,70
30,30 31,10 38,40 39,50
42,10 43,10 44,50 45,10
50,80 51,70 52,10 53,20
56,40 59,40 62,30 63,230
64,350 65,70 66,10 74,30
75,60 76,160 77,891 78,100
79,50 82,20 88,10 91,20
92,811 93,70 103,20 104,50
105,20 106,30 107,1381 108,140
109,10 119,30 120,40 121,130
122,20 132,10 133,50 134,30
135,9999 136,761 137,60 147,10
148,10 151,10 152,10 162,30
163,40 164,561 165,60 191,110
192,110 193,10 206,10 222,10
223,2633 224,320 225,30
##END=
