##TITLE=Isonicotinic acid, 2-pentadecyl ester
##JCAMP-DX=4.24
##DATA TYPE=MASS SPECTRUM
##ORIGIN=Zaikin V.G., TIPS RAS, Moscow, Russia
##OWNER=NIST Mass Spectrometry Data Center
Collection (C) 2014 copyright by the U.S. Secretary of Commerce
on behalf of the United States of America. All rights reserved.
##$NIST MASS SPEC NO=299901
##MOLFORM=C21 H35 N O2
##MW=333
##$NIST SOURCE=MSDC
##XUNITS=M/Z
##YUNITS=RELATIVE INTENSITY
##XFACTOR=1
##YFACTOR=1
##FIRSTX=26
##LASTX=333
##FIRSTY=40
##MAXX=333
##MINX=26
##MAXY=9999
##MINY=20
##NPOINTS=105
##PEAK TABLE=(XY..XY)
26,40 27,90 28,80 29,200
36,100 38,30 39,130 40,30
41,781 42,210 43,981 44,150
50,90 51,380 52,90 53,70
54,170 55,1191 56,511 57,831
58,60 67,280 68,220 69,871
70,450 71,380 77,70 78,1211
79,490 80,230 81,200 82,230
83,651 84,280 85,220 93,170
95,110 96,150 97,551 98,170
99,40 105,50 106,4244 107,1532
108,110 109,50 110,60 111,240
112,90 120,350 121,230 122,70
123,300 124,9999 125,1001 126,100
134,80 135,80 137,50 139,30
140,30 148,60 149,60 150,160
151,80 162,120 163,70 164,120
165,40 176,110 177,70 178,50
179,30 190,60 191,80 192,50
204,50 205,40 206,60 210,60
218,90 219,50 220,90 232,180
233,70 234,120 235,20 246,70
247,150 248,160 249,30 262,180
263,30 275,120 276,250 277,50
289,851 290,420 291,90 304,180
305,30 318,110 319,60 332,50
333,100
##END=
