##TITLE=l-Alanine, N-(p-anisoyl)-, methyl ester
##JCAMP-DX=4.24
##DATA TYPE=MASS SPECTRUM
##ORIGIN=Zaikin V.G., TIPS RAS, Moscow, Russia
##OWNER=NIST Mass Spectrometry Data Center
Collection (C) 2014 copyright by the U.S. Secretary of Commerce
on behalf of the United States of America. All rights reserved.
##$NIST MASS SPEC NO=299668
##MOLFORM=C12 H15 N O4
##MW=237
##$NIST SOURCE=MSDC
##XUNITS=M/Z
##YUNITS=RELATIVE INTENSITY
##XFACTOR=1
##YFACTOR=1
##FIRSTX=28
##LASTX=238
##FIRSTY=10
##MAXX=238
##MINX=28
##MAXY=9999
##MINY=10
##NPOINTS=36
##PEAK TABLE=(XY..XY)
28,10 39,30 42,50 44,40
50,50 51,40 59,30 63,110
64,210 65,30 75,30 76,80
77,611 78,50 79,30 89,40
92,531 93,40 103,30 104,50
107,310 108,30 120,40 121,50
133,20 134,40 135,9999 136,711
137,60 178,1572 179,170 205,30
206,30 220,30 237,460 238,60
##END=
