##TITLE=4-Bromobenzoic acid, 2-chlorophenyl ester
##JCAMP-DX=4.24
##DATA TYPE=MASS SPECTRUM
##ORIGIN=Zaikin V.G., TIPS RAS, Moscow, Russia
##OWNER=NIST Mass Spectrometry Data Center
Collection (C) 2014 copyright by the U.S. Secretary of Commerce
on behalf of the United States of America. All rights reserved.
##$NIST MASS SPEC NO=299028
##MOLFORM=C13 H8 Br Cl O2
##MW=310
##$NIST SOURCE=MSDC
##XUNITS=M/Z
##YUNITS=RELATIVE INTENSITY
##XFACTOR=1
##YFACTOR=1
##FIRSTX=25
##LASTX=312
##FIRSTY=70
##MAXX=312
##MINX=25
##MAXY=9999
##MINY=20
##NPOINTS=78
##PEAK TABLE=(XY..XY)
25,70 26,290 27,90 28,20
29,50 35,80 36,501 37,240
38,661 39,871 40,120 44,410
47,30 49,300 50,4404 51,761
52,80 53,210 55,30 60,50
61,170 62,410 63,1752 64,1081
65,320 66,50 72,70 73,1522
74,1632 75,5494 76,5995 77,701
78,50 79,190 80,430 81,190
82,420 85,50 86,30 87,40
89,40 91,40 92,260 93,30
98,30 99,1221 100,120 101,390
102,40 103,70 104,901 105,300
111,70 113,50 114,30 127,140
128,721 129,170 130,230 131,90
139,220 140,80 154,50 155,3213
156,280 157,3083 158,210 168,170
173,30 183,9999 184,741 185,9478
186,691 187,30 200,100 202,90
310,70 312,100
##END=
