##TITLE=4-Chlorobenzoic acid, pent-2-en-4-ynyl ester
##JCAMP-DX=4.24
##DATA TYPE=MASS SPECTRUM
##ORIGIN=Zaikin V.G., TIPS RAS, Moscow, Russia
##OWNER=NIST Mass Spectrometry Data Center
Collection (C) 2014 copyright by the U.S. Secretary of Commerce
on behalf of the United States of America. All rights reserved.
##$NIST MASS SPEC NO=299364
##MOLFORM=C12 H9 Cl O2
##MW=220
##$NIST SOURCE=MSDC
##XUNITS=M/Z
##YUNITS=RELATIVE INTENSITY
##XFACTOR=1
##YFACTOR=1
##FIRSTX=27
##LASTX=222
##FIRSTY=40
##MAXX=222
##MINX=27
##MAXY=9999
##MINY=20
##NPOINTS=34
##PEAK TABLE=(XY..XY)
27,40 28,20 36,50 38,60
39,370 44,40 50,240 51,150
52,40 53,30 62,40 63,200
64,110 65,521 66,30 74,110
75,571 76,170 77,80 85,60
104,60 110,30 111,1391 112,140
113,460 114,40 139,9999 140,671
141,2893 142,220 156,60 175,30
220,190 222,60
##END=
