##TITLE=5-Bromovaleric acid, 3-tetradecyl ester
##JCAMP-DX=4.24
##DATA TYPE=MASS SPECTRUM
##ORIGIN=Zaikin V.G., TIPS RAS, Moscow, Russia
##OWNER=NIST Mass Spectrometry Data Center
Collection (C) 2014 copyright by the U.S. Secretary of Commerce
on behalf of the United States of America. All rights reserved.
##$NIST MASS SPEC NO=299929
##MOLFORM=C19 H37 Br O2
##MW=376
##$NIST SOURCE=MSDC
##XUNITS=M/Z
##YUNITS=RELATIVE INTENSITY
##XFACTOR=1
##YFACTOR=1
##FIRSTX=26
##LASTX=349
##FIRSTY=180
##MAXX=349
##MINX=26
##MAXY=9999
##MINY=10
##NPOINTS=102
##PEAK TABLE=(XY..XY)
26,180 27,591 28,10 29,1111
31,40 36,60 38,30 39,440
40,90 41,2072 42,601 43,2432
44,230 45,50 51,30 53,200
54,390 55,5204 56,1672 57,2653
58,160 59,190 66,40 67,480
68,430 69,1972 70,1552 71,1502
72,110 73,210 77,30 79,130
80,190 81,400 82,831 83,2202
84,1081 85,1071 86,60 91,40
95,240 96,531 97,1972 98,751
99,410 100,120 101,1722 102,90
107,80 109,190 110,320 111,1261
112,561 113,330 119,70 123,40
124,180 125,651 126,390 127,120
135,2032 136,110 137,2002 138,240
139,290 140,350 141,100 152,60
153,160 154,130 155,40 162,40
163,9999 164,601 165,9759 166,611
167,320 168,390 169,50 178,190
179,50 180,410 181,1261 182,300
183,1532 184,100 193,60 194,30
195,40 196,2643 197,490 198,40
213,160 221,330 222,30 223,330
239,430 240,70 318,20 320,20
347,80 349,80
##END=
