##TITLE=1-(Dimethyldodecylsilyloxy)tetradecane
##JCAMP-DX=4.24
##DATA TYPE=MASS SPECTRUM
##ORIGIN=Zaikin V.G., TIPS RAS, Moscow, Russia
##OWNER=NIST Mass Spectrometry Data Center
Collection (C) 2014 copyright by the U.S. Secretary of Commerce
on behalf of the United States of America. All rights reserved.
##$NIST MASS SPEC NO=299996
##MOLFORM=C28 H60 O Si
##MW=440
##$NIST SOURCE=MSDC
##XUNITS=M/Z
##YUNITS=RELATIVE INTENSITY
##XFACTOR=1
##YFACTOR=1
##FIRSTX=26
##LASTX=427
##FIRSTY=40
##MAXX=427
##MINX=26
##MAXY=9999
##MINY=30
##NPOINTS=59
##PEAK TABLE=(XY..XY)
26,40 27,90 28,40 29,110
39,80 41,270 42,100 43,410
54,40 55,340 56,140 57,420
59,280 61,230 67,70 68,40
69,380 70,90 71,180 73,40
75,1231 76,90 77,60 81,50
82,40 83,440 84,50 85,90
87,60 89,490 90,30 95,40
97,380 98,40 99,80 101,170
111,170 113,50 115,140 125,50
129,70 143,40 157,30 171,40
185,50 199,60 213,40 227,30
229,30 255,80 257,70 271,9999
272,1992 273,521 274,60 299,40
425,1632 426,551 427,140
##END=
