##TITLE=Cyclopropanecarboxylic acid, undec-2-enyl ester
##JCAMP-DX=4.24
##DATA TYPE=MASS SPECTRUM
##ORIGIN=Zaikin V.G., TIPS RAS, Moscow, Russia
##OWNER=NIST Mass Spectrometry Data Center
Collection (C) 2014 copyright by the U.S. Secretary of Commerce
on behalf of the United States of America. All rights reserved.
##$NIST MASS SPEC NO=299381
##MOLFORM=C15 H26 O2
##MW=238
##$NIST SOURCE=MSDC
##XUNITS=M/Z
##YUNITS=RELATIVE INTENSITY
##XFACTOR=1
##YFACTOR=1
##FIRSTX=26
##LASTX=195
##FIRSTY=60
##MAXX=195
##MINX=26
##MAXY=9999
##MINY=30
##NPOINTS=53
##PEAK TABLE=(XY..XY)
26,60 27,220 28,130 29,330
39,450 40,100 41,1622 42,200
43,591 44,60 53,150 54,1001
55,911 56,210 57,340 65,30
66,60 67,621 68,561 69,9999
70,470 71,90 77,30 79,90
80,50 81,551 82,541 83,280
84,70 85,40 87,190 95,370
96,360 97,240 98,60 99,30
109,150 110,160 111,50 123,60
124,230 125,40 126,70 139,130
140,160 141,30 152,110 153,30
154,40 167,50 169,40 181,30
195,30
##END=
