##TITLE=trans-3-Trifluoromethylcinnamic acid, 2,6-dimethylnon-1-en-3-yn-5-yl ester
##JCAMP-DX=4.24
##DATA TYPE=MASS SPECTRUM
##ORIGIN=Zaikin V.G., TIPS RAS, Moscow, Russia
##OWNER=NIST Mass Spectrometry Data Center
Collection (C) 2014 copyright by the U.S. Secretary of Commerce
on behalf of the United States of America. All rights reserved.
##$NIST MASS SPEC NO=299417
##MOLFORM=C21 H23 F3 O2
##MW=364
##$NIST SOURCE=MSDC
##XUNITS=M/Z
##YUNITS=RELATIVE INTENSITY
##XFACTOR=1
##YFACTOR=1
##FIRSTX=27
##LASTX=364
##FIRSTY=60
##MAXX=364
##MINX=27
##MAXY=9999
##MINY=20
##NPOINTS=122
##PEAK TABLE=(XY..XY)
27,60 28,20 29,50 39,110
41,240 42,30 43,190 44,130
50,70 51,100 52,40 53,60
55,110 57,30 63,60 65,90
66,40 67,70 69,100 71,50
74,40 75,100 76,60 77,280
78,90 79,160 81,80 82,70
83,70 91,460 92,120 93,160
94,40 95,210 96,30 99,30
101,60 102,250 103,90 104,30
105,290 106,250 107,130 109,60
111,60 115,30 117,50 119,400
120,150 121,60 123,150 124,30
125,50 127,30 131,30 133,460
134,50 136,300 137,70 145,140
146,30 147,80 148,380 149,70
150,30 151,1321 152,200 153,30
159,90 165,250 166,80 167,30
169,130 170,200 171,1421 172,190
173,40 177,40 178,30 179,30
180,30 193,30 197,120 198,70
199,9999 200,1061 201,90 205,30
215,300 216,330 217,50 223,50
228,40 233,30 235,30 236,30
237,70 245,80 247,30 249,90
250,40 251,30 252,30 253,40
263,60 264,40 265,120 266,120
267,30 279,70 291,230 292,80
293,230 294,160 295,30 321,521
322,110 345,30 348,40 349,80
350,40 364,50
##END=
