##TITLE=4-Diisopropylsilyloxy-2,7-dimethyloct-7-en-5-yne
##JCAMP-DX=4.24
##DATA TYPE=MASS SPECTRUM
##ORIGIN=Zaikin V.G., TIPS RAS, Moscow, Russia
##OWNER=NIST Mass Spectrometry Data Center
Collection (C) 2014 copyright by the U.S. Secretary of Commerce
on behalf of the United States of America. All rights reserved.
##$NIST MASS SPEC NO=299583
##MOLFORM=C16 H30 O Si
##MW=266
##$NIST SOURCE=MSDC
##XUNITS=M/Z
##YUNITS=RELATIVE INTENSITY
##XFACTOR=1
##YFACTOR=1
##FIRSTX=26
##LASTX=267
##FIRSTY=60
##MAXX=267
##MINX=26
##MAXY=9999
##MINY=10
##NPOINTS=131
##PEAK TABLE=(XY..XY)
26,60 27,80 28,10 29,40
35,70 39,150 40,130 41,220
42,60 43,170 44,390 45,170
47,30 50,40 51,70 52,90
53,60 55,70 56,30 57,30
59,250 61,691 62,40 63,50
65,60 67,50 69,190 71,50
73,180 75,340 76,40 77,430
78,100 79,320 80,30 81,70
83,70 85,70 87,210 89,170
91,501 92,130 93,270 94,30
95,290 96,80 97,190 98,50
99,110 101,170 103,160 104,30
105,190 106,30 107,170 108,30
109,1742 110,230 111,480 112,60
113,170 115,260 116,30 117,60
119,200 120,40 121,170 123,390
124,110 125,3453 126,460 127,380
128,40 129,260 130,30 131,70
133,120 134,30 135,551 136,80
137,1211 138,230 139,1802 140,260
141,140 147,50 149,150 151,821
152,130 153,541 154,70 155,190
157,480 158,70 159,40 161,80
163,200 164,30 165,210 166,60
167,2573 168,430 169,140 175,30
177,100 179,1151 180,230 181,921
182,290 183,80 191,40 193,210
194,40 195,551 196,100 197,30
205,40 209,2072 210,430 211,110
221,1291 222,260 223,9999 224,2162
225,621 226,60 251,120 252,40
265,30 266,320 267,70
##END=
