##TITLE=3-Phenylpropionic acid, undec-2-enyl ester
##JCAMP-DX=4.24
##DATA TYPE=MASS SPECTRUM
##ORIGIN=Zaikin V.G., TIPS RAS, Moscow, Russia
##OWNER=NIST Mass Spectrometry Data Center
Collection (C) 2014 copyright by the U.S. Secretary of Commerce
on behalf of the United States of America. All rights reserved.
##$NIST MASS SPEC NO=299179
##MOLFORM=C20 H30 O2
##MW=302
##$NIST SOURCE=MSDC
##XUNITS=M/Z
##YUNITS=RELATIVE INTENSITY
##XFACTOR=1
##YFACTOR=1
##FIRSTX=25
##LASTX=304
##FIRSTY=40
##MAXX=304
##MINX=25
##MAXY=9999
##MINY=10
##NPOINTS=136
##PEAK TABLE=(XY..XY)
25,40 26,270 27,721 28,10
29,1021 30,20 31,10 37,30
38,70 39,861 40,190 41,2633
42,470 43,2392 44,320 45,20
49,20 50,180 51,430 52,160
53,490 54,1992 55,4685 56,571
57,1642 58,70 60,10 61,10
62,30 63,120 64,30 65,521
66,160 67,1602 68,991 69,3574
70,410 71,1031 72,60 73,20
74,50 75,40 76,70 77,1121
78,1001 79,1151 80,170 81,1161
82,851 83,4585 84,360 85,310
86,20 89,110 90,80 91,8778
92,1802 93,160 94,40 95,881
96,571 97,4995 98,440 99,20
101,10 102,130 103,901 104,6195
105,7396 106,711 107,9999 108,771
109,390 110,310 111,1301 112,130
113,10 115,30 116,40 117,80
118,20 119,10 120,20 121,20
123,130 124,330 125,40 128,50
129,300 130,110 131,250 132,180
133,1391 134,420 135,50 137,10
138,40 141,20 142,10 143,90
144,50 145,30 146,10 147,80
148,280 149,3644 150,5685 151,641
152,2162 153,1742 154,220 155,20
157,20 158,10 159,10 161,30
162,400 163,80 169,70 170,30
171,20 175,30 176,20 189,60
190,20 203,40 204,20 217,10
240,20 242,2222 243,501 244,50
267,10 302,170 303,30 304,20
##END=
