##TITLE=2,6-Dimethyl-5-dimethyldodecylsilyloxynon-1-en-3-yne
##JCAMP-DX=4.24
##DATA TYPE=MASS SPECTRUM
##ORIGIN=Zaikin V.G., TIPS RAS, Moscow, Russia
##OWNER=NIST Mass Spectrometry Data Center
Collection (C) 2014 copyright by the U.S. Secretary of Commerce
on behalf of the United States of America. All rights reserved.
##$NIST MASS SPEC NO=299556
##MOLFORM=C25 H48 O Si
##MW=392
##$NIST SOURCE=MSDC
##XUNITS=M/Z
##YUNITS=RELATIVE INTENSITY
##XFACTOR=1
##YFACTOR=1
##FIRSTX=26
##LASTX=394
##FIRSTY=60
##MAXX=394
##MINX=26
##MAXY=9999
##MINY=10
##NPOINTS=177
##PEAK TABLE=(XY..XY)
26,60 27,140 28,60 29,160
36,10 37,10 38,20 39,150
40,40 41,420 42,160 43,541
44,40 45,40 47,30 50,20
51,30 52,20 53,50 54,30
55,320 56,140 57,210 58,40
59,1942 60,150 61,340 62,20
63,20 65,50 66,30 67,80
68,20 69,170 70,100 71,110
72,30 73,250 74,40 75,1752
76,140 77,210 78,100 79,140
80,20 81,60 82,20 83,140
84,50 85,150 86,20 87,220
88,20 89,70 91,210 92,50
93,110 94,30 95,60 96,20
97,140 98,60 99,300 100,30
101,110 102,10 103,40 104,10
105,120 106,90 107,130 108,30
109,300 110,40 111,100 112,30
113,140 114,10 115,120 116,10
117,40 118,10 119,80 120,20
121,40 122,40 123,3313 124,440
125,270 126,30 127,110 128,20
129,60 131,10 133,80 134,10
135,40 136,10 137,250 138,70
139,120 140,20 141,70 142,10
143,50 145,10 147,110 148,80
149,300 150,40 151,140 152,60
153,9999 154,1311 155,450 156,40
157,270 158,30 159,30 161,10
163,30 165,100 166,20 167,90
168,20 169,10 177,10 179,140
180,40 181,100 182,60 183,10
191,10 193,130 194,20 195,30
196,10 197,10 205,20 210,30
211,10 221,10 223,480 224,240
225,60 226,10 227,170 228,30
229,20 235,20 245,10 247,10
249,10 255,30 279,10 303,10
305,10 311,20 321,3323 322,871
323,240 324,30 335,70 336,20
349,60 350,110 351,50 352,10
363,50 364,20 377,150 378,40
379,10 391,10 392,160 393,50
394,10
##END=
