##TITLE=(Phenylthio)acetic acid, dodec-9-ynyl ester
##JCAMP-DX=4.24
##DATA TYPE=MASS SPECTRUM
##ORIGIN=Zaikin V.G., TIPS RAS, Moscow, Russia
##OWNER=NIST Mass Spectrometry Data Center
Collection (C) 2014 copyright by the U.S. Secretary of Commerce
on behalf of the United States of America. All rights reserved.
##$NIST MASS SPEC NO=299960
##MOLFORM=C20 H28 O2 S
##MW=332
##$NIST SOURCE=MSDC
##XUNITS=M/Z
##YUNITS=RELATIVE INTENSITY
##XFACTOR=1
##YFACTOR=1
##FIRSTX=26
##LASTX=334
##FIRSTY=60
##MAXX=334
##MINX=26
##MAXY=9999
##MINY=30
##NPOINTS=122
##PEAK TABLE=(XY..XY)
26,60 27,150 28,90 29,230
39,360 40,80 41,1251 42,140
43,360 44,80 45,1041 46,40
47,50 50,90 51,230 52,80
53,300 54,190 55,1512 56,120
57,140 63,50 65,480 66,350
67,1672 68,991 69,581 70,50
71,90 76,30 77,651 78,290
79,1451 80,571 81,1281 82,1742
83,260 84,50 85,50 91,390
92,70 93,1191 94,561 95,911
96,1131 97,200 105,150 106,40
107,731 108,440 109,941 110,691
111,110 112,30 113,30 119,40
121,941 122,350 123,6956 124,971
125,380 126,70 127,30 129,30
133,40 135,871 136,260 137,70
141,100 143,30 147,130 148,80
149,160 150,190 151,390 152,60
153,30 161,390 162,140 163,160
164,731 165,110 168,9999 169,1061
170,531 171,50 173,40 174,50
175,370 176,110 177,90 181,50
187,90 188,30 189,110 190,30
191,40 201,50 203,50 205,50
217,130 218,40 222,50 223,130
231,100 234,30 236,60 243,30
250,160 255,40 264,170 272,30
273,30 277,50 289,50 290,30
303,30 317,40 331,40 332,1842
333,420 334,130
##END=
