##TITLE=1,3-Didodecyl-1,1,3,3-tetramethyldisiloxane
##JCAMP-DX=4.24
##DATA TYPE=MASS SPECTRUM
##ORIGIN=Zaikin V.G., TIPS RAS, Moscow, Russia
##OWNER=NIST Mass Spectrometry Data Center
Collection (C) 2014 copyright by the U.S. Secretary of Commerce
on behalf of the United States of America. All rights reserved.
##$NIST MASS SPEC NO=299090
##MOLFORM=C28 H62 O Si2
##MW=470
##$NIST SOURCE=MSDC
##XUNITS=M/Z
##YUNITS=RELATIVE INTENSITY
##XFACTOR=1
##YFACTOR=1
##FIRSTX=28
##LASTX=457
##FIRSTY=20
##MAXX=457
##MINX=28
##MAXY=9999
##MINY=20
##NPOINTS=47
##PEAK TABLE=(XY..XY)
28,20 29,50 41,110 42,40
43,200 55,80 56,60 57,110
59,40 69,40 70,40 71,30
73,100 103,40 105,70 117,190
118,30 119,1321 120,180 121,100
131,130 132,30 133,9999 134,1251
135,661 136,60 145,90 147,30
159,180 160,30 173,140 187,60
201,40 215,50 229,70 243,50
285,60 287,751 288,210 289,70
301,4725 302,1191 303,450 304,80
455,440 456,180 457,60
##END=
