##TITLE=l-Alanine, N-(4-butylbenzoyl)-, methyl ester
##JCAMP-DX=4.24
##DATA TYPE=MASS SPECTRUM
##ORIGIN=Zaikin V.G., TIPS RAS, Moscow, Russia
##OWNER=NIST Mass Spectrometry Data Center
Collection (C) 2014 copyright by the U.S. Secretary of Commerce
on behalf of the United States of America. All rights reserved.
##$NIST MASS SPEC NO=299692
##MOLFORM=C15 H21 N O3
##MW=263
##$NIST SOURCE=MSDC
##XUNITS=M/Z
##YUNITS=RELATIVE INTENSITY
##XFACTOR=1
##YFACTOR=1
##FIRSTX=27
##LASTX=264
##FIRSTY=30
##MAXX=264
##MINX=27
##MAXY=9999
##MINY=10
##NPOINTS=45
##PEAK TABLE=(XY..XY)
27,30 28,10 39,30 41,60
42,30 44,40 51,30 55,40
63,30 65,80 77,110 78,40
79,30 89,130 90,360 91,721
92,80 102,60 103,110 104,90
105,110 115,60 116,50 117,60
118,380 119,60 131,120 132,60
133,90 134,20 159,80 160,40
161,9999 162,1051 163,70 174,40
202,350 203,50 204,2102 205,310
220,50 231,30 232,50 263,180
264,30
##END=
