##TITLE=trans-3-Trifluoromethylcinnamic acid, 2-methyloct-5-yn-4-yl ester
##JCAMP-DX=4.24
##DATA TYPE=MASS SPECTRUM
##ORIGIN=Zaikin V.G., TIPS RAS, Moscow, Russia
##OWNER=NIST Mass Spectrometry Data Center
Collection (C) 2014 copyright by the U.S. Secretary of Commerce
on behalf of the United States of America. All rights reserved.
##$NIST MASS SPEC NO=299415
##MOLFORM=C19 H21 F3 O2
##MW=338
##$NIST SOURCE=MSDC
##XUNITS=M/Z
##YUNITS=RELATIVE INTENSITY
##XFACTOR=1
##YFACTOR=1
##FIRSTX=26
##LASTX=323
##FIRSTY=30
##MAXX=323
##MINX=26
##MAXY=9999
##MINY=30
##NPOINTS=84
##PEAK TABLE=(XY..XY)
26,30 27,100 28,40 29,110
39,140 40,30 41,350 42,30
43,310 44,40 50,40 51,70
52,30 53,120 55,240 56,30
57,100 63,30 65,80 66,50
67,140 68,40 69,190 75,50
76,30 77,220 78,50 79,541
80,140 81,440 82,30 83,60
91,270 92,50 93,681 94,130
95,100 97,370 98,30 101,40
102,200 103,30 105,70 107,751
108,70 120,50 121,50 122,220
123,50 124,60 125,40 139,210
140,50 145,110 151,1041 152,140
159,40 169,90 170,140 171,1001
172,150 197,90 198,40 199,9999
200,921 201,60 215,130 216,130
217,30 223,30 241,30 253,30
254,30 255,30 267,80 268,50
281,40 282,220 283,40 295,651
296,120 319,220 320,40 323,40
##END=
