##TITLE=Isonicotinic acid, 4-hexadecyl ester
##JCAMP-DX=4.24
##DATA TYPE=MASS SPECTRUM
##ORIGIN=Zaikin V.G., TIPS RAS, Moscow, Russia
##OWNER=NIST Mass Spectrometry Data Center
Collection (C) 2014 copyright by the U.S. Secretary of Commerce
on behalf of the United States of America. All rights reserved.
##$NIST MASS SPEC NO=299969
##MOLFORM=C22 H37 N O2
##MW=347
##$NIST SOURCE=MSDC
##XUNITS=M/Z
##YUNITS=RELATIVE INTENSITY
##XFACTOR=1
##YFACTOR=1
##FIRSTX=26
##LASTX=348
##FIRSTY=40
##MAXX=348
##MINX=26
##MAXY=9999
##MINY=30
##NPOINTS=104
##PEAK TABLE=(XY..XY)
26,40 27,120 28,90 29,220
39,110 41,701 42,210 43,1001
44,80 50,60 51,310 52,70
53,50 54,160 55,1081 56,541
57,911 58,40 67,220 68,170
69,901 70,571 71,470 72,30
77,50 78,1291 79,370 80,190
81,170 82,230 83,781 84,380
85,280 93,110 95,100 96,150
97,691 98,230 99,60 105,40
106,8958 107,1441 108,110 109,40
110,70 111,390 112,140 113,30
120,120 121,280 122,80 123,230
124,9999 125,1181 126,220 134,70
135,110 137,30 139,50 140,50
148,80 149,40 150,90 151,30
154,40 162,70 163,40 164,60
176,30 177,80 178,240 179,40
190,40 191,40 192,30 196,40
204,70 205,30 218,110 219,40
224,110 232,50 233,150 234,30
246,40 247,40 248,30 260,60
261,50 262,50 274,320 275,90
276,140 277,40 290,70 303,1211
304,631 305,110 318,200 319,40
332,40 346,60 347,170 348,60
##END=
