##TITLE=3-Phenylpropionic acid, 2,7-dimethyloct-7-en-5-yn-4-yl ester
##JCAMP-DX=4.24
##DATA TYPE=MASS SPECTRUM
##ORIGIN=Zaikin V.G., TIPS RAS, Moscow, Russia
##OWNER=NIST Mass Spectrometry Data Center
Collection (C) 2014 copyright by the U.S. Secretary of Commerce
on behalf of the United States of America. All rights reserved.
##$NIST MASS SPEC NO=299177
##MOLFORM=C19 H24 O2
##MW=284
##$NIST SOURCE=MSDC
##XUNITS=M/Z
##YUNITS=RELATIVE INTENSITY
##XFACTOR=1
##YFACTOR=1
##FIRSTX=25
##LASTX=286
##FIRSTY=20
##MAXX=286
##MINX=25
##MAXY=9999
##MINY=10
##NPOINTS=152
##PEAK TABLE=(XY..XY)
25,20 26,130 27,420 29,230
37,30 38,60 39,551 40,160
41,1081 42,110 43,1091 44,210
45,10 49,20 50,190 51,541
52,210 53,320 54,30 55,511
56,60 57,190 61,10 62,50
63,210 64,100 65,731 66,190
67,400 68,120 69,290 70,50
71,30 73,10 74,60 75,60
76,90 77,1962 78,751 79,1532
80,190 81,821 82,100 83,100
84,40 85,50 86,10 87,10
89,140 90,110 91,9999 92,1431
93,1241 94,210 95,911 96,400
97,170 98,20 99,10 101,10
102,110 103,781 104,1231 105,7757
106,751 107,1201 108,270 109,2913
110,1401 111,130 112,10 115,90
116,50 117,240 118,50 119,3463
120,400 121,80 122,20 123,290
124,120 125,10 128,20 129,30
131,270 132,210 133,1461 134,741
135,250 136,170 137,651 138,110
139,10 141,20 142,10 143,20
145,10 147,10 149,120 150,270
151,501 152,1822 153,220 154,30
155,50 156,10 157,10 163,10
165,30 166,10 167,50 168,30
169,40 171,10 173,10 175,30
176,30 179,90 180,240 181,200
182,40 183,20 185,10 186,10
187,10 188,20 189,10 193,160
194,20 195,30 199,40 200,20
201,10 211,10 213,20 214,10
215,40 223,10 224,20 225,20
227,80 228,80 229,10 240,10
241,5575 242,931 243,90 247,10
269,50 284,701 285,130 286,10
##END=
