##TITLE=l-Phenylalanine, N-(2-fluorobenzoyl)-, methyl ester
##JCAMP-DX=4.24
##DATA TYPE=MASS SPECTRUM
##ORIGIN=Zaikin V.G., TIPS RAS, Moscow, Russia
##OWNER=NIST Mass Spectrometry Data Center
Collection (C) 2014 copyright by the U.S. Secretary of Commerce
on behalf of the United States of America. All rights reserved.
##$NIST MASS SPEC NO=299624
##MOLFORM=C17 H16 F N O3
##MW=301
##$NIST SOURCE=MSDC
##XUNITS=M/Z
##YUNITS=RELATIVE INTENSITY
##XFACTOR=1
##YFACTOR=1
##FIRSTX=28
##LASTX=243
##FIRSTY=10
##MAXX=243
##MINX=28
##MAXY=9999
##MINY=10
##NPOINTS=43
##PEAK TABLE=(XY..XY)
28,10 39,40 44,40 50,50
51,60 63,30 65,140 75,240
76,40 77,80 78,30 89,40
90,30 91,621 92,120 94,80
95,1201 96,130 102,50 103,110
104,50 117,80 118,70 119,30
121,90 122,70 123,9999 124,651
125,40 130,30 131,851 132,100
139,40 140,30 144,30 161,410
162,5635 163,581 164,50 210,180
241,40 242,671 243,110
##END=
