##TITLE=5-Bromovaleric acid, 2-tridecyl ester
##JCAMP-DX=4.24
##DATA TYPE=MASS SPECTRUM
##ORIGIN=Zaikin V.G., TIPS RAS, Moscow, Russia
##OWNER=NIST Mass Spectrometry Data Center
Collection (C) 2014 copyright by the U.S. Secretary of Commerce
on behalf of the United States of America. All rights reserved.
##$NIST MASS SPEC NO=299924
##MOLFORM=C18 H35 Br O2
##MW=362
##$NIST SOURCE=MSDC
##XUNITS=M/Z
##YUNITS=RELATIVE INTENSITY
##XFACTOR=1
##YFACTOR=1
##FIRSTX=25
##LASTX=240
##FIRSTY=50
##MAXX=240
##MINX=25
##MAXY=9999
##MINY=20
##NPOINTS=103
##PEAK TABLE=(XY..XY)
25,50 26,360 27,1161 28,40
29,2012 30,30 37,30 38,70
39,891 40,210 41,4334 42,1481
43,5234 44,661 45,330 50,50
51,60 52,50 53,410 54,761
55,9999 56,4094 57,6215 58,370
59,300 60,40 65,50 66,70
67,901 68,941 69,4094 70,3564
71,3353 72,170 73,511 74,40
77,50 79,240 80,350 81,721
82,1742 83,4434 84,2402 85,2142
86,110 87,40 91,80 93,30
95,370 96,1031 97,3934 98,1662
99,871 100,270 101,4274 102,230
103,40 107,140 109,300 110,571
111,2212 112,1101 113,340 119,130
120,40 121,40 123,70 124,280
125,1171 126,691 127,240 135,2492
136,130 137,2422 138,350 139,511
140,721 141,150 152,80 153,300
154,711 155,80 162,50 163,9268
164,541 165,9048 166,450 167,30
178,230 179,70 180,671 181,2112
182,3974 183,3013 184,190 191,20
193,30 199,230 207,460 208,40
209,400 239,531 240,70
##END=
