##TITLE=Nicotinic acid, pentyl ester
##JCAMP-DX=4.24
##DATA TYPE=MASS SPECTRUM
##ORIGIN=Zaikin V.G., TIPS RAS, Moscow, Russia
##OWNER=NIST Mass Spectrometry Data Center
Collection (C) 2014 copyright by the U.S. Secretary of Commerce
on behalf of the United States of America. All rights reserved.
##$NIST MASS SPEC NO=299856
##MOLFORM=C11 H15 N O2
##MW=193
##$NIST SOURCE=MSDC
##XUNITS=M/Z
##YUNITS=RELATIVE INTENSITY
##XFACTOR=1
##YFACTOR=1
##FIRSTX=26
##LASTX=194
##FIRSTY=140
##MAXX=194
##MINX=26
##MAXY=9999
##MINY=20
##NPOINTS=60
##PEAK TABLE=(XY..XY)
26,140 27,681 28,20 29,721
31,20 36,90 38,60 39,531
40,100 41,1341 42,1802 43,1041
44,120 45,80 49,40 50,621
51,2503 52,450 53,190 54,60
55,1582 56,100 57,80 65,30
66,30 67,70 68,50 69,350
70,1712 71,110 75,30 76,110
77,390 78,5294 79,911 80,170
83,20 91,120 105,1311 106,8778
107,661 108,60 121,50 123,1642
124,9999 125,691 126,50 136,30
137,1572 138,110 150,501 151,430
152,40 164,2292 165,440 166,30
178,60 192,921 193,180 194,30
##END=
