##TITLE=3-Phenylpropionic acid, 2-methyloct-5-yn-4-yl ester
##JCAMP-DX=4.24
##DATA TYPE=MASS SPECTRUM
##ORIGIN=Zaikin V.G., TIPS RAS, Moscow, Russia
##OWNER=NIST Mass Spectrometry Data Center
Collection (C) 2014 copyright by the U.S. Secretary of Commerce
on behalf of the United States of America. All rights reserved.
##$NIST MASS SPEC NO=299176
##MOLFORM=C18 H24 O2
##MW=272
##$NIST SOURCE=MSDC
##XUNITS=M/Z
##YUNITS=RELATIVE INTENSITY
##XFACTOR=1
##YFACTOR=1
##FIRSTX=25
##LASTX=273
##FIRSTY=20
##MAXX=273
##MINX=25
##MAXY=9999
##MINY=10
##NPOINTS=166
##PEAK TABLE=(XY..XY)
25,20 26,130 27,450 28,10
29,390 37,30 38,90 39,721
40,190 41,1441 42,140 43,1502
44,350 45,20 49,30 50,230
51,611 52,260 53,571 54,100
55,1231 56,170 57,611 58,20
61,10 62,50 63,220 64,60
65,961 66,310 67,1241 68,210
69,1011 70,90 71,100 72,10
73,10 74,70 75,60 76,100
77,2212 78,991 79,3233 80,611
81,5635 82,450 83,320 84,70
85,150 86,10 89,150 90,100
91,9999 92,1001 93,2432 94,501
95,941 96,120 97,721 98,1181
99,80 101,10 102,160 103,1141
104,2613 105,9859 106,951 107,5895
108,621 109,120 110,20 111,420
112,140 113,10 115,50 116,10
117,50 118,30 119,30 120,20
121,240 122,1491 123,2152 124,380
125,891 126,90 127,10 128,40
129,80 130,20 131,400 132,310
133,3053 134,330 135,30 138,50
139,981 140,7917 141,1031 142,100
143,120 144,20 145,40 146,10
147,40 148,80 149,571 150,711
151,90 152,10 153,30 154,10
155,180 156,330 157,180 158,20
159,50 160,10 163,20 167,250
168,150 169,961 170,200 171,60
173,40 174,80 175,210 176,30
181,90 182,10 183,501 184,110
185,20 186,10 187,160 188,90
189,100 190,10 197,120 198,20
199,80 200,20 201,160 202,60
203,30 211,110 212,350 213,140
214,20 215,170 216,340 217,90
225,10 226,30 227,10 228,10
229,5785 230,1011 231,100 239,10
243,140 244,30 257,150 258,20
272,230 273,40
##END=
