##TITLE=4-Cyanobenzoic acid, hex-4-yn-3-yl ester
##JCAMP-DX=4.24
##DATA TYPE=MASS SPECTRUM
##ORIGIN=Zaikin V.G., TIPS RAS, Moscow, Russia
##OWNER=NIST Mass Spectrometry Data Center
Collection (C) 2014 copyright by the U.S. Secretary of Commerce
on behalf of the United States of America. All rights reserved.
##$NIST MASS SPEC NO=299224
##MOLFORM=C14 H13 N O2
##MW=227
##$NIST SOURCE=MSDC
##XUNITS=M/Z
##YUNITS=RELATIVE INTENSITY
##XFACTOR=1
##YFACTOR=1
##FIRSTX=26
##LASTX=228
##FIRSTY=30
##MAXX=228
##MINX=26
##MAXY=9999
##MINY=20
##NPOINTS=54
##PEAK TABLE=(XY..XY)
26,30 27,150 28,20 29,60
38,30 39,260 40,60 41,350
43,50 44,80 50,210 51,310
52,150 53,360 54,30 55,60
57,50 63,40 65,140 66,70
67,90 69,170 74,50 75,310
76,220 77,280 78,50 79,2032
80,851 81,320 97,270 101,50
102,1842 103,270 106,30 130,9999
131,911 132,50 147,220 148,80
156,40 157,90 170,90 181,50
184,70 185,40 198,601 199,380
200,50 212,1772 213,260 226,50
227,751 228,120
##END=
