##TITLE=m-Toluic acid, 5-tridecyl ester
##JCAMP-DX=4.24
##DATA TYPE=MASS SPECTRUM
##ORIGIN=Zaikin V.G., TIPS RAS, Moscow, Russia
##OWNER=NIST Mass Spectrometry Data Center
Collection (C) 2014 copyright by the U.S. Secretary of Commerce
on behalf of the United States of America. All rights reserved.
##$NIST MASS SPEC NO=299781
##MOLFORM=C21 H34 O2
##MW=318
##$NIST SOURCE=MSDC
##XUNITS=M/Z
##YUNITS=RELATIVE INTENSITY
##XFACTOR=1
##YFACTOR=1
##FIRSTX=26
##LASTX=205
##FIRSTY=50
##MAXX=205
##MINX=26
##MAXY=9999
##MINY=20
##NPOINTS=69
##PEAK TABLE=(XY..XY)
26,50 27,150 28,120 29,310
39,190 40,30 41,751 42,180
43,711 44,100 50,30 51,40
53,60 54,140 55,891 56,551
57,671 58,50 63,70 65,450
66,40 67,180 68,150 69,761
70,591 71,280 77,80 79,50
81,130 82,240 83,691 84,450
85,170 89,140 90,170 91,2332
92,260 93,230 95,60 96,200
97,681 98,350 99,40 105,80
110,130 111,450 112,240 113,40
118,70 119,9999 120,941 121,60
124,70 125,300 126,140 127,20
134,100 135,80 136,561 137,3103
138,300 139,120 140,90 153,60
154,160 182,1532 183,210 199,180
205,30
##END=
