##TITLE=2,6-Dimethyl-5-trihehylsilyloxynon-1-en-3-yne
##JCAMP-DX=4.24
##DATA TYPE=MASS SPECTRUM
##ORIGIN=Zaikin V.G., TIPS RAS, Moscow, Russia
##OWNER=NIST Mass Spectrometry Data Center
Collection (C) 2014 copyright by the U.S. Secretary of Commerce
on behalf of the United States of America. All rights reserved.
##$NIST MASS SPEC NO=299527
##MOLFORM=C29 H56 O Si
##MW=448
##$NIST SOURCE=MSDC
##XUNITS=M/Z
##YUNITS=RELATIVE INTENSITY
##XFACTOR=1
##YFACTOR=1
##FIRSTX=27
##LASTX=449
##FIRSTY=30
##MAXX=449
##MINX=27
##MAXY=9999
##MINY=20
##NPOINTS=143
##PEAK TABLE=(XY..XY)
27,30 29,30 39,70 41,160
42,80 43,180 44,30 45,50
47,60 55,160 56,90 57,70
59,240 61,140 65,30 67,40
69,60 71,100 73,280 74,40
75,170 77,100 78,30 79,100
81,50 83,180 84,100 85,460
86,40 87,150 89,60 91,160
92,30 93,100 95,390 96,60
97,190 98,40 99,160 101,190
103,40 105,100 106,40 107,100
109,450 110,60 111,340 112,50
113,531 114,60 115,501 116,60
117,40 119,80 121,120 122,30
123,501 124,370 125,360 126,90
127,90 129,170 131,541 132,60
133,70 135,120 136,30 137,831
138,170 139,140 140,50 141,40
143,40 147,80 148,40 149,240
150,50 151,440 152,100 153,120
163,30 165,210 166,60 167,90
168,30 177,140 178,30 179,601
180,140 181,70 193,70 195,501
196,90 197,70 199,801 200,140
201,30 209,6806 210,1271 211,380
212,40 213,450 214,80 215,340
216,60 221,90 223,40 235,70
236,20 237,60 249,150 250,30
251,40 261,60 263,210 264,50
265,30 277,40 279,9999 280,2402
281,631 282,80 283,110 291,40
293,1331 294,340 295,80 297,681
298,170 299,60 319,30 321,40
322,30 363,2513 364,1141 365,300
366,60 377,1772 378,531 379,140
406,60 448,110 449,40
##END=
