##TITLE=1-Diisopropylsilyloxy-3-methylbut-2-ene
##JCAMP-DX=4.24
##DATA TYPE=MASS SPECTRUM
##ORIGIN=Zaikin V.G., TIPS RAS, Moscow, Russia
##OWNER=NIST Mass Spectrometry Data Center
Collection (C) 2014 copyright by the U.S. Secretary of Commerce
on behalf of the United States of America. All rights reserved.
##$NIST MASS SPEC NO=299578
##MOLFORM=C11 H24 O Si
##MW=200
##$NIST SOURCE=MSDC
##XUNITS=M/Z
##YUNITS=RELATIVE INTENSITY
##XFACTOR=1
##YFACTOR=1
##FIRSTX=26
##LASTX=200
##FIRSTY=130
##MAXX=200
##MINX=26
##MAXY=9999
##MINY=10
##NPOINTS=85
##PEAK TABLE=(XY..XY)
26,130 27,350 28,10 29,150
35,30 36,250 37,30 38,140
39,531 40,230 41,1732 42,240
43,420 44,260 45,851 46,80
47,410 50,60 51,70 52,80
53,300 54,50 55,180 57,110
58,30 59,601 60,180 61,9999
62,611 63,350 64,60 65,50
67,290 68,160 69,1061 70,130
71,150 72,60 73,450 74,60
75,1171 76,80 77,90 79,100
83,40 85,110 87,541 88,140
89,2543 90,200 91,100 95,40
96,30 97,240 98,40 99,220
100,30 101,721 102,70 103,440
104,30 105,40 110,40 111,400
112,40 113,430 114,60 115,1261
116,140 117,50 127,70 129,891
130,110 131,120 139,711 140,80
141,90 143,70 155,90 157,5675
158,731 159,230 185,430 186,50
200,30
##END=
