##TITLE=2-Trihexylsilyloxybut-3-yne
##JCAMP-DX=4.24
##DATA TYPE=MASS SPECTRUM
##ORIGIN=Zaikin V.G., TIPS RAS, Moscow, Russia
##OWNER=NIST Mass Spectrometry Data Center
Collection (C) 2014 copyright by the U.S. Secretary of Commerce
on behalf of the United States of America. All rights reserved.
##$NIST MASS SPEC NO=299520
##MOLFORM=C22 H44 O Si
##MW=352
##$NIST SOURCE=MSDC
##XUNITS=M/Z
##YUNITS=RELATIVE INTENSITY
##XFACTOR=1
##YFACTOR=1
##FIRSTX=28
##LASTX=269
##FIRSTY=10
##MAXX=269
##MINX=28
##MAXY=9999
##MINY=10
##NPOINTS=59
##PEAK TABLE=(XY..XY)
28,10 41,40 43,60 45,60
47,40 55,90 56,30 57,30
59,50 61,60 69,50 71,60
73,130 75,60 81,60 83,280
84,30 85,170 87,50 89,40
95,90 97,470 98,80 99,420
100,50 101,110 109,250 110,30
111,771 112,150 113,190 114,30
115,60 125,80 127,160 129,70
137,250 138,30 139,521 140,80
141,150 153,120 155,230 156,30
157,60 167,30 181,60 182,30
183,9999 184,1592 185,460 186,40
199,30 223,150 224,30 253,50
267,1051 268,240 269,60
##END=
