##TITLE=1,3-Difluoro-5-dichloromethyldimethylsilyloxybenzene
##JCAMP-DX=4.24
##DATA TYPE=MASS SPECTRUM
##ORIGIN=Zaikin V.G., TIPS RAS, Moscow, Russia
##OWNER=NIST Mass Spectrometry Data Center
Collection (C) 2014 copyright by the U.S. Secretary of Commerce
on behalf of the United States of America. All rights reserved.
##$NIST MASS SPEC NO=299106
##MOLFORM=C9 H10 Cl2 F2 O Si
##MW=270
##$NIST SOURCE=MSDC
##XUNITS=M/Z
##YUNITS=RELATIVE INTENSITY
##XFACTOR=1
##YFACTOR=1
##FIRSTX=27
##LASTX=274
##FIRSTY=50
##MAXX=274
##MINX=27
##MAXY=9999
##MINY=20
##NPOINTS=75
##PEAK TABLE=(XY..XY)
27,50 28,20 36,120 38,30
39,80 43,110 44,50 45,90
47,110 49,80 50,50 51,90
53,250 57,70 62,50 63,921
64,30 65,110 73,30 74,30
75,130 77,821 78,100 79,160
80,30 81,851 82,100 83,80
89,70 91,130 93,260 94,140
95,140 97,160 98,20 99,80
101,100 105,40 107,50 109,160
110,40 113,470 114,80 115,210
117,70 125,60 126,40 127,110
130,60 139,30 141,40 143,30
157,280 161,30 169,40 171,220
172,30 183,130 184,40 185,60
186,60 187,9999 188,1271 189,390
191,40 199,40 207,190 219,150
221,50 222,30 270,480 271,60
272,330 273,40 274,60
##END=
