##TITLE=l-Methionine, N-(3-trifluoromethylbenzoyl)-, methyl ester
##JCAMP-DX=4.24
##DATA TYPE=MASS SPECTRUM
##ORIGIN=Zaikin V.G., TIPS RAS, Moscow, Russia
##OWNER=NIST Mass Spectrometry Data Center
Collection (C) 2014 copyright by the U.S. Secretary of Commerce
on behalf of the United States of America. All rights reserved.
##$NIST MASS SPEC NO=299701
##MOLFORM=C14 H16 F3 N O3 S
##MW=335
##$NIST SOURCE=MSDC
##XUNITS=M/Z
##YUNITS=RELATIVE INTENSITY
##XFACTOR=1
##YFACTOR=1
##FIRSTX=26
##LASTX=337
##FIRSTY=30
##MAXX=337
##MINX=26
##MAXY=9999
##MINY=10
##NPOINTS=135
##PEAK TABLE=(XY..XY)
26,30 27,80 28,10 29,40
30,10 31,20 33,40 35,50
36,10 39,30 41,130 42,30
43,10 44,80 45,110 46,50
47,140 48,50 49,30 50,60
51,30 54,50 55,40 56,120
57,130 58,20 59,110 60,30
61,1061 62,60 63,60 68,10
69,30 71,10 73,10 74,120
75,460 76,70 77,40 81,10
83,10 85,20 86,40 87,80
88,1031 89,50 91,10 94,20
95,240 96,30 99,70 100,30
101,10 102,40 103,10 105,10
107,20 112,30 114,320 115,30
117,20 119,30 125,190 126,250
127,60 131,40 132,10 133,10
143,20 144,80 145,3463 146,330
147,10 152,10 154,60 155,70
159,10 160,10 162,511 163,40
164,20 168,10 171,30 172,80
173,9999 174,1271 175,90 182,20
185,10 186,10 188,20 189,20
190,140 191,10 198,20 200,20
201,941 202,110 203,10 214,20
215,20 216,20 227,70 228,440
229,3844 230,460 231,40 241,20
242,691 243,140 244,30 255,70
256,70 257,10 260,40 261,4505
262,561 263,60 273,10 274,921
275,130 276,320 277,40 278,10
287,20 288,230 289,30 303,60
304,30 316,200 317,30 318,10
335,591 336,110 337,40
##END=
