##TITLE=o-Toluic acid, 2-pentadecyl ester
##JCAMP-DX=4.24
##DATA TYPE=MASS SPECTRUM
##ORIGIN=Zaikin V.G., TIPS RAS, Moscow, Russia
##OWNER=NIST Mass Spectrometry Data Center
Collection (C) 2014 copyright by the U.S. Secretary of Commerce
on behalf of the United States of America. All rights reserved.
##$NIST MASS SPEC NO=299798
##MOLFORM=C23 H38 O2
##MW=346
##$NIST SOURCE=MSDC
##XUNITS=M/Z
##YUNITS=RELATIVE INTENSITY
##XFACTOR=1
##YFACTOR=1
##FIRSTX=26
##LASTX=346
##FIRSTY=60
##MAXX=346
##MINX=26
##MAXY=9999
##MINY=30
##NPOINTS=69
##PEAK TABLE=(XY..XY)
26,60 27,120 28,110 29,280
39,190 40,30 41,891 42,210
43,1211 44,150 50,30 51,50
53,60 54,120 55,1131 56,470
57,1201 58,70 63,60 65,370
66,30 67,200 68,150 69,751
70,390 71,641 72,30 77,110
79,80 81,130 82,170 83,551
84,240 85,400 89,130 90,290
91,1652 92,190 93,220 95,80
96,110 97,501 98,150 99,80
105,50 109,30 110,50 111,260
112,90 113,40 118,2292 119,4154
120,390 121,30 124,30 125,110
126,50 135,190 136,9999 137,2553
138,240 139,40 140,30 163,40
182,30 210,220 211,60 227,40
346,80
##END=
