##TITLE=Nicotinic acid, dodec-9-ynyl ester
##JCAMP-DX=4.24
##DATA TYPE=MASS SPECTRUM
##ORIGIN=Zaikin V.G., TIPS RAS, Moscow, Russia
##OWNER=NIST Mass Spectrometry Data Center
Collection (C) 2014 copyright by the U.S. Secretary of Commerce
on behalf of the United States of America. All rights reserved.
##$NIST MASS SPEC NO=299976
##MOLFORM=C18 H25 N O2
##MW=287
##$NIST SOURCE=MSDC
##XUNITS=M/Z
##YUNITS=RELATIVE INTENSITY
##XFACTOR=1
##YFACTOR=1
##FIRSTX=26
##LASTX=289
##FIRSTY=120
##MAXX=289
##MINX=26
##MAXY=9999
##MINY=10
##NPOINTS=140
##PEAK TABLE=(XY..XY)
26,120 27,270 28,10 29,340
36,30 38,40 39,480 40,150
41,1712 42,210 43,310 44,130
50,210 51,861 52,300 53,581
54,440 55,1712 56,150 57,90
63,40 65,350 66,400 67,2593
68,1962 69,511 70,40 71,30
76,40 77,631 78,3463 79,3764
80,791 81,1201 82,911 83,140
91,440 92,90 93,1411 94,310
95,771 96,160 97,100 105,400
106,5074 107,2272 108,270 109,290
110,40 117,40 118,20 119,110
120,130 121,360 122,100 123,340
124,9999 125,711 126,60 130,50
131,50 132,40 133,80 134,60
135,320 136,60 137,140 144,70
145,1752 146,370 147,130 148,40
149,60 150,70 151,340 152,40
158,100 159,1632 160,280 161,60
162,60 163,40 164,360 165,240
166,30 172,190 173,460 174,170
175,30 176,250 177,40 178,1211
179,170 186,370 187,340 188,150
189,100 190,1822 191,240 192,681
193,90 200,310 201,1031 202,320
203,50 204,1001 205,150 206,1642
207,300 214,140 215,300 216,80
217,40 218,60 219,40 220,2603
221,410 222,40 228,80 229,90
230,240 231,120 232,80 233,30
234,50 242,150 243,90 244,1682
245,380 246,100 258,851 259,490
260,80 272,3343 273,641 274,70
286,5414 287,4635 288,981 289,130
##END=
