##TITLE=l-Serine, N,O-bis(caproyl)-, methyl ester
##JCAMP-DX=4.24
##DATA TYPE=MASS SPECTRUM
##ORIGIN=Zaikin V.G., TIPS RAS, Moscow, Russia
##OWNER=NIST Mass Spectrometry Data Center
Collection (C) 2014 copyright by the U.S. Secretary of Commerce
on behalf of the United States of America. All rights reserved.
##$NIST MASS SPEC NO=299738
##MOLFORM=C16 H29 N O5
##MW=315
##$NIST SOURCE=MSDC
##XUNITS=M/Z
##YUNITS=RELATIVE INTENSITY
##XFACTOR=1
##YFACTOR=1
##FIRSTX=26
##LASTX=316
##FIRSTY=170
##MAXX=316
##MINX=26
##MAXY=9999
##MINY=20
##NPOINTS=131
##PEAK TABLE=(XY..XY)
26,170 27,721 28,40 29,1121
30,140 31,80 33,90 36,30
38,30 39,430 40,130 41,1872
42,971 43,7376 44,721 45,180
51,20 53,110 54,120 55,1772
56,390 57,370 58,70 59,581
60,5194 61,180 67,80 68,130
69,591 70,531 71,5204 72,320
73,360 74,290 80,70 81,130
82,40 83,200 84,350 85,120
86,140 87,170 88,1321 89,941
90,120 96,110 97,160 98,511
99,9999 100,701 101,2583 102,1301
103,150 110,70 111,330 112,290
113,60 114,120 115,110 116,2432
117,210 118,861 119,50 120,1301
121,60 124,60 125,30 126,70
127,30 128,90 129,40 130,90
131,1091 132,70 138,40 139,80
140,8568 141,821 142,100 143,3133
144,2262 145,230 146,170 155,1612
156,741 157,170 158,4725 159,450
160,60 161,1101 162,2342 163,170
167,170 168,190 169,120 170,340
171,150 172,70 174,511 175,120
184,100 186,140 187,4705 188,881
189,90 198,80 199,621 200,1271
201,190 202,100 203,3153 204,290
205,40 214,270 215,40 216,1401
217,521 218,591 219,60 230,50
256,280 257,40 259,1411 260,190
272,170 273,30 284,260 285,90
286,110 315,130 316,90
##END=
