##TITLE=2,7-Dimethyl-4-trimethylsilyloxyoct-7-en-5-yne
##JCAMP-DX=4.24
##DATA TYPE=MASS SPECTRUM
##ORIGIN=Zaikin V.G., TIPS RAS, Moscow, Russia
##OWNER=NIST Mass Spectrometry Data Center
Collection (C) 2014 copyright by the U.S. Secretary of Commerce
on behalf of the United States of America. All rights reserved.
##$NIST MASS SPEC NO=299476
##MOLFORM=C13 H24 O Si
##MW=224
##$NIST SOURCE=MSDC
##XUNITS=M/Z
##YUNITS=RELATIVE INTENSITY
##XFACTOR=1
##YFACTOR=1
##FIRSTX=26
##LASTX=224
##FIRSTY=40
##MAXX=224
##MINX=26
##MAXY=9999
##MINY=10
##NPOINTS=87
##PEAK TABLE=(XY..XY)
26,40 27,140 28,10 29,110
39,220 40,50 41,360 42,40
43,340 44,110 45,450 47,230
50,40 51,110 52,60 53,100
55,90 57,90 58,30 59,140
60,30 61,140 63,60 64,30
65,130 66,40 67,40 69,60
71,30 72,30 73,5715 74,490
75,1802 76,150 77,370 78,90
79,120 83,90 85,60 89,20
91,490 92,150 93,150 94,30
95,40 97,120 99,30 101,100
103,50 105,80 107,80 108,20
109,140 111,50 115,30 117,60
119,250 120,30 123,1922 124,240
125,130 127,30 131,30 133,40
134,50 135,110 137,80 141,50
143,170 151,120 153,490 154,70
165,200 166,40 167,9999 168,1722
169,480 170,40 181,280 182,120
183,270 184,40 209,1792 210,320
211,80 223,50 224,110
##END=
