##TITLE=3-Trifluoromethylbenzoic acid, 3-methylbut-2-enyl ester
##JCAMP-DX=4.24
##DATA TYPE=MASS SPECTRUM
##ORIGIN=Zaikin V.G., TIPS RAS, Moscow, Russia
##OWNER=NIST Mass Spectrometry Data Center
Collection (C) 2014 copyright by the U.S. Secretary of Commerce
on behalf of the United States of America. All rights reserved.
##$NIST MASS SPEC NO=299320
##MOLFORM=C13 H13 F3 O2
##MW=258
##$NIST SOURCE=MSDC
##XUNITS=M/Z
##YUNITS=RELATIVE INTENSITY
##XFACTOR=1
##YFACTOR=1
##FIRSTX=26
##LASTX=258
##FIRSTY=40
##MAXX=258
##MINX=26
##MAXY=9999
##MINY=20
##NPOINTS=56
##PEAK TABLE=(XY..XY)
26,40 27,210 28,70 29,170
36,40 38,20 39,380 40,230
41,1471 42,160 43,70 44,100
50,150 51,110 52,50 53,701
54,70 55,80 57,190 63,30
65,40 66,60 67,2282 68,4845
69,1702 70,80 74,50 75,230
76,80 77,40 83,50 85,420
94,20 95,360 96,50 99,30
119,40 125,240 126,150 127,80
143,30 144,70 145,2933 146,280
171,641 172,80 173,9999 174,881
175,60 190,180 191,70 199,30
215,20 239,110 240,30 258,130
##END=
