##TITLE=m-Toluic acid, 2-pentadecyl ester
##JCAMP-DX=4.24
##DATA TYPE=MASS SPECTRUM
##ORIGIN=Zaikin V.G., TIPS RAS, Moscow, Russia
##OWNER=NIST Mass Spectrometry Data Center
Collection (C) 2014 copyright by the U.S. Secretary of Commerce
on behalf of the United States of America. All rights reserved.
##$NIST MASS SPEC NO=299786
##MOLFORM=C23 H38 O2
##MW=346
##$NIST SOURCE=MSDC
##XUNITS=M/Z
##YUNITS=RELATIVE INTENSITY
##XFACTOR=1
##YFACTOR=1
##FIRSTX=26
##LASTX=227
##FIRSTY=80
##MAXX=227
##MINX=26
##MAXY=9999
##MINY=20
##NPOINTS=85
##PEAK TABLE=(XY..XY)
26,80 27,160 28,120 29,320
39,270 40,50 41,1121 42,280
43,1321 44,200 45,30 50,40
51,70 52,30 53,90 54,200
55,1461 56,781 57,1271 58,100
63,90 64,20 65,581 66,50
67,360 68,320 69,1201 70,821
71,651 72,30 77,140 78,30
79,100 80,60 81,300 82,511
83,1271 84,641 85,400 89,170
90,210 91,3023 92,400 93,591
94,60 95,180 96,370 97,1401
98,440 99,90 105,80 107,30
109,80 110,210 111,851 112,340
113,50 118,110 119,9999 120,1021
121,100 123,40 124,120 125,460
126,220 127,40 134,130 135,130
136,2072 137,9108 138,931 139,210
140,170 152,50 153,100 154,110
163,180 166,60 167,80 168,110
181,50 182,190 210,1652 211,310
227,200
##END=
