##TITLE=Butanoic acid, undec-2-enyl ester
##JCAMP-DX=4.24
##DATA TYPE=MASS SPECTRUM
##ORIGIN=Zaikin V.G., TIPS RAS, Moscow, Russia
##OWNER=NIST Mass Spectrometry Data Center
Collection (C) 2014 copyright by the U.S. Secretary of Commerce
on behalf of the United States of America. All rights reserved.
##$NIST MASS SPEC NO=299125
##MOLFORM=C15 H28 O2
##MW=240
##$NIST SOURCE=MSDC
##XUNITS=M/Z
##YUNITS=RELATIVE INTENSITY
##XFACTOR=1
##YFACTOR=1
##FIRSTX=26
##LASTX=240
##FIRSTY=60
##MAXX=240
##MINX=26
##MAXY=9999
##MINY=30
##NPOINTS=75
##PEAK TABLE=(XY..XY)
26,60 27,350 28,150 29,390
39,340 40,70 41,1291 42,250
43,3033 44,160 53,210 54,1441
55,1471 56,330 57,460 58,50
60,100 65,40 66,90 67,981
68,841 69,891 70,290 71,9999
72,480 73,90 77,40 79,130
80,90 81,961 82,1061 83,691
84,90 85,80 86,110 87,30
89,270 94,30 95,731 96,791
97,571 98,80 99,140 100,110
101,60 109,350 110,370 111,130
112,40 113,50 114,80 123,150
124,591 125,60 127,90 128,170
129,30 137,30 141,400 142,310
143,90 151,30 152,310 153,50
155,100 156,60 169,250 170,541
171,70 183,70 184,30 197,120
211,30 225,90 240,60
##END=
