##TITLE=Phenylacetic acid, 3,5-difluorophenyl ester
##JCAMP-DX=4.24
##DATA TYPE=MASS SPECTRUM
##ORIGIN=Zaikin V.G., TIPS RAS, Moscow, Russia
##OWNER=NIST Mass Spectrometry Data Center
Collection (C) 2014 copyright by the U.S. Secretary of Commerce
on behalf of the United States of America. All rights reserved.
##$NIST MASS SPEC NO=299002
##MOLFORM=C14 H10 F2 O2
##MW=248
##$NIST SOURCE=MSDC
##XUNITS=M/Z
##YUNITS=RELATIVE INTENSITY
##XFACTOR=1
##YFACTOR=1
##FIRSTX=26
##LASTX=130
##FIRSTY=20
##MAXX=130
##MINX=26
##MAXY=9999
##MINY=10
##NPOINTS=31
##PEAK TABLE=(XY..XY)
26,20 28,10 38,40 39,260
41,80 50,100 51,220 52,50
57,70 61,20 62,80 63,330
64,90 65,901 66,50 75,110
81,70 82,60 89,400 90,490
91,9999 92,681 93,30 101,410
102,130 113,60 118,3033 119,971
120,70 129,60 130,310
##END=
