##TITLE=1-Diphenylethenylsilyloxy-3-methylbut-2-ene
##JCAMP-DX=4.24
##DATA TYPE=MASS SPECTRUM
##ORIGIN=Zaikin V.G., TIPS RAS, Moscow, Russia
##OWNER=NIST Mass Spectrometry Data Center
Collection (C) 2014 copyright by the U.S. Secretary of Commerce
on behalf of the United States of America. All rights reserved.
##$NIST MASS SPEC NO=299560
##MOLFORM=C19 H22 O Si
##MW=294
##$NIST SOURCE=MSDC
##XUNITS=M/Z
##YUNITS=RELATIVE INTENSITY
##XFACTOR=1
##YFACTOR=1
##FIRSTX=26
##LASTX=295
##FIRSTY=140
##MAXX=295
##MINX=26
##MAXY=9999
##MINY=20
##NPOINTS=184
##PEAK TABLE=(XY..XY)
26,140 27,120 28,20 29,60
38,30 39,230 40,70 41,751
42,60 43,30 44,90 45,701
46,30 47,30 50,140 51,260
52,110 53,370 55,100 63,30
65,40 67,190 68,130 69,280
70,30 71,50 73,40 74,50
75,30 76,80 77,1271 78,911
79,210 80,30 81,60 83,30
84,80 91,150 92,90 93,70
94,90 95,40 97,90 99,50
100,50 102,70 103,200 104,250
105,1522 106,240 107,340 108,90
110,40 111,60 112,230 113,60
115,120 116,30 117,60 118,30
119,30 121,490 122,861 123,2122
124,280 125,240 126,60 127,60
128,110 129,330 130,230 131,831
132,300 133,180 134,170 135,50
136,50 137,150 138,160 139,70
141,50 142,50 143,60 144,120
145,160 146,150 147,511 148,601
149,4705 150,721 151,290 152,340
153,140 154,110 155,340 156,60
157,90 158,60 159,40 160,180
161,340 162,470 163,310 164,50
165,80 166,30 167,40 171,140
172,190 173,511 174,330 175,821
176,180 177,70 178,90 179,160
180,430 181,2082 182,641 183,4975
184,921 185,250 186,320 187,180
188,220 189,210 190,210 191,50
194,30 195,30 197,731 198,180
199,8277 200,1522 201,2703 202,480
203,1091 204,190 205,70 207,360
208,821 209,9999 210,2132 211,1161
212,380 213,761 214,150 215,120
216,2242 217,490 218,120 220,30
221,80 222,160 223,230 224,300
225,280 226,190 227,40 233,30
235,60 236,50 237,120 238,1231
239,410 240,90 249,70 250,40
251,4685 252,1171 253,370 254,50
262,50 264,1331 265,370 266,410
267,140 268,30 279,2743 280,691
281,220 293,60 294,450 295,110
##END=
