##TITLE=2-Thiopheneacetic acid, but-3-yn-2-yl ester
##JCAMP-DX=4.24
##DATA TYPE=MASS SPECTRUM
##ORIGIN=Zaikin V.G., TIPS RAS, Moscow, Russia
##OWNER=NIST Mass Spectrometry Data Center
Collection (C) 2014 copyright by the U.S. Secretary of Commerce
on behalf of the United States of America. All rights reserved.
##$NIST MASS SPEC NO=299384
##MOLFORM=C10 H10 O2 S
##MW=194
##$NIST SOURCE=MSDC
##XUNITS=M/Z
##YUNITS=RELATIVE INTENSITY
##XFACTOR=1
##YFACTOR=1
##FIRSTX=26
##LASTX=196
##FIRSTY=60
##MAXX=196
##MINX=26
##MAXY=9999
##MINY=10
##NPOINTS=36
##PEAK TABLE=(XY..XY)
26,60 27,350 28,10 38,50
39,190 43,20 44,130 45,651
47,50 50,150 51,240 52,180
53,1632 54,70 57,40 58,90
63,70 69,150 70,100 71,70
84,150 85,20 95,70 96,110
97,9999 98,631 99,430 124,60
125,30 135,40 142,40 149,30
152,40 194,2302 195,260 196,120
##END=
