##TITLE=l-Phenylalanine, N-(m-toluoyl)-, methyl ester
##JCAMP-DX=4.24
##DATA TYPE=MASS SPECTRUM
##ORIGIN=Zaikin V.G., TIPS RAS, Moscow, Russia
##OWNER=NIST Mass Spectrometry Data Center
Collection (C) 2014 copyright by the U.S. Secretary of Commerce
on behalf of the United States of America. All rights reserved.
##$NIST MASS SPEC NO=299642
##MOLFORM=C18 H19 N O3
##MW=297
##$NIST SOURCE=MSDC
##XUNITS=M/Z
##YUNITS=RELATIVE INTENSITY
##XFACTOR=1
##YFACTOR=1
##FIRSTX=26
##LASTX=298
##FIRSTY=20
##MAXX=298
##MINX=26
##MAXY=9999
##MINY=10
##NPOINTS=64
##PEAK TABLE=(XY..XY)
26,20 27,20 29,10 31,10
39,100 40,10 41,40 44,40
50,30 51,60 52,10 59,20
62,10 63,90 64,30 65,561
66,30 74,10 75,10 76,10
77,60 78,30 89,180 90,200
91,2853 92,310 93,20 102,30
103,90 104,50 105,20 116,20
117,90 118,150 119,9999 120,771
121,60 130,30 131,691 132,80
133,10 134,10 135,130 136,80
144,30 146,20 147,10 161,340
162,5494 163,581 164,50 165,10
175,10 178,50 179,10 206,70
236,10 237,30 238,410 239,70
265,10 266,30 297,120 298,20
##END=
