##TITLE=5-Butyldimethylsilyloxy-2,6-dimethylnon-1-en-3-yne
##JCAMP-DX=4.24
##DATA TYPE=MASS SPECTRUM
##ORIGIN=Zaikin V.G., TIPS RAS, Moscow, Russia
##OWNER=NIST Mass Spectrometry Data Center
Collection (C) 2014 copyright by the U.S. Secretary of Commerce
on behalf of the United States of America. All rights reserved.
##$NIST MASS SPEC NO=299537
##MOLFORM=C17 H32 O Si
##MW=280
##$NIST SOURCE=MSDC
##XUNITS=M/Z
##YUNITS=RELATIVE INTENSITY
##XFACTOR=1
##YFACTOR=1
##FIRSTX=25
##LASTX=281
##FIRSTY=20
##MAXX=281
##MINX=25
##MAXY=9999
##MINY=10
##NPOINTS=158
##PEAK TABLE=(XY..XY)
25,20 26,210 27,480 28,10
29,480 30,20 31,130 39,521
40,150 41,1121 42,250 43,891
44,120 45,270 46,10 47,290
48,10 49,20 50,80 51,150
52,100 53,220 54,30 55,410
56,120 57,120 58,160 59,6095
60,450 61,1381 62,90 63,120
64,30 65,210 66,90 67,100
68,10 69,240 70,30 71,110
72,50 73,2102 74,200 75,3764
76,290 77,711 78,280 79,340
80,30 81,50 82,40 83,240
84,20 85,210 86,20 87,190
88,20 89,140 90,20 91,691
92,140 93,200 94,40 95,120
96,40 97,200 98,60 99,160
100,10 101,60 102,10 103,90
104,40 105,270 106,160 107,220
108,60 109,761 110,90 111,160
112,60 113,100 114,10 115,1171
116,120 117,310 118,30 119,160
120,30 121,70 122,70 123,6726
124,841 125,430 126,40 127,40
128,10 129,60 130,10 131,20
133,160 134,20 135,80 136,10
137,450 138,130 139,160 140,20
141,30 143,140 144,10 145,10
147,190 148,90 149,450 150,50
151,210 152,70 153,9999 154,1281
155,390 156,30 157,350 158,40
159,20 161,10 163,40 165,150
166,20 167,110 168,20 177,20
179,140 180,30 181,80 182,40
183,10 191,20 193,100 194,10
195,20 199,40 205,10 209,3644
210,601 211,150 212,10 223,320
224,120 225,20 237,40 238,60
239,20 251,30 265,70 266,10
280,40 281,10
##END=
