##TITLE=2-Fluorobenzoic acid, pent-2-en-4-ynyl ester
##JCAMP-DX=4.24
##DATA TYPE=MASS SPECTRUM
##ORIGIN=Zaikin V.G., TIPS RAS, Moscow, Russia
##OWNER=NIST Mass Spectrometry Data Center
Collection (C) 2014 copyright by the U.S. Secretary of Commerce
on behalf of the United States of America. All rights reserved.
##$NIST MASS SPEC NO=299163
##MOLFORM=C12 H9 F O2
##MW=204
##$NIST SOURCE=MSDC
##XUNITS=M/Z
##YUNITS=RELATIVE INTENSITY
##XFACTOR=1
##YFACTOR=1
##FIRSTX=28
##LASTX=204
##FIRSTY=170
##MAXX=204
##MINX=28
##MAXY=9999
##MINY=30
##NPOINTS=31
##PEAK TABLE=(XY..XY)
28,170 38,40 39,270 40,30
44,110 50,110 51,90 52,30
62,40 63,200 64,100 65,430
66,30 68,40 69,80 74,60
75,460 76,60 77,30 94,90
95,1261 96,140 97,30 123,9999
124,761 125,40 133,50 140,110
141,30 159,90 204,120
##END=
