##TITLE=l-Leucine, N-(5-chlorovaleryl)-, methyl ester
##JCAMP-DX=4.24
##DATA TYPE=MASS SPECTRUM
##ORIGIN=Zaikin V.G., TIPS RAS, Moscow, Russia
##OWNER=NIST Mass Spectrometry Data Center
Collection (C) 2014 copyright by the U.S. Secretary of Commerce
on behalf of the United States of America. All rights reserved.
##$NIST MASS SPEC NO=299716
##MOLFORM=C12 H22 Cl N O3
##MW=263
##$NIST SOURCE=MSDC
##XUNITS=M/Z
##YUNITS=RELATIVE INTENSITY
##XFACTOR=1
##YFACTOR=1
##FIRSTX=26
##LASTX=248
##FIRSTY=40
##MAXX=248
##MINX=26
##MAXY=9999
##MINY=20
##NPOINTS=90
##PEAK TABLE=(XY..XY)
26,40 27,240 28,110 29,280
30,521 33,40 36,100 38,30
39,180 40,40 41,511 42,170
43,651 44,671 49,30 53,120
54,60 55,1502 56,210 57,320
58,30 59,110 63,80 65,30
67,50 68,60 69,190 70,310
71,200 72,30 73,40 74,30
81,30 82,40 83,110 84,190
85,160 86,9999 87,591 88,621
89,350 90,30 91,681 92,30
93,210 96,60 97,60 98,50
99,40 100,110 102,290 111,20
112,90 113,100 118,30 119,601
120,40 121,180 126,50 127,30
128,240 129,110 130,140 136,160
138,50 139,70 140,30 144,210
145,30 146,220 147,40 154,30
162,30 168,140 171,30 172,120
175,521 176,40 177,170 178,60
188,140 190,40 196,30 204,2322
205,270 206,791 220,50 228,310
229,40 248,50
##END=
