##TITLE=p-Anisic acid, pent-2-en-4-ynyl ester
##JCAMP-DX=4.24
##DATA TYPE=MASS SPECTRUM
##ORIGIN=Zaikin V.G., TIPS RAS, Moscow, Russia
##OWNER=NIST Mass Spectrometry Data Center
Collection (C) 2014 copyright by the U.S. Secretary of Commerce
on behalf of the United States of America. All rights reserved.
##$NIST MASS SPEC NO=299193
##MOLFORM=C13 H12 O3
##MW=216
##$NIST SOURCE=MSDC
##XUNITS=M/Z
##YUNITS=RELATIVE INTENSITY
##XFACTOR=1
##YFACTOR=1
##FIRSTX=38
##LASTX=217
##FIRSTY=40
##MAXX=217
##MINX=38
##MAXY=9999
##MINY=30
##NPOINTS=30
##PEAK TABLE=(XY..XY)
38,40 39,270 50,70 51,70
52,30 62,30 63,190 64,240
65,490 66,30 76,50 77,561
78,60 79,30 92,450 93,30
107,320 108,80 127,30 128,80
129,140 135,9999 136,711 137,60
141,50 157,50 171,90 187,60
216,711 217,100
##END=
