##TITLE=5-(Dichloromethyl)dimethylsilyloxy-2,6-dimethylnon-1-en-3-yne
##JCAMP-DX=4.24
##DATA TYPE=MASS SPECTRUM
##ORIGIN=Zaikin V.G., TIPS RAS, Moscow, Russia
##OWNER=NIST Mass Spectrometry Data Center
Collection (C) 2014 copyright by the U.S. Secretary of Commerce
on behalf of the United States of America. All rights reserved.
##$NIST MASS SPEC NO=299455
##MOLFORM=C14 H24 Cl2 O Si
##MW=306
##$NIST SOURCE=MSDC
##XUNITS=M/Z
##YUNITS=RELATIVE INTENSITY
##XFACTOR=1
##YFACTOR=1
##FIRSTX=25
##LASTX=308
##FIRSTY=10
##MAXX=308
##MINX=25
##MAXY=9999
##MINY=10
##NPOINTS=216
##PEAK TABLE=(XY..XY)
25,10 26,100 27,330 29,340
31,10 35,30 36,270 37,10
38,120 39,440 40,100 41,951
42,170 43,1061 44,80 45,160
47,200 48,20 49,30 50,80
51,200 52,140 53,310 54,50
55,591 56,60 57,120 58,60
59,210 60,40 61,90 62,40
63,380 64,70 65,531 66,130
67,330 68,50 69,240 70,120
71,150 72,10 73,100 74,50
75,5044 76,410 77,1311 78,691
79,1261 80,240 81,370 82,70
83,380 84,50 85,80 86,10
87,20 89,180 90,40 91,1151
92,210 93,2042 94,190 95,1542
96,140 97,230 98,80 99,200
100,40 101,120 102,20 103,150
104,60 105,501 106,240 107,561
108,110 109,220 110,30 111,140
112,40 113,4825 114,310 115,3704
116,280 117,711 118,70 119,310
120,60 121,190 122,110 123,4404
124,601 125,360 126,70 127,90
128,70 129,110 130,20 131,70
132,10 133,260 134,40 135,240
136,50 137,430 138,60 139,130
140,30 141,80 142,20 143,1141
144,130 145,420 146,50 147,611
148,200 149,1451 150,190 151,390
152,110 153,811 154,120 155,140
156,20 157,1201 158,170 159,60
161,30 162,10 163,160 164,30
165,270 166,50 167,250 168,40
169,30 171,60 172,10 173,30
175,30 177,70 178,10 179,390
180,100 181,260 182,30 183,20
185,90 186,10 187,90 188,10
189,40 191,130 192,20 193,541
194,100 195,40 197,10 199,70
200,30 201,80 202,10 203,20
205,110 206,20 211,40 213,30
215,30 217,10 219,220 220,40
221,90 222,20 223,4555 224,921
225,250 226,30 227,20 229,50
230,10 231,10 235,9999 236,1542
237,6806 238,1041 239,1331 240,220
241,50 242,20 243,10 249,150
250,20 251,110 252,10 253,20
263,130 264,130 265,140 266,100
267,50 268,20 271,30 277,80
278,40 279,60 280,30 291,190
292,30 293,130 294,20 295,20
305,10 306,80 307,20 308,60
##END=
