##TITLE=trans-3-(Trifluoromethyl)cinnamic acid, octadecyl ester
##JCAMP-DX=4.24
##DATA TYPE=MASS SPECTRUM
##ORIGIN=Zaikin V.G., TIPS RAS, Moscow, Russia
##OWNER=NIST Mass Spectrometry Data Center
Collection (C) 2014 copyright by the U.S. Secretary of Commerce
on behalf of the United States of America. All rights reserved.
##$NIST MASS SPEC NO=299879
##MOLFORM=C28 H43 F3 O2
##MW=468
##$NIST SOURCE=MSDC
##XUNITS=M/Z
##YUNITS=RELATIVE INTENSITY
##XFACTOR=1
##YFACTOR=1
##FIRSTX=26
##LASTX=469
##FIRSTY=140
##MAXX=469
##MINX=26
##MAXY=9999
##MINY=10
##NPOINTS=144
##PEAK TABLE=(XY..XY)
26,140 27,240 28,10 29,470
36,30 38,30 39,250 40,60
41,1351 42,430 43,2322 44,210
50,60 51,60 53,90 54,420
55,2402 56,1111 57,2462 58,100
63,30 66,70 67,671 68,881
69,2462 70,1071 71,1301 72,60
74,30 75,70 76,40 77,60
79,70 80,60 81,581 82,1481
83,2823 84,781 85,801 86,50
91,50 93,30 94,40 95,490
96,1211 97,2633 98,561 99,210
100,50 101,60 102,250 103,70
109,310 110,531 111,1401 112,370
113,120 119,50 120,70 121,30
122,40 123,280 124,390 125,711
126,240 127,110 129,30 131,60
133,50 136,30 137,210 138,290
139,280 140,160 141,50 145,150
146,70 147,280 148,30 151,1451
152,270 153,170 154,110 155,30
159,190 160,30 165,50 166,130
167,100 168,100 169,140 170,280
171,1652 172,891 173,140 175,80
179,110 180,110 181,130 182,60
185,30 186,40 188,80 193,50
194,110 195,40 196,80 197,1211
198,370 199,7016 200,821 201,120
212,30 214,40 215,1421 216,7406
217,9999 218,1491 219,210 221,30
222,140 223,30 224,110 225,30
230,60 243,30 244,30 250,1241
251,260 252,130 253,30 257,851
258,120 267,40 269,90 271,791
272,140 291,30 295,60 309,180
310,40 408,40 468,460 469,150
##END=
