##TITLE=2-Chlorobenzoic acid, 3-chloroprop-2-enyl ester
##JCAMP-DX=4.24
##DATA TYPE=MASS SPECTRUM
##ORIGIN=Zaikin V.G., TIPS RAS, Moscow, Russia
##OWNER=NIST Mass Spectrometry Data Center
Collection (C) 2014 copyright by the U.S. Secretary of Commerce
on behalf of the United States of America. All rights reserved.
##$NIST MASS SPEC NO=299307
##MOLFORM=C10 H8 Cl2 O2
##MW=230
##$NIST SOURCE=MSDC
##XUNITS=M/Z
##YUNITS=RELATIVE INTENSITY
##XFACTOR=1
##YFACTOR=1
##FIRSTX=26
##LASTX=232
##FIRSTY=40
##MAXX=232
##MINX=26
##MAXY=9999
##MINY=20
##NPOINTS=64
##PEAK TABLE=(XY..XY)
26,40 27,90 28,70 38,110
39,400 40,60 41,501 42,40
44,110 49,120 50,310 51,180
53,170 55,30 61,50 62,20
63,30 65,30 67,531 68,1391
69,1071 70,60 73,60 74,190
75,1782 76,350 77,380 84,40
85,350 87,40 91,100 93,30
104,110 105,50 110,40 111,1772
112,230 113,601 114,80 115,290
116,110 131,40 139,9999 140,841
141,3173 142,260 145,30 149,60
151,170 153,40 156,240 157,210
158,90 159,120 165,40 167,50
185,40 189,30 195,1441 196,160
197,460 198,50 230,180 232,110
##END=
