##TITLE=2-Trifluoromethylbenzoic acid, hex-4-yn-3-yl ester
##JCAMP-DX=4.24
##DATA TYPE=MASS SPECTRUM
##ORIGIN=Zaikin V.G., TIPS RAS, Moscow, Russia
##OWNER=NIST Mass Spectrometry Data Center
Collection (C) 2014 copyright by the U.S. Secretary of Commerce
on behalf of the United States of America. All rights reserved.
##$NIST MASS SPEC NO=299403
##MOLFORM=C14 H13 F3 O2
##MW=270
##$NIST SOURCE=MSDC
##XUNITS=M/Z
##YUNITS=RELATIVE INTENSITY
##XFACTOR=1
##YFACTOR=1
##FIRSTX=26
##LASTX=271
##FIRSTY=30
##MAXX=271
##MINX=26
##MAXY=9999
##MINY=20
##NPOINTS=52
##PEAK TABLE=(XY..XY)
26,30 27,120 28,20 29,50
39,220 40,50 41,310 44,30
50,100 51,110 52,80 53,370
54,30 55,50 57,30 63,30
65,120 66,80 67,70 69,110
74,30 75,120 76,40 77,210
78,50 79,1582 80,701 81,591
82,40 95,210 96,40 97,170
125,130 126,110 127,30 128,30
144,40 145,1572 146,170 151,80
173,9999 174,751 175,40 190,50
213,30 222,70 241,240 242,110
255,721 256,100 270,400 271,60
##END=
