##TITLE=Glycine, N-(m-toluoy)-, methyl esterl
##JCAMP-DX=4.24
##DATA TYPE=MASS SPECTRUM
##ORIGIN=Zaikin V.G., TIPS RAS, Moscow, Russia
##OWNER=NIST Mass Spectrometry Data Center
Collection (C) 2014 copyright by the U.S. Secretary of Commerce
on behalf of the United States of America. All rights reserved.
##$NIST MASS SPEC NO=299638
##MOLFORM=C11 H13 N O3
##MW=207
##$NIST SOURCE=MSDC
##XUNITS=M/Z
##YUNITS=RELATIVE INTENSITY
##XFACTOR=1
##YFACTOR=1
##FIRSTX=26
##LASTX=208
##FIRSTY=20
##MAXX=208
##MINX=26
##MAXY=9999
##MINY=10
##NPOINTS=62
##PEAK TABLE=(XY..XY)
26,20 27,20 28,10 29,40
30,10 31,10 36,10 38,10
39,160 40,10 41,60 42,10
43,10 44,70 45,10 50,50
51,80 52,20 53,10 56,30
59,40 62,30 63,170 64,50
65,741 66,40 74,20 75,10
76,20 77,40 78,10 87,10
88,10 89,280 90,230 91,2503
92,220 104,10 105,50 116,10
117,30 118,90 119,9999 120,801
121,50 131,20 132,20 136,20
146,20 147,50 148,1471 149,150
150,10 162,40 175,370 176,160
177,10 189,10 190,30 206,10
207,1502 208,200
##END=
