##TITLE=2-Thiopheneacetic acid, tridec-2-ynyl ester
##JCAMP-DX=4.24
##DATA TYPE=MASS SPECTRUM
##ORIGIN=Zaikin V.G., TIPS RAS, Moscow, Russia
##OWNER=NIST Mass Spectrometry Data Center
Collection (C) 2014 copyright by the U.S. Secretary of Commerce
on behalf of the United States of America. All rights reserved.
##$NIST MASS SPEC NO=299391
##MOLFORM=C19 H28 O2 S
##MW=320
##$NIST SOURCE=MSDC
##XUNITS=M/Z
##YUNITS=RELATIVE INTENSITY
##XFACTOR=1
##YFACTOR=1
##FIRSTX=26
##LASTX=320
##FIRSTY=30
##MAXX=320
##MINX=26
##MAXY=9999
##MINY=20
##NPOINTS=76
##PEAK TABLE=(XY..XY)
26,30 27,100 28,60 29,170
39,170 40,30 41,480 42,70
43,430 44,90 45,210 50,30
51,60 52,130 53,400 54,80
55,490 56,70 57,140 65,90
66,60 67,410 68,50 69,260
70,90 71,80 77,150 78,30
79,300 80,60 81,450 82,50
83,140 84,120 91,130 93,150
94,80 95,531 96,140 97,9999
98,711 99,420 100,30 105,20
107,50 108,30 109,170 110,30
111,170 121,40 123,100 124,1081
125,190 126,70 135,70 136,30
137,40 142,80 143,170 149,50
150,100 151,50 152,70 153,80
163,60 177,60 178,30 179,30
181,521 182,70 194,50 195,200
196,90 207,50 223,50 320,70
##END=
