##TITLE=2,7-Dimethyl-4-dimethylisopropylsilyloxyoct-7-en-5-yne
##JCAMP-DX=4.24
##DATA TYPE=MASS SPECTRUM
##ORIGIN=Zaikin V.G., TIPS RAS, Moscow, Russia
##OWNER=NIST Mass Spectrometry Data Center
Collection (C) 2014 copyright by the U.S. Secretary of Commerce
on behalf of the United States of America. All rights reserved.
##$NIST MASS SPEC NO=299497
##MOLFORM=C15 H28 O Si
##MW=252
##$NIST SOURCE=MSDC
##XUNITS=M/Z
##YUNITS=RELATIVE INTENSITY
##XFACTOR=1
##YFACTOR=1
##FIRSTX=26
##LASTX=238
##FIRSTY=70
##MAXX=238
##MINX=26
##MAXY=9999
##MINY=30
##NPOINTS=125
##PEAK TABLE=(XY..XY)
26,70 27,200 29,100 31,30
39,370 40,130 41,711 42,130
43,460 44,170 45,260 47,360
50,70 51,160 52,100 53,170
54,40 55,160 56,80 57,120
58,140 59,1381 60,150 61,370
62,40 63,100 64,40 65,200
66,70 67,110 68,40 69,230
70,30 71,50 72,30 73,2292
74,230 75,7216 76,561 77,901
78,180 79,310 80,30 81,70
82,60 83,200 85,210 87,40
89,70 91,821 92,220 93,290
94,40 95,120 96,60 97,330
98,40 99,100 100,30 101,1471
102,160 103,240 104,40 105,210
106,30 107,250 108,60 109,470
110,70 111,170 112,40 113,70
115,120 117,70 119,260 120,50
121,80 122,90 123,9999 124,1281
125,581 126,50 127,50 129,30
133,250 134,80 135,1121 136,130
137,220 138,50 139,230 140,30
141,70 143,1491 144,180 145,80
149,100 151,541 152,110 153,3584
154,501 155,150 163,40 165,270
166,60 167,1121 168,170 169,50
171,90 175,30 179,220 180,40
181,70 191,160 193,110 194,30
195,2743 196,470 197,130 209,8728
210,1562 211,460 212,40 237,430
238,80
##END=
