##TITLE=l-Cysteine, N,S-bis(3-fluorobenzoyl)-, methyl ester
##JCAMP-DX=4.24
##DATA TYPE=MASS SPECTRUM
##ORIGIN=Zaikin V.G., TIPS RAS, Moscow, Russia
##OWNER=NIST Mass Spectrometry Data Center
Collection (C) 2014 copyright by the U.S. Secretary of Commerce
on behalf of the United States of America. All rights reserved.
##$NIST MASS SPEC NO=299681
##MOLFORM=C18 H15 F2 N O4 S
##MW=379
##$NIST SOURCE=MSDC
##XUNITS=M/Z
##YUNITS=RELATIVE INTENSITY
##XFACTOR=1
##YFACTOR=1
##FIRSTX=27
##LASTX=320
##FIRSTY=30
##MAXX=320
##MINX=27
##MAXY=9999
##MINY=10
##NPOINTS=42
##PEAK TABLE=(XY..XY)
27,30 28,10 29,30 40,30
41,30 44,100 45,60 46,40
50,70 51,40 55,30 59,50
68,30 69,70 70,40 74,50
75,470 76,50 94,110 95,2783
96,280 109,30 121,40 122,50
123,9999 124,651 125,30 135,40
139,30 140,70 164,110 165,30
180,50 191,50 223,70 224,180
240,60 256,370 257,40 262,300
263,40 320,80
##END=
