##TITLE=Dichloroacetic acid, 2,7-dimethyloct-7-en-5-yn-4-yl
##JCAMP-DX=4.24
##DATA TYPE=MASS SPECTRUM
##ORIGIN=Zaikin V.G., TIPS RAS, Moscow, Russia
##OWNER=NIST Mass Spectrometry Data Center
Collection (C) 2014 copyright by the U.S. Secretary of Commerce
on behalf of the United States of America. All rights reserved.
##$NIST MASS SPEC NO=299434
##MOLFORM=C12 H16 Cl2 O2
##MW=262
##$NIST SOURCE=MSDC
##XUNITS=M/Z
##YUNITS=RELATIVE INTENSITY
##XFACTOR=1
##YFACTOR=1
##FIRSTX=25
##LASTX=264
##FIRSTY=40
##MAXX=264
##MINX=25
##MAXY=9999
##MINY=30
##NPOINTS=140
##PEAK TABLE=(XY..XY)
25,40 26,300 27,1962 28,50
29,1642 35,210 36,1361 37,170
38,701 39,3073 40,811 41,6536
42,470 43,5344 44,831 45,120
47,180 48,490 49,280 50,661
51,1912 52,911 53,1522 54,120
55,2042 56,320 57,1832 58,140
59,310 61,50 62,220 63,921
64,490 65,2262 66,961 67,1802
68,420 69,2482 70,180 71,120
73,40 74,150 75,200 76,831
77,5775 78,1542 79,4234 80,721
81,2102 82,340 83,3784 84,340
85,2482 86,150 87,380 89,260
90,150 91,9559 92,3403 93,4845
94,671 95,4885 96,2442 97,601
98,30 101,30 102,90 103,581
104,350 105,2042 106,460 107,2663
108,1301 109,9468 110,7256 111,791
112,80 113,561 114,80 115,460
116,90 117,681 118,150 119,9999
120,1101 121,240 122,60 123,901
124,100 125,40 126,100 127,200
128,80 129,130 130,80 131,60
133,631 134,741 135,851 136,170
137,1962 138,180 141,50 142,30
143,80 145,50 147,50 149,40
151,511 152,631 153,80 155,240
156,30 157,90 169,30 171,1051
172,110 173,370 177,240 179,160
183,60 184,90 185,140 186,30
187,40 191,60 193,40 205,80
206,150 219,2232 220,380 221,1391
222,250 223,250 224,30 227,841
228,100 229,270 262,330 264,220
##END=
