##TITLE=l-Phenylalanine, N-caproyl-, methyl ester
##JCAMP-DX=4.24
##DATA TYPE=MASS SPECTRUM
##ORIGIN=Zaikin V.G., TIPS RAS, Moscow, Russia
##OWNER=NIST Mass Spectrometry Data Center
Collection (C) 2014 copyright by the U.S. Secretary of Commerce
on behalf of the United States of America. All rights reserved.
##$NIST MASS SPEC NO=299737
##MOLFORM=C16 H23 N O3
##MW=277
##$NIST SOURCE=MSDC
##XUNITS=M/Z
##YUNITS=RELATIVE INTENSITY
##XFACTOR=1
##YFACTOR=1
##FIRSTX=26
##LASTX=278
##FIRSTY=40
##MAXX=278
##MINX=26
##MAXY=9999
##MINY=20
##NPOINTS=73
##PEAK TABLE=(XY..XY)
26,40 27,130 28,80 29,210
33,50 39,120 41,390 42,120
43,1451 44,150 50,20 51,60
53,30 55,290 56,40 57,30
59,180 60,60 63,30 65,200
69,100 70,50 71,1051 72,70
77,170 78,80 88,1962 89,140
90,70 91,1151 92,250 93,40
98,40 99,2242 100,150 101,50
102,90 103,330 104,170 105,40
115,20 116,80 117,210 118,220
119,270 120,2963 121,380 128,80
130,160 131,1572 132,180 133,30
134,40 144,90 146,100 147,50
158,531 159,40 161,911 162,9999
163,1051 164,100 178,140 180,90
186,30 217,30 218,300 219,40
221,80 246,50 248,30 277,130
278,30
##END=
