##TITLE=1-Dichloromethyldimethylsilyloxy-2-isopropoxybenzene
##JCAMP-DX=4.24
##DATA TYPE=MASS SPECTRUM
##ORIGIN=Zaikin V.G., TIPS RAS, Moscow, Russia
##OWNER=NIST Mass Spectrometry Data Center
Collection (C) 2014 copyright by the U.S. Secretary of Commerce
on behalf of the United States of America. All rights reserved.
##$NIST MASS SPEC NO=299111
##MOLFORM=C12 H18 Cl2 O2 Si
##MW=292
##$NIST SOURCE=MSDC
##XUNITS=M/Z
##YUNITS=RELATIVE INTENSITY
##XFACTOR=1
##YFACTOR=1
##FIRSTX=26
##LASTX=296
##FIRSTY=40
##MAXX=296
##MINX=26
##MAXY=9999
##MINY=30
##NPOINTS=74
##PEAK TABLE=(XY..XY)
26,40 27,270 28,30 36,90
39,160 40,30 41,460 42,80
43,941 44,30 45,90 47,50
51,60 52,60 53,30 63,180
64,70 65,160 75,1772 76,150
77,170 78,80 79,100 80,60
81,90 91,511 92,120 93,170
95,240 97,70 105,40 107,60
108,40 109,210 110,60 113,450
115,320 117,70 121,290 135,100
136,831 137,190 138,40 141,30
149,430 150,70 151,2553 152,330
153,110 161,30 163,30 166,430
167,9999 168,1231 169,400 170,30
171,150 173,50 179,90 186,130
187,30 188,40 193,40 199,110
201,40 206,30 250,230 251,30
252,150 292,771 293,130 294,531
295,90 296,100
##END=
