##TITLE=2-Bromobenzoic acid, undec-2-enyl ester
##JCAMP-DX=4.24
##DATA TYPE=MASS SPECTRUM
##ORIGIN=Zaikin V.G., TIPS RAS, Moscow, Russia
##OWNER=NIST Mass Spectrometry Data Center
Collection (C) 2014 copyright by the U.S. Secretary of Commerce
on behalf of the United States of America. All rights reserved.
##$NIST MASS SPEC NO=299399
##MOLFORM=C18 H25 Br O2
##MW=352
##$NIST SOURCE=MSDC
##XUNITS=M/Z
##YUNITS=RELATIVE INTENSITY
##XFACTOR=1
##YFACTOR=1
##FIRSTX=26
##LASTX=354
##FIRSTY=50
##MAXX=354
##MINX=26
##MAXY=9999
##MINY=30
##NPOINTS=93
##PEAK TABLE=(XY..XY)
26,50 27,160 28,120 29,300
38,30 39,260 40,50 41,931
42,160 43,701 44,80 50,210
51,90 53,190 54,1241 55,1271
56,230 57,390 65,70 66,80
67,841 68,691 69,761 70,160
71,90 74,70 75,340 76,511
77,270 78,50 79,170 80,170
81,871 82,951 83,470 84,50
85,30 91,40 93,40 95,621
96,671 97,310 98,40 104,200
105,240 109,300 110,310 111,70
115,40 116,50 117,60 121,60
123,130 124,561 125,60 128,30
129,120 130,30 131,30 139,70
152,551 153,70 155,751 156,100
157,731 158,90 169,300 170,30
183,9999 184,761 185,9809 186,721
187,40 200,360 201,410 202,370
203,400 226,50 228,40 253,90
254,90 255,120 256,90 257,30
273,50 281,50 283,50 295,30
297,40 309,30 311,30 352,40
354,40
##END=
