##TITLE=Isonicotinic acid, 5-pentadecyl ester
##JCAMP-DX=4.24
##DATA TYPE=MASS SPECTRUM
##ORIGIN=Zaikin V.G., TIPS RAS, Moscow, Russia
##OWNER=NIST Mass Spectrometry Data Center
Collection (C) 2014 copyright by the U.S. Secretary of Commerce
on behalf of the United States of America. All rights reserved.
##$NIST MASS SPEC NO=299904
##MOLFORM=C21 H35 N O2
##MW=333
##$NIST SOURCE=MSDC
##XUNITS=M/Z
##YUNITS=RELATIVE INTENSITY
##XFACTOR=1
##YFACTOR=1
##FIRSTX=26
##LASTX=334
##FIRSTY=80
##MAXX=334
##MINX=26
##MAXY=9999
##MINY=20
##NPOINTS=104
##PEAK TABLE=(XY..XY)
26,80 27,130 28,90 29,230
36,160 38,40 39,180 40,40
41,841 42,200 43,881 44,180
50,130 51,470 52,130 53,100
54,230 55,1271 56,611 57,971
58,60 66,30 67,370 68,260
69,1051 70,641 71,501 73,30
77,100 78,1882 79,490 80,160
81,320 82,380 83,971 84,460
85,320 91,30 93,160 94,30
95,200 96,290 97,961 98,310
99,60 105,70 106,9999 107,1371
108,100 109,90 110,160 111,490
112,220 113,40 120,180 121,300
122,90 123,410 124,6846 125,881
126,170 134,60 135,50 137,50
138,50 139,90 140,80 141,30
148,20 149,120 150,60 151,30
152,30 153,60 154,40 155,30
162,90 163,40 164,180 165,50
176,50 182,90 190,40 192,270
193,60 205,100 206,60 210,230
211,30 218,40 232,60 246,150
247,50 248,120 249,40 276,280
277,60 289,1201 290,330 291,40
304,20 332,40 333,140 334,30
##END=
