##TITLE=2-Methyl-5-octyn-4-ol, TMS derivative
##JCAMP-DX=4.24
##DATA TYPE=MASS SPECTRUM
##ORIGIN=Zaikin V.G., TIPS RAS, Moscow, Russia
##OWNER=NIST Mass Spectrometry Data Center
Collection (C) 2014 copyright by the U.S. Secretary of Commerce
on behalf of the United States of America. All rights reserved.
##$NIST MASS SPEC NO=299475
##MOLFORM=C12 H24 O Si
##MW=212
##$NIST SOURCE=MSDC
##XUNITS=M/Z
##YUNITS=RELATIVE INTENSITY
##XFACTOR=1
##YFACTOR=1
##FIRSTX=26
##LASTX=198
##FIRSTY=20
##MAXX=198
##MINX=26
##MAXY=9999
##MINY=20
##NPOINTS=58
##PEAK TABLE=(XY..XY)
26,20 27,100 28,30 29,70
39,140 40,30 41,270 42,30
43,220 44,70 45,270 47,160
51,40 53,70 55,50 57,100
59,110 61,130 65,60 67,30
69,50 73,3774 74,330 75,1251
76,90 77,180 78,30 79,160
80,30 81,60 83,120 85,60
91,100 93,50 95,30 97,100
99,40 101,80 107,50 109,40
111,1441 112,170 113,90 123,30
125,60 127,50 139,110 141,410
142,50 143,170 155,9999 156,1251
157,390 158,20 183,210 184,30
197,400 198,60
##END=
