##TITLE=Glycine, N-(2,6-difluorobenzoyl)-, methyl ester
##JCAMP-DX=4.24
##DATA TYPE=MASS SPECTRUM
##ORIGIN=Zaikin V.G., TIPS RAS, Moscow, Russia
##OWNER=NIST Mass Spectrometry Data Center
Collection (C) 2014 copyright by the U.S. Secretary of Commerce
on behalf of the United States of America. All rights reserved.
##$NIST MASS SPEC NO=299661
##MOLFORM=C10 H9 F2 N O3
##MW=229
##$NIST SOURCE=MSDC
##XUNITS=M/Z
##YUNITS=RELATIVE INTENSITY
##XFACTOR=1
##YFACTOR=1
##FIRSTX=28
##LASTX=230
##FIRSTY=20
##MAXX=230
##MINX=28
##MAXY=9999
##MINY=20
##NPOINTS=28
##PEAK TABLE=(XY..XY)
28,20 44,70 56,40 57,40
59,30 62,50 63,420 68,40
74,30 75,30 88,50 93,90
94,70 112,100 113,1141 114,140
140,80 141,9999 142,771 143,40
153,30 170,2843 171,270 184,60
197,561 198,150 229,571 230,70
##END=
