##TITLE=(Phenylthio)acetic acid, pent-2-en-4-ynyl ester
##JCAMP-DX=4.24
##DATA TYPE=MASS SPECTRUM
##ORIGIN=Zaikin V.G., TIPS RAS, Moscow, Russia
##OWNER=NIST Mass Spectrometry Data Center
Collection (C) 2014 copyright by the U.S. Secretary of Commerce
on behalf of the United States of America. All rights reserved.
##$NIST MASS SPEC NO=299422
##MOLFORM=C13 H12 O2 S
##MW=232
##$NIST SOURCE=MSDC
##XUNITS=M/Z
##YUNITS=RELATIVE INTENSITY
##XFACTOR=1
##YFACTOR=1
##FIRSTX=26
##LASTX=234
##FIRSTY=70
##MAXX=234
##MINX=26
##MAXY=9999
##MINY=20
##NPOINTS=84
##PEAK TABLE=(XY..XY)
26,70 27,120 28,20 29,60
36,60 37,30 38,100 39,1061
40,140 42,110 43,50 44,300
45,2492 46,120 47,110 49,30
50,310 51,871 52,160 53,120
57,30 58,50 61,40 62,80
63,260 64,70 65,2823 66,330
67,30 69,280 71,50 74,70
75,70 76,70 77,1081 78,320
79,531 80,40 81,100 82,150
83,40 84,80 89,40 91,170
94,30 95,90 97,80 102,30
105,120 108,200 109,1161 110,1201
111,160 112,50 115,50 121,490
122,200 123,9999 124,881 125,470
126,40 128,50 129,30 130,50
134,60 135,30 147,210 148,60
150,911 151,150 152,60 161,50
168,220 171,40 172,30 173,1021
174,511 175,120 187,60 190,80
203,40 232,2012 233,300 234,110
##END=
