##TITLE=2-Bromobenzoic acid, hex-4-yn-3-yl ester
##JCAMP-DX=4.24
##DATA TYPE=MASS SPECTRUM
##ORIGIN=Zaikin V.G., TIPS RAS, Moscow, Russia
##OWNER=NIST Mass Spectrometry Data Center
Collection (C) 2014 copyright by the U.S. Secretary of Commerce
on behalf of the United States of America. All rights reserved.
##$NIST MASS SPEC NO=299394
##MOLFORM=C13 H13 Br O2
##MW=280
##$NIST SOURCE=MSDC
##XUNITS=M/Z
##YUNITS=RELATIVE INTENSITY
##XFACTOR=1
##YFACTOR=1
##FIRSTX=26
##LASTX=282
##FIRSTY=60
##MAXX=282
##MINX=26
##MAXY=9999
##MINY=20
##NPOINTS=73
##PEAK TABLE=(XY..XY)
26,60 27,210 28,40 29,100
38,60 39,420 40,110 41,641
42,30 43,70 44,90 50,490
51,270 52,170 53,881 54,70
55,120 63,70 65,280 66,180
67,160 69,150 74,170 75,721
76,951 77,611 78,140 79,3113
80,1672 81,1181 82,180 96,130
97,841 98,60 104,240 105,60
115,80 128,90 129,80 131,20
141,50 142,110 155,1171 156,140
157,1111 158,120 173,801 174,100
183,9999 184,721 185,9699 186,701
187,50 200,140 201,420 202,180
203,240 207,100 209,80 223,30
234,40 236,40 251,190 252,280
253,210 254,270 255,30 265,621
266,80 267,611 268,70 280,140
282,150
##END=
