##TITLE=m-Toluic acid, 3-tetradecyl ester
##JCAMP-DX=4.24
##DATA TYPE=MASS SPECTRUM
##ORIGIN=Zaikin V.G., TIPS RAS, Moscow, Russia
##OWNER=NIST Mass Spectrometry Data Center
Collection (C) 2014 copyright by the U.S. Secretary of Commerce
on behalf of the United States of America. All rights reserved.
##$NIST MASS SPEC NO=299783
##MOLFORM=C22 H36 O2
##MW=332
##$NIST SOURCE=MSDC
##XUNITS=M/Z
##YUNITS=RELATIVE INTENSITY
##XFACTOR=1
##YFACTOR=1
##FIRSTX=26
##LASTX=213
##FIRSTY=50
##MAXX=213
##MINX=26
##MAXY=9999
##MINY=30
##NPOINTS=71
##PEAK TABLE=(XY..XY)
26,50 27,140 28,120 29,310
39,180 40,30 41,781 42,180
43,861 44,70 50,30 51,40
53,60 54,120 55,931 56,521
57,731 58,30 63,60 65,440
66,40 67,200 68,170 69,791
70,631 71,370 72,40 77,80
79,40 81,140 82,280 83,791
84,460 85,240 89,120 90,150
91,2122 92,250 93,320 95,80
96,200 97,821 98,310 99,40
105,30 109,30 110,120 111,511
112,230 118,70 119,9999 120,921
121,60 124,60 125,250 126,160
134,90 135,60 136,811 137,5364
138,541 139,130 140,110 153,60
154,50 167,70 168,140 177,60
196,1281 197,190 213,180
##END=
