##TITLE=4-Nitrobenzoic acid, phenyl ester
##JCAMP-DX=4.24
##DATA TYPE=MASS SPECTRUM
##ORIGIN=Zaikin V.G., TIPS RAS, Moscow, Russia
##OWNER=NIST Mass Spectrometry Data Center
Collection (C) 2014 copyright by the U.S. Secretary of Commerce
on behalf of the United States of America. All rights reserved.
##$NIST MASS SPEC NO=299032
##MOLFORM=C13 H9 N O4
##MW=243
##$NIST SOURCE=MSDC
##XUNITS=M/Z
##YUNITS=RELATIVE INTENSITY
##XFACTOR=1
##YFACTOR=1
##FIRSTX=26
##LASTX=244
##FIRSTY=30
##MAXX=244
##MINX=26
##MAXY=9999
##MINY=30
##NPOINTS=36
##PEAK TABLE=(XY..XY)
26,30 28,30 30,90 38,60
39,310 44,30 50,460 51,140
53,30 62,30 63,160 64,180
65,370 66,80 74,150 75,400
76,1331 77,200 92,791 93,110
94,200 103,40 104,2162 105,210
115,40 120,541 121,70 122,60
134,140 139,40 150,9999 151,691
152,80 167,40 243,1211 244,180
##END=
