##TITLE=3-Bromobenzoic acid, oct-3-en-2-yl ester
##JCAMP-DX=4.24
##DATA TYPE=MASS SPECTRUM
##ORIGIN=Zaikin V.G., TIPS RAS, Moscow, Russia
##OWNER=NIST Mass Spectrometry Data Center
Collection (C) 2014 copyright by the U.S. Secretary of Commerce
on behalf of the United States of America. All rights reserved.
##$NIST MASS SPEC NO=299143
##MOLFORM=C15 H19 Br O2
##MW=310
##$NIST SOURCE=MSDC
##XUNITS=M/Z
##YUNITS=RELATIVE INTENSITY
##XFACTOR=1
##YFACTOR=1
##FIRSTX=26
##LASTX=312
##FIRSTY=40
##MAXX=312
##MINX=26
##MAXY=9999
##MINY=30
##NPOINTS=81
##PEAK TABLE=(XY..XY)
26,40 27,190 28,60 29,160
38,40 39,300 40,80 41,831
42,120 43,420 44,100 50,310
51,130 52,40 53,370 54,330
55,1862 56,140 57,80 65,150
66,80 67,881 68,2523 69,1672
70,120 71,260 74,140 75,501
76,741 77,250 78,50 79,260
80,130 81,1712 82,330 83,50
85,60 91,30 93,30 95,490
96,60 104,250 105,80 109,40
110,1091 111,350 112,30 127,1832
128,180 131,30 155,1291 156,130
157,1251 158,110 183,9999 184,811
185,9589 186,771 187,40 200,501
201,110 202,470 203,100 211,50
212,200 213,70 214,190 225,40
226,30 227,60 228,30 253,110
254,90 255,120 256,70 267,100
268,50 269,100 270,50 310,120
312,120
##END=
