##TITLE=o-Toluic acid, 3-tridecyl ester
##JCAMP-DX=4.24
##DATA TYPE=MASS SPECTRUM
##ORIGIN=Zaikin V.G., TIPS RAS, Moscow, Russia
##OWNER=NIST Mass Spectrometry Data Center
Collection (C) 2014 copyright by the U.S. Secretary of Commerce
on behalf of the United States of America. All rights reserved.
##$NIST MASS SPEC NO=299791
##MOLFORM=C21 H34 O2
##MW=318
##$NIST SOURCE=MSDC
##XUNITS=M/Z
##YUNITS=RELATIVE INTENSITY
##XFACTOR=1
##YFACTOR=1
##FIRSTX=26
##LASTX=318
##FIRSTY=80
##MAXX=318
##MINX=26
##MAXY=9999
##MINY=20
##NPOINTS=74
##PEAK TABLE=(XY..XY)
26,80 27,240 28,210 29,541
39,300 40,50 41,1301 42,320
43,1562 44,160 50,40 51,70
52,30 53,100 54,150 55,1421
56,711 57,1441 58,60 59,30
63,100 64,30 65,651 66,50
67,250 68,170 69,1011 70,671
71,711 72,50 77,160 78,30
79,100 81,140 82,210 83,691
84,400 85,410 89,200 90,400
91,2733 92,290 93,250 95,80
96,120 97,581 98,230 99,60
105,170 109,30 110,60 111,280
112,140 113,40 118,2342 119,7997
120,721 121,50 123,30 124,40
125,140 126,80 135,180 136,9999
137,2703 138,230 139,50 140,30
154,70 177,20 182,300 183,40
199,90 318,20
##END=
