##TITLE=1-Dichloromethyldimethylsilyloxy-2-methylbenzene
##JCAMP-DX=4.24
##DATA TYPE=MASS SPECTRUM
##ORIGIN=Zaikin V.G., TIPS RAS, Moscow, Russia
##OWNER=NIST Mass Spectrometry Data Center
Collection (C) 2014 copyright by the U.S. Secretary of Commerce
on behalf of the United States of America. All rights reserved.
##$NIST MASS SPEC NO=299108
##MOLFORM=C10 H14 Cl2 O Si
##MW=248
##$NIST SOURCE=MSDC
##XUNITS=M/Z
##YUNITS=RELATIVE INTENSITY
##XFACTOR=1
##YFACTOR=1
##FIRSTX=27
##LASTX=252
##FIRSTY=30
##MAXX=252
##MINX=27
##MAXY=9999
##MINY=20
##NPOINTS=81
##PEAK TABLE=(XY..XY)
27,30 28,20 36,110 38,30
39,90 41,40 43,80 44,50
45,50 47,30 51,80 52,30
53,30 59,120 63,210 65,380
67,40 74,40 75,220 76,30
77,250 78,190 79,230 80,30
81,50 82,100 83,110 89,150
90,90 91,3544 92,330 93,240
95,130 99,30 103,110 104,40
105,150 106,30 107,90 108,30
113,320 115,220 117,40 119,90
121,80 133,60 134,20 135,1321
136,190 137,100 139,70 147,170
148,60 149,1021 150,150 151,60
155,30 161,160 162,30 163,390
164,90 165,9999 166,1522 167,480
168,40 169,80 171,30 175,40
177,30 183,50 185,50 197,120
199,50 200,50 213,30 247,30
248,1461 249,260 250,991 251,170
252,190
##END=
