##TITLE=p-Toluic acid, 2-tetradecyl ester
##JCAMP-DX=4.24
##DATA TYPE=MASS SPECTRUM
##ORIGIN=Zaikin V.G., TIPS RAS, Moscow, Russia
##OWNER=NIST Mass Spectrometry Data Center
Collection (C) 2014 copyright by the U.S. Secretary of Commerce
on behalf of the United States of America. All rights reserved.
##$NIST MASS SPEC NO=299806
##MOLFORM=C22 H36 O2
##MW=332
##$NIST SOURCE=MSDC
##XUNITS=M/Z
##YUNITS=RELATIVE INTENSITY
##XFACTOR=1
##YFACTOR=1
##FIRSTX=26
##LASTX=332
##FIRSTY=60
##MAXX=332
##MINX=26
##MAXY=9999
##MINY=20
##NPOINTS=78
##PEAK TABLE=(XY..XY)
26,60 27,160 28,140 29,350
39,230 40,40 41,1011 42,300
43,1201 44,80 45,30 50,30
51,50 53,70 54,160 55,1241
56,801 57,1061 58,90 63,70
65,470 66,40 67,240 68,260
69,1011 70,851 71,551 77,90
79,40 81,170 82,380 83,1051
84,591 85,290 89,150 90,160
91,2152 92,300 93,390 94,30
95,90 96,270 97,1161 98,420
99,60 105,50 107,60 109,30
110,150 111,681 112,310 113,30
118,80 119,9589 120,871 121,80
124,80 125,330 126,210 134,80
135,70 136,1822 137,9999 138,921
139,140 140,120 152,60 153,90
154,110 163,130 164,20 167,50
168,190 196,1461 197,220 213,230
214,30 332,20
##END=
