##TITLE=Octanoic acid, 2,6-dimethylnon-1-en-3-yn-5-yl ester
##JCAMP-DX=4.24
##DATA TYPE=MASS SPECTRUM
##ORIGIN=Zaikin V.G., TIPS RAS, Moscow, Russia
##OWNER=NIST Mass Spectrometry Data Center
Collection (C) 2014 copyright by the U.S. Secretary of Commerce
on behalf of the United States of America. All rights reserved.
##$NIST MASS SPEC NO=299347
##MOLFORM=C19 H32 O2
##MW=292
##$NIST SOURCE=MSDC
##XUNITS=M/Z
##YUNITS=RELATIVE INTENSITY
##XFACTOR=1
##YFACTOR=1
##FIRSTX=25
##LASTX=293
##FIRSTY=20
##MAXX=293
##MINX=25
##MAXY=9999
##MINY=20
##NPOINTS=124
##PEAK TABLE=(XY..XY)
25,20 26,200 27,781 28,450
29,1121 37,40 38,70 39,821
40,230 41,2843 42,641 43,3203
44,270 45,50 50,100 51,230
52,170 53,430 54,100 55,1972
56,340 57,9999 58,450 59,100
60,450 61,60 62,30 63,130
64,60 65,440 66,260 67,761
68,120 69,1031 70,320 71,410
72,60 73,310 74,40 76,30
77,1251 78,470 79,1021 80,210
81,701 82,711 83,1001 84,330
85,170 86,30 87,60 89,40
91,1992 92,631 93,1231 94,250
95,1481 96,430 97,280 98,290
99,80 101,110 103,200 104,120
105,1401 106,1401 107,1261 108,230
109,2843 110,380 111,400 112,40
115,140 116,30 117,190 118,50
119,1942 120,621 121,370 122,110
123,1732 124,6876 125,781 126,70
127,6075 128,551 129,50 131,70
133,2232 134,280 135,130 136,561
137,1201 138,240 139,40 147,140
148,2232 149,571 150,90 151,1101
152,160 165,1251 166,2352 167,340
168,50 169,80 175,30 177,20
179,60 193,541 194,120 207,110
209,50 221,480 222,180 223,30
249,3023 250,571 251,60 263,70
277,440 278,80 292,280 293,50
##END=
