##TITLE=2-Chlorobenzoic acid, 7-pentadecyl ester
##JCAMP-DX=4.24
##DATA TYPE=MASS SPECTRUM
##ORIGIN=Zaikin V.G., TIPS RAS, Moscow, Russia
##OWNER=NIST Mass Spectrometry Data Center
Collection (C) 2014 copyright by the U.S. Secretary of Commerce
on behalf of the United States of America. All rights reserved.
##$NIST MASS SPEC NO=299826
##MOLFORM=C22 H35 Cl O2
##MW=366
##$NIST SOURCE=MSDC
##XUNITS=M/Z
##YUNITS=RELATIVE INTENSITY
##XFACTOR=1
##YFACTOR=1
##FIRSTX=26
##LASTX=281
##FIRSTY=80
##MAXX=281
##MINX=26
##MAXY=9999
##MINY=20
##NPOINTS=82
##PEAK TABLE=(XY..XY)
26,80 27,230 28,180 29,450
38,20 39,200 40,40 41,1081
42,290 43,1291 44,130 50,120
51,80 53,80 54,260 55,1361
56,811 57,1211 58,60 65,40
66,30 67,330 68,300 69,1221
70,921 71,611 72,30 74,50
75,340 76,210 77,210 78,40
79,60 81,240 82,450 83,1221
84,661 85,400 91,30 95,140
96,360 97,1281 98,490 99,90
104,170 105,140 109,50 110,260
111,2052 112,561 113,490 114,40
121,50 123,20 124,160 125,501
126,290 127,40 138,120 139,9999
140,971 141,3203 142,240 152,60
153,120 154,240 156,350 157,2713
158,310 159,901 160,60 166,30
167,70 168,70 181,30 182,200
210,1712 211,280 227,210 228,30
253,20 281,20
##END=
