##TITLE=4-Bromobenzoic acid, tridec-2-ynyl ester
##JCAMP-DX=4.24
##DATA TYPE=MASS SPECTRUM
##ORIGIN=Zaikin V.G., TIPS RAS, Moscow, Russia
##OWNER=NIST Mass Spectrometry Data Center
Collection (C) 2014 copyright by the U.S. Secretary of Commerce
on behalf of the United States of America. All rights reserved.
##$NIST MASS SPEC NO=299252
##MOLFORM=C20 H27 Br O2
##MW=378
##$NIST SOURCE=MSDC
##XUNITS=M/Z
##YUNITS=RELATIVE INTENSITY
##XFACTOR=1
##YFACTOR=1
##FIRSTX=26
##LASTX=254
##FIRSTY=30
##MAXX=254
##MINX=26
##MAXY=9999
##MINY=20
##NPOINTS=80
##PEAK TABLE=(XY..XY)
26,30 27,100 28,80 29,200
39,140 40,30 41,521 42,90
43,511 44,40 50,130 51,80
52,140 53,160 54,110 55,450
56,110 57,200 65,110 66,100
67,340 68,70 69,200 70,60
71,80 74,50 75,170 76,240
77,280 78,90 79,490 80,160
81,270 82,100 83,90 85,60
91,210 92,30 93,280 94,150
95,250 96,50 97,50 104,240
105,190 107,100 108,80 109,70
110,20 111,100 121,120 122,40
124,50 128,30 135,100 136,30
149,40 151,40 155,430 156,50
157,410 158,50 169,120 178,60
183,9999 184,721 185,9689 186,711
187,40 195,70 198,30 200,140
201,80 202,120 203,70 240,30
251,110 252,60 253,110 254,90
##END=
