##TITLE=2-Chlorobenzoic acid, 4-pentadecyl ester
##JCAMP-DX=4.24
##DATA TYPE=MASS SPECTRUM
##ORIGIN=Zaikin V.G., TIPS RAS, Moscow, Russia
##OWNER=NIST Mass Spectrometry Data Center
Collection (C) 2014 copyright by the U.S. Secretary of Commerce
on behalf of the United States of America. All rights reserved.
##$NIST MASS SPEC NO=299823
##MOLFORM=C22 H35 Cl O2
##MW=366
##$NIST SOURCE=MSDC
##XUNITS=M/Z
##YUNITS=RELATIVE INTENSITY
##XFACTOR=1
##YFACTOR=1
##FIRSTX=26
##LASTX=366
##FIRSTY=70
##MAXX=366
##MINX=26
##MAXY=9999
##MINY=20
##NPOINTS=84
##PEAK TABLE=(XY..XY)
26,70 27,210 28,160 29,400
38,30 39,200 40,40 41,1121
42,290 43,1361 44,140 50,120
51,80 53,70 54,210 55,1391
56,761 57,1241 58,70 65,40
66,30 67,310 68,260 69,1171
70,861 71,651 72,40 74,50
75,390 76,220 77,210 78,40
79,50 81,230 82,440 83,1191
84,681 85,450 86,50 91,30
95,130 96,320 97,1291 98,470
99,120 104,180 105,140 109,60
110,240 111,2112 112,541 113,490
114,50 121,60 123,30 124,130
125,470 126,250 127,30 135,30
138,140 139,9999 140,1011 141,3283
142,250 152,60 153,110 154,220
156,360 157,4044 158,430 159,1401
160,100 166,40 167,110 168,80
181,30 182,210 183,50 210,1652
211,280 227,290 228,40 366,20
##END=
