##TITLE=l-Serine, N,O-bis-(2,6-difluorobenzoyl)-, methyl ester
##JCAMP-DX=4.24
##DATA TYPE=MASS SPECTRUM
##ORIGIN=Zaikin V.G., TIPS RAS, Moscow, Russia
##OWNER=NIST Mass Spectrometry Data Center
Collection (C) 2014 copyright by the U.S. Secretary of Commerce
on behalf of the United States of America. All rights reserved.
##$NIST MASS SPEC NO=299665
##MOLFORM=C18 H13 F4 N O5
##MW=399
##$NIST SOURCE=MSDC
##XUNITS=M/Z
##YUNITS=RELATIVE INTENSITY
##XFACTOR=1
##YFACTOR=1
##FIRSTX=28
##LASTX=368
##FIRSTY=20
##MAXX=368
##MINX=28
##MAXY=9999
##MINY=20
##NPOINTS=31
##PEAK TABLE=(XY..XY)
28,20 44,50 63,210 93,30
94,40 112,50 113,681 114,140
127,30 140,60 141,9999 142,641
143,40 154,120 155,40 158,100
159,30 182,2482 183,260 197,30
210,30 226,30 228,50 241,501
242,70 258,140 298,370 299,60
340,521 341,90 368,30
##END=
