##TITLE=1-Trihexylsilyloxypent-2-en-4-yne
##JCAMP-DX=4.24
##DATA TYPE=MASS SPECTRUM
##ORIGIN=Zaikin V.G., TIPS RAS, Moscow, Russia
##OWNER=NIST Mass Spectrometry Data Center
Collection (C) 2014 copyright by the U.S. Secretary of Commerce
on behalf of the United States of America. All rights reserved.
##$NIST MASS SPEC NO=299522
##MOLFORM=C23 H44 O Si
##MW=364
##$NIST SOURCE=MSDC
##XUNITS=M/Z
##YUNITS=RELATIVE INTENSITY
##XFACTOR=1
##YFACTOR=1
##FIRSTX=26
##LASTX=283
##FIRSTY=140
##MAXX=283
##MINX=26
##MAXY=9999
##MINY=30
##NPOINTS=90
##PEAK TABLE=(XY..XY)
26,140 27,240 29,170 38,30
39,280 41,601 42,220 43,420
45,350 47,150 53,30 54,30
55,290 56,220 57,160 59,340
60,40 61,210 63,30 65,751
66,130 67,340 69,70 71,160
73,290 74,50 75,80 79,40
81,50 83,440 84,170 85,490
86,50 87,230 89,40 97,450
98,60 99,240 101,360 102,30
109,360 110,240 111,6335 112,741
113,631 114,60 115,320 116,30
124,60 125,591 126,120 127,120
129,50 131,70 137,150 138,60
139,511 140,80 151,50 152,30
153,270 154,40 155,40 165,551
166,120 167,511 168,140 177,30
181,30 193,90 194,40 195,6736
196,2833 197,741 198,140 199,350
200,60 215,40 221,30 237,180
238,40 249,430 250,100 251,130
252,40 279,9999 280,2392 281,601
282,80 283,60
##END=
