##TITLE=l-Proline, N-(2-trifluoromethylbenzoyl)-, methyl ester
##JCAMP-DX=4.24
##DATA TYPE=MASS SPECTRUM
##ORIGIN=Zaikin V.G., TIPS RAS, Moscow, Russia
##OWNER=NIST Mass Spectrometry Data Center
Collection (C) 2014 copyright by the U.S. Secretary of Commerce
on behalf of the United States of America. All rights reserved.
##$NIST MASS SPEC NO=299686
##MOLFORM=C14 H14 F3 N O3
##MW=301
##$NIST SOURCE=MSDC
##XUNITS=M/Z
##YUNITS=RELATIVE INTENSITY
##XFACTOR=1
##YFACTOR=1
##FIRSTX=26
##LASTX=302
##FIRSTY=10
##MAXX=302
##MINX=26
##MAXY=9999
##MINY=10
##NPOINTS=58
##PEAK TABLE=(XY..XY)
26,10 27,30 29,10 39,40
40,20 41,180 42,100 44,40
50,30 51,20 55,10 57,10
59,30 67,10 68,80 69,70
70,10 74,10 75,80 76,30
77,20 81,10 94,10 95,160
96,20 99,10 100,10 105,10
107,10 119,20 125,130 126,120
127,30 128,90 130,10 143,20
144,60 145,1872 146,170 152,10
154,30 166,20 172,40 173,9999
174,691 175,40 185,20 213,20
215,10 241,20 242,3744 243,440
244,30 270,20 282,140 283,20
301,250 302,40
##END=
