##TITLE=Octanoic acid, pent-2-en-4-ynyl ester
##JCAMP-DX=4.24
##DATA TYPE=MASS SPECTRUM
##ORIGIN=Zaikin V.G., TIPS RAS, Moscow, Russia
##OWNER=NIST Mass Spectrometry Data Center
Collection (C) 2014 copyright by the U.S. Secretary of Commerce
on behalf of the United States of America. All rights reserved.
##$NIST MASS SPEC NO=299342
##MOLFORM=C13 H20 O2
##MW=208
##$NIST SOURCE=MSDC
##XUNITS=M/Z
##YUNITS=RELATIVE INTENSITY
##XFACTOR=1
##YFACTOR=1
##FIRSTX=26
##LASTX=209
##FIRSTY=90
##MAXX=209
##MINX=26
##MAXY=9999
##MINY=20
##NPOINTS=68
##PEAK TABLE=(XY..XY)
26,90 27,410 28,240 29,611
38,80 39,1101 40,110 41,1311
42,300 43,2042 44,180 45,50
50,90 51,140 52,120 53,220
54,100 55,1231 56,180 57,9999
58,440 59,140 60,100 62,50
63,290 64,220 65,2412 66,450
67,410 68,40 69,190 70,60
71,150 73,80 77,40 78,30
79,140 80,30 81,410 82,761
83,691 84,120 85,80 87,40
91,50 93,50 95,100 96,60
97,410 98,90 101,60 105,30
107,70 109,741 110,60 123,90
124,130 125,360 126,30 127,7386
128,641 129,40 137,100 143,30
165,30 179,20 208,440 209,60
##END=
