##TITLE=Trichloroacetic acid, hex-4-yn-3-yl ester
##JCAMP-DX=4.24
##DATA TYPE=MASS SPECTRUM
##ORIGIN=Zaikin V.G., TIPS RAS, Moscow, Russia
##OWNER=NIST Mass Spectrometry Data Center
Collection (C) 2014 copyright by the U.S. Secretary of Commerce
on behalf of the United States of America. All rights reserved.
##$NIST MASS SPEC NO=299257
##MOLFORM=C8 H9 Cl3 O2
##MW=242
##$NIST SOURCE=MSDC
##XUNITS=M/Z
##YUNITS=RELATIVE INTENSITY
##XFACTOR=1
##YFACTOR=1
##FIRSTX=26
##LASTX=231
##FIRSTY=240
##MAXX=231
##MINX=26
##MAXY=9999
##MINY=20
##NPOINTS=118
##PEAK TABLE=(XY..XY)
26,240 27,1231 28,30 29,831
35,170 36,911 37,150 38,561
39,2262 40,521 41,3544 42,160
43,3353 44,531 45,30 47,300
48,30 49,110 50,501 51,981
52,881 53,3834 54,280 55,661
56,40 57,731 61,40 62,90
63,260 64,60 65,991 66,681
67,791 68,90 69,651 70,50
74,40 75,40 77,1602 78,320
79,9999 80,5484 81,9789 82,1562
83,531 84,591 85,180 86,90
87,100 89,50 90,90 91,50
95,40 96,40 97,641 98,30
102,50 103,100 105,30 110,1161
111,40 112,731 114,110 115,210
116,40 117,4444 118,40 119,4274
120,40 121,1602 123,340 125,160
129,30 131,40 133,30 139,30
141,40 143,50 145,100 147,40
149,280 150,60 151,250 152,40
153,80 154,110 156,70 163,40
165,40 171,20 173,40 177,430
178,40 179,330 181,80 185,180
187,180 188,40 189,60 190,30
191,40 192,40 193,30 206,40
207,5655 208,480 209,3614 210,300
211,591 212,50 213,521 214,30
215,511 216,30 217,160 227,200
229,190 231,60
##END=
