##TITLE=l-Serine, N,O-bis(pivaloyl)-, methyl ester
##JCAMP-DX=4.24
##DATA TYPE=MASS SPECTRUM
##ORIGIN=Zaikin V.G., TIPS RAS, Moscow, Russia
##OWNER=NIST Mass Spectrometry Data Center
Collection (C) 2014 copyright by the U.S. Secretary of Commerce
on behalf of the United States of America. All rights reserved.
##$NIST MASS SPEC NO=299746
##MOLFORM=C14 H25 N O5
##MW=287
##$NIST SOURCE=MSDC
##XUNITS=M/Z
##YUNITS=RELATIVE INTENSITY
##XFACTOR=1
##YFACTOR=1
##FIRSTX=27
##LASTX=287
##FIRSTY=100
##MAXX=287
##MINX=27
##MAXY=9999
##MINY=10
##NPOINTS=61
##PEAK TABLE=(XY..XY)
27,100 28,10 29,551 39,200
40,60 41,1071 42,280 43,110
44,100 55,210 56,240 57,9999
58,400 59,110 60,110 69,250
70,250 71,40 83,60 84,30
85,2753 86,230 87,90 88,200
89,100 100,30 101,200 102,380
103,60 113,30 118,130 120,80
126,3183 127,270 128,290 130,60
141,631 142,80 144,410 145,30
146,490 148,30 153,110 154,80
155,60 170,290 171,30 172,50
173,470 174,40 185,651 186,901
187,140 188,70 202,1201 203,120
204,50 228,180 244,50 256,70
287,70
##END=
