##TITLE=l-Cysteine, N,S-bis(2-trifluoromethylbenzoyl)-, methyl ester
##JCAMP-DX=4.24
##DATA TYPE=MASS SPECTRUM
##ORIGIN=Zaikin V.G., TIPS RAS, Moscow, Russia
##OWNER=NIST Mass Spectrometry Data Center
Collection (C) 2014 copyright by the U.S. Secretary of Commerce
on behalf of the United States of America. All rights reserved.
##$NIST MASS SPEC NO=299690
##MOLFORM=C20 H15 F6 N O4 S
##MW=479
##$NIST SOURCE=MSDC
##XUNITS=M/Z
##YUNITS=RELATIVE INTENSITY
##XFACTOR=1
##YFACTOR=1
##FIRSTX=27
##LASTX=479
##FIRSTY=10
##MAXX=479
##MINX=27
##MAXY=9999
##MINY=10
##NPOINTS=71
##PEAK TABLE=(XY..XY)
27,10 41,10 44,20 45,20
46,20 50,30 51,10 55,10
57,10 59,30 69,10 74,20
75,70 76,20 77,10 86,10
87,10 94,10 95,130 96,20
99,10 107,10 117,20 119,20
125,90 126,90 127,30 130,10
132,10 135,20 143,10 144,30
145,1742 146,190 147,10 152,20
154,20 159,10 170,10 171,10
172,20 173,9999 174,741 175,40
186,10 189,10 190,20 194,10
198,10 214,40 215,10 241,10
242,10 248,10 273,20 274,370
275,50 276,10 288,40 290,10
306,2012 307,270 308,110 309,10
362,210 363,30 420,210 421,40
422,10 448,10 479,20
##END=
