##TITLE=2-Dimethyldodecylsilyloxybut-3-yne
##JCAMP-DX=4.24
##DATA TYPE=MASS SPECTRUM
##ORIGIN=Zaikin V.G., TIPS RAS, Moscow, Russia
##OWNER=NIST Mass Spectrometry Data Center
Collection (C) 2014 copyright by the U.S. Secretary of Commerce
on behalf of the United States of America. All rights reserved.
##$NIST MASS SPEC NO=299550
##MOLFORM=C18 H36 O Si
##MW=296
##$NIST SOURCE=MSDC
##XUNITS=M/Z
##YUNITS=RELATIVE INTENSITY
##XFACTOR=1
##YFACTOR=1
##FIRSTX=25
##LASTX=281
##FIRSTY=10
##MAXX=281
##MINX=25
##MAXY=9999
##MINY=10
##NPOINTS=82
##PEAK TABLE=(XY..XY)
25,10 26,60 27,150 29,210
31,10 39,100 40,20 41,420
42,150 43,611 45,150 47,120
50,20 51,30 52,30 53,110
54,40 55,250 56,160 57,210
58,40 59,621 60,80 61,370
62,20 63,10 67,50 68,20
69,270 70,70 71,50 72,20
73,70 74,40 75,821 76,50
77,20 81,20 82,20 83,3413
84,330 85,300 86,20 87,80
89,20 95,30 96,10 97,220
98,30 99,160 100,10 101,611
102,50 103,40 109,90 110,10
111,240 112,70 113,2402 114,250
115,190 116,10 123,20 125,100
126,20 127,9999 128,1061 129,400
130,20 137,20 139,20 141,120
142,10 143,10 151,10 153,10
155,20 169,20 225,10 229,20
235,20 281,30
##END=
