##TITLE=2-Furoic acid, 2,7-dimethyloct-7-en-5-yn-4-yl ester
##JCAMP-DX=4.24
##DATA TYPE=MASS SPECTRUM
##ORIGIN=Zaikin V.G., TIPS RAS, Moscow, Russia
##OWNER=NIST Mass Spectrometry Data Center
Collection (C) 2014 copyright by the U.S. Secretary of Commerce
on behalf of the United States of America. All rights reserved.
##$NIST MASS SPEC NO=299238
##MOLFORM=C15 H18 O3
##MW=246
##$NIST SOURCE=MSDC
##XUNITS=M/Z
##YUNITS=RELATIVE INTENSITY
##XFACTOR=1
##YFACTOR=1
##FIRSTX=26
##LASTX=246
##FIRSTY=50
##MAXX=246
##MINX=26
##MAXY=9999
##MINY=20
##NPOINTS=96
##PEAK TABLE=(XY..XY)
26,50 27,210 28,40 29,120
37,30 38,90 39,751 40,100
41,721 42,50 43,611 44,110
50,70 51,240 52,110 53,220
55,270 56,30 57,120 63,110
64,60 65,310 66,100 67,250
68,90 69,190 76,30 77,911
78,220 79,671 80,90 81,370
82,30 83,60 89,40 90,30
91,1852 92,661 93,671 94,120
95,9999 96,601 97,90 103,150
104,90 105,480 106,110 107,260
108,80 109,430 110,60 112,220
113,60 115,90 116,40 117,220
118,50 119,2623 120,310 121,60
123,40 129,40 131,110 132,40
133,230 134,551 135,130 136,180
137,70 138,80 144,20 145,90
146,30 147,160 148,40 149,40
150,40 151,180 159,140 160,40
161,210 162,310 163,80 164,40
175,330 176,90 177,80 189,100
190,120 203,5084 204,691 205,70
217,120 218,70 231,50 246,180
##END=
