##TITLE=(Phenylthio)acetic acid, heptadecyl ester
##JCAMP-DX=4.24
##DATA TYPE=MASS SPECTRUM
##ORIGIN=Zaikin V.G., TIPS RAS, Moscow, Russia
##OWNER=NIST Mass Spectrometry Data Center
Collection (C) 2014 copyright by the U.S. Secretary of Commerce
on behalf of the United States of America. All rights reserved.
##$NIST MASS SPEC NO=299962
##MOLFORM=C25 H42 O2 S
##MW=406
##$NIST SOURCE=MSDC
##XUNITS=M/Z
##YUNITS=RELATIVE INTENSITY
##XFACTOR=1
##YFACTOR=1
##FIRSTX=26
##LASTX=409
##FIRSTY=180
##MAXX=409
##MINX=26
##MAXY=9999
##MINY=10
##NPOINTS=93
##PEAK TABLE=(XY..XY)
26,180 27,400 28,10 29,931
36,80 37,30 38,60 39,561
40,90 41,2633 42,541 43,4334
44,350 45,1371 46,50 47,60
50,160 51,370 52,80 53,150
54,290 55,3514 56,901 57,3564
58,180 61,90 63,60 65,490
66,300 67,611 68,420 69,2372
70,651 71,1522 72,70 73,60
74,50 75,40 76,40 77,521
78,310 79,330 80,50 81,420
82,521 83,1401 84,480 85,821
86,40 91,190 93,50 94,60
95,300 96,250 97,961 98,190
99,110 105,90 107,30 108,110
109,1061 110,1401 111,611 112,150
113,50 121,290 122,130 123,8738
124,1942 125,541 126,210 127,30
133,40 135,40 137,40 139,50
150,100 151,881 152,140 153,40
168,9999 169,1381 170,541 171,50
191,50 193,30 282,50 283,310
284,50 406,5925 407,1622 408,501
409,90
##END=
