##TITLE=trans-3-(Trifluoromethyl)cinnamic acid, hexadecyl ester
##JCAMP-DX=4.24
##DATA TYPE=MASS SPECTRUM
##ORIGIN=Zaikin V.G., TIPS RAS, Moscow, Russia
##OWNER=NIST Mass Spectrometry Data Center
Collection (C) 2014 copyright by the U.S. Secretary of Commerce
on behalf of the United States of America. All rights reserved.
##$NIST MASS SPEC NO=299878
##MOLFORM=C26 H39 F3 O2
##MW=440
##$NIST SOURCE=MSDC
##XUNITS=M/Z
##YUNITS=RELATIVE INTENSITY
##XFACTOR=1
##YFACTOR=1
##FIRSTX=26
##LASTX=441
##FIRSTY=180
##MAXX=441
##MINX=26
##MAXY=9999
##MINY=10
##NPOINTS=134
##PEAK TABLE=(XY..XY)
26,180 27,330 28,10 29,671
36,40 38,30 39,330 40,80
41,1872 42,581 43,2903 44,250
50,80 51,80 52,30 53,110
54,531 55,3023 56,1471 57,2693
58,110 63,30 66,80 67,771
68,1051 69,2953 70,1431 71,1381
72,70 73,20 74,40 75,90
76,50 77,60 79,60 80,40
81,511 82,1411 83,2883 84,881
85,741 86,40 91,60 94,30
95,420 96,1041 97,2523 98,611
99,150 100,50 101,60 102,290
103,80 109,250 110,450 111,1381
112,380 113,100 119,60 120,80
121,30 122,30 123,210 124,330
125,651 126,240 127,100 131,70
133,40 137,150 138,220 139,250
140,170 141,50 145,170 146,70
147,330 148,30 151,1662 152,270
153,140 154,110 159,170 165,60
166,130 167,70 168,150 169,150
170,320 171,1862 172,911 173,130
175,70 179,90 180,170 181,130
182,20 185,30 186,40 188,80
193,30 194,120 195,30 196,170
197,1181 198,370 199,7466 200,891
201,110 212,30 214,30 215,1582
216,8057 217,9999 218,1401 219,170
222,961 223,210 224,170 225,30
230,60 239,40 241,110 242,30
243,30 244,30 257,921 258,140
267,50 271,881 272,160 380,30
440,531 441,170
##END=
