##TITLE=2,2-Dimethylpropanoic acid, 3-chloroprop-2-enyl ester
##JCAMP-DX=4.24
##DATA TYPE=MASS SPECTRUM
##ORIGIN=Zaikin V.G., TIPS RAS, Moscow, Russia
##OWNER=NIST Mass Spectrometry Data Center
Collection (C) 2014 copyright by the U.S. Secretary of Commerce
on behalf of the United States of America. All rights reserved.
##$NIST MASS SPEC NO=299339
##MOLFORM=C8 H13 Cl O2
##MW=176
##$NIST SOURCE=MSDC
##XUNITS=M/Z
##YUNITS=RELATIVE INTENSITY
##XFACTOR=1
##YFACTOR=1
##FIRSTX=26
##LASTX=178
##FIRSTY=90
##MAXX=178
##MINX=26
##MAXY=9999
##MINY=10
##NPOINTS=55
##PEAK TABLE=(XY..XY)
26,90 27,230 28,10 29,581
39,1081 40,270 41,2492 42,300
43,260 44,490 45,90 49,290
50,110 51,150 52,190 53,340
54,60 55,390 56,390 57,9999
58,561 59,100 61,50 62,40
67,561 68,961 69,2903 70,330
71,340 72,380 73,60 74,40
75,2773 76,120 77,1111 78,80
79,360 81,290 83,50 85,1672
86,180 87,50 88,170 89,30
91,160 93,40 96,80 103,180
105,60 113,30 133,50 141,3904
142,400 176,120 178,30
##END=
