##TITLE=4-Nitrobenzoic acid, 2-bromo-4-fluorophenyl ester
##JCAMP-DX=4.24
##DATA TYPE=MASS SPECTRUM
##ORIGIN=Zaikin V.G., TIPS RAS, Moscow, Russia
##OWNER=NIST Mass Spectrometry Data Center
Collection (C) 2014 copyright by the U.S. Secretary of Commerce
on behalf of the United States of America. All rights reserved.
##$NIST MASS SPEC NO=299035
##MOLFORM=C13 H7 Br F N O4
##MW=339
##$NIST SOURCE=MSDC
##XUNITS=M/Z
##YUNITS=RELATIVE INTENSITY
##XFACTOR=1
##YFACTOR=1
##FIRSTX=28
##LASTX=342
##FIRSTY=20
##MAXX=342
##MINX=28
##MAXY=9999
##MINY=20
##NPOINTS=47
##PEAK TABLE=(XY..XY)
28,20 30,60 38,30 50,390
51,40 56,30 57,60 62,30
63,120 64,120 65,40 74,130
75,330 76,1091 77,90 80,30
81,130 82,220 83,60 92,621
93,60 94,40 103,30 104,1842
105,160 110,60 120,460 121,50
122,40 134,120 150,9999 151,651
152,70 157,60 161,170 163,170
167,30 186,30 189,50 190,140
191,60 192,130 214,40 339,260
340,30 341,260 342,30
##END=
