##TITLE=l-Leucine, N-pivaloyl-, methyl ester
##JCAMP-DX=4.24
##DATA TYPE=MASS SPECTRUM
##ORIGIN=Zaikin V.G., TIPS RAS, Moscow, Russia
##OWNER=NIST Mass Spectrometry Data Center
Collection (C) 2014 copyright by the U.S. Secretary of Commerce
on behalf of the United States of America. All rights reserved.
##$NIST MASS SPEC NO=299744
##MOLFORM=C12 H23 N O3
##MW=229
##$NIST SOURCE=MSDC
##XUNITS=M/Z
##YUNITS=RELATIVE INTENSITY
##XFACTOR=1
##YFACTOR=1
##FIRSTX=26
##LASTX=230
##FIRSTY=40
##MAXX=230
##MINX=26
##MAXY=9999
##MINY=10
##NPOINTS=78
##PEAK TABLE=(XY..XY)
26,40 27,250 28,10 29,651
30,470 31,40 33,60 36,40
39,370 40,90 41,1662 42,400
43,901 44,601 45,30 53,80
54,50 55,410 56,280 57,9999
58,531 59,210 60,30 67,70
68,80 69,681 70,430 71,50
73,60 74,40 76,30 82,40
83,130 84,170 85,3203 86,2302
87,420 88,1321 89,230 90,30
95,70 96,70 97,110 98,60
101,30 102,751 103,50 111,70
112,220 113,170 114,180 115,30
123,340 126,100 127,100 128,250
129,941 130,120 141,1441 142,180
144,1231 145,100 146,80 154,571
155,100 168,40 170,7697 171,921
172,250 173,2703 174,270 182,30
186,440 187,50 198,130 214,180
229,80 230,50
##END=
