##TITLE=2-Trifluoromethylbenzoic acid, 3-chloroprop-2-enyl ester
##JCAMP-DX=4.24
##DATA TYPE=MASS SPECTRUM
##ORIGIN=Zaikin V.G., TIPS RAS, Moscow, Russia
##OWNER=NIST Mass Spectrometry Data Center
Collection (C) 2014 copyright by the U.S. Secretary of Commerce
on behalf of the United States of America. All rights reserved.
##$NIST MASS SPEC NO=299410
##MOLFORM=C11 H8 Cl F3 O2
##MW=264
##$NIST SOURCE=MSDC
##XUNITS=M/Z
##YUNITS=RELATIVE INTENSITY
##XFACTOR=1
##YFACTOR=1
##FIRSTX=26
##LASTX=264
##FIRSTY=80
##MAXX=264
##MINX=26
##MAXY=9999
##MINY=30
##NPOINTS=68
##PEAK TABLE=(XY..XY)
26,80 27,60 28,390 35,90
36,681 38,250 39,250 40,50
41,70 43,30 44,621 45,40
49,60 50,230 51,150 52,150
53,30 55,30 57,60 63,40
69,120 73,40 74,120 75,1101
76,160 77,360 78,60 79,330
81,40 91,90 93,40 94,50
95,490 96,110 97,110 99,60
104,70 105,70 107,40 115,30
119,70 123,120 125,390 126,751
127,140 133,40 143,40 144,60
145,3453 146,370 151,240 152,40
154,3263 155,310 159,40 165,90
173,9999 174,951 175,40 181,30
183,50 185,70 190,621 191,50
195,30 229,1702 230,200 264,60
##END=
