##TITLE=(Phenylthio)acetic acid, undec-10-enyl ester
##JCAMP-DX=4.24
##DATA TYPE=MASS SPECTRUM
##ORIGIN=Zaikin V.G., TIPS RAS, Moscow, Russia
##OWNER=NIST Mass Spectrometry Data Center
Collection (C) 2014 copyright by the U.S. Secretary of Commerce
on behalf of the United States of America. All rights reserved.
##$NIST MASS SPEC NO=299848
##MOLFORM=C19 H28 O2 S
##MW=320
##$NIST SOURCE=MSDC
##XUNITS=M/Z
##YUNITS=RELATIVE INTENSITY
##XFACTOR=1
##YFACTOR=1
##FIRSTX=26
##LASTX=322
##FIRSTY=40
##MAXX=322
##MINX=26
##MAXY=9999
##MINY=30
##NPOINTS=66
##PEAK TABLE=(XY..XY)
26,40 27,100 28,80 29,200
39,240 40,40 41,971 42,160
43,440 44,70 45,691 46,30
47,30 50,50 51,130 53,100
54,350 55,1532 56,150 57,190
65,220 66,130 67,571 68,641
69,881 70,80 71,60 77,270
78,150 79,190 80,40 81,511
82,651 83,330 84,70 91,90
93,30 94,40 95,490 96,440
97,160 105,30 108,70 109,661
110,571 111,150 121,180 122,70
123,5965 124,921 125,320 126,70
135,30 150,60 151,501 152,400
153,80 168,9999 169,1071 170,501
171,50 193,40 197,70 320,821
321,180 322,60
##END=
