##TITLE=l-Proline, N-(2,3,4-trifluorobenzoyl)-, methyl ester
##JCAMP-DX=4.24
##DATA TYPE=MASS SPECTRUM
##ORIGIN=Zaikin V.G., TIPS RAS, Moscow, Russia
##OWNER=NIST Mass Spectrometry Data Center
Collection (C) 2014 copyright by the U.S. Secretary of Commerce
on behalf of the United States of America. All rights reserved.
##$NIST MASS SPEC NO=299631
##MOLFORM=C13 H12 F3 N O3
##MW=287
##$NIST SOURCE=MSDC
##XUNITS=M/Z
##YUNITS=RELATIVE INTENSITY
##XFACTOR=1
##YFACTOR=1
##FIRSTX=27
##LASTX=288
##FIRSTY=30
##MAXX=288
##MINX=27
##MAXY=9999
##MINY=20
##NPOINTS=24
##PEAK TABLE=(XY..XY)
27,30 28,20 39,50 41,200
42,90 44,40 59,30 68,80
69,60 81,350 112,50 128,70
130,40 131,1051 132,100 159,9999
160,611 161,30 201,30 228,4414
229,480 230,30 287,280 288,40
##END=
