##TITLE=1-(Dimethyldodecylsilyloxy)hexadecane
##JCAMP-DX=4.24
##DATA TYPE=MASS SPECTRUM
##ORIGIN=Zaikin V.G., TIPS RAS, Moscow, Russia
##OWNER=NIST Mass Spectrometry Data Center
Collection (C) 2014 copyright by the U.S. Secretary of Commerce
on behalf of the United States of America. All rights reserved.
##$NIST MASS SPEC NO=299998
##MOLFORM=C30 H64 O Si
##MW=468
##$NIST SOURCE=MSDC
##XUNITS=M/Z
##YUNITS=RELATIVE INTENSITY
##XFACTOR=1
##YFACTOR=1
##FIRSTX=26
##LASTX=455
##FIRSTY=30
##MAXX=455
##MINX=26
##MAXY=9999
##MINY=30
##NPOINTS=60
##PEAK TABLE=(XY..XY)
26,30 27,70 28,30 29,80
39,60 41,220 42,80 43,340
54,30 55,290 56,120 57,400
59,210 61,190 67,70 68,40
69,340 70,90 71,230 73,30
75,1081 76,80 77,60 81,60
82,40 83,470 84,60 85,150
87,50 89,460 90,30 95,50
97,440 98,40 99,80 101,150
111,210 113,50 115,130 125,70
127,30 129,70 143,40 157,30
171,30 185,30 199,40 213,50
227,90 229,30 241,30 283,90
285,60 299,9999 300,2272 301,601
302,80 453,1461 454,551 455,150
##END=
