##TITLE=1-Dimethylisopropylsilyloxy-3-methylbut-2-ene
##JCAMP-DX=4.24
##DATA TYPE=MASS SPECTRUM
##ORIGIN=Zaikin V.G., TIPS RAS, Moscow, Russia
##OWNER=NIST Mass Spectrometry Data Center
Collection (C) 2014 copyright by the U.S. Secretary of Commerce
on behalf of the United States of America. All rights reserved.
##$NIST MASS SPEC NO=299492
##MOLFORM=C10 H22 O Si
##MW=186
##$NIST SOURCE=MSDC
##XUNITS=M/Z
##YUNITS=RELATIVE INTENSITY
##XFACTOR=1
##YFACTOR=1
##FIRSTX=26
##LASTX=187
##FIRSTY=40
##MAXX=187
##MINX=26
##MAXY=9999
##MINY=10
##NPOINTS=55
##PEAK TABLE=(XY..XY)
26,40 27,70 28,10 29,30
39,150 40,130 41,360 42,50
43,120 44,310 45,180 47,190
50,30 51,50 52,60 53,120
55,40 57,30 58,60 59,400
60,80 61,250 64,130 67,150
68,90 69,190 73,571 74,120
75,9999 76,811 77,460 78,30
79,120 83,30 85,60 87,40
89,60 99,40 101,270 102,40
103,420 104,30 110,100 113,80
127,120 129,60 130,30 143,2813
144,380 145,120 171,761 172,110
173,30 186,350 187,50
##END=
