##TITLE=5-Chlorovaleric acid, 4-tridecyl ester
##JCAMP-DX=4.24
##DATA TYPE=MASS SPECTRUM
##ORIGIN=Zaikin V.G., TIPS RAS, Moscow, Russia
##OWNER=NIST Mass Spectrometry Data Center
Collection (C) 2014 copyright by the U.S. Secretary of Commerce
on behalf of the United States of America. All rights reserved.
##$NIST MASS SPEC NO=299914
##MOLFORM=C18 H35 Cl O2
##MW=318
##$NIST SOURCE=MSDC
##XUNITS=M/Z
##YUNITS=RELATIVE INTENSITY
##XFACTOR=1
##YFACTOR=1
##FIRSTX=26
##LASTX=275
##FIRSTY=80
##MAXX=275
##MINX=26
##MAXY=9999
##MINY=20
##NPOINTS=74
##PEAK TABLE=(XY..XY)
26,80 27,270 28,180 29,470
36,70 39,190 40,40 41,931
42,290 43,1131 44,90 45,20
53,90 54,180 55,2352 56,771
57,1131 58,90 59,30 63,60
67,190 68,180 69,901 70,781
71,751 72,50 73,100 81,140
82,270 83,921 84,551 85,410
86,60 87,30 91,1411 92,60
93,460 95,80 96,190 97,741
98,390 99,130 100,310 101,120
110,160 111,521 112,300 113,80
118,30 119,9999 120,511 121,3053
122,160 124,70 125,310 126,170
127,70 134,190 135,70 136,210
137,521 138,80 139,420 140,90
153,40 154,180 155,220 163,40
182,951 183,160 191,260 193,80
199,60 275,50
##END=
