##TITLE=3-Bromobenzoic acid, tridec-2-ynyl ester
##JCAMP-DX=4.24
##DATA TYPE=MASS SPECTRUM
##ORIGIN=Zaikin V.G., TIPS RAS, Moscow, Russia
##OWNER=NIST Mass Spectrometry Data Center
Collection (C) 2014 copyright by the U.S. Secretary of Commerce
on behalf of the United States of America. All rights reserved.
##$NIST MASS SPEC NO=299148
##MOLFORM=C20 H27 Br O2
##MW=378
##$NIST SOURCE=MSDC
##XUNITS=M/Z
##YUNITS=RELATIVE INTENSITY
##XFACTOR=1
##YFACTOR=1
##FIRSTX=26
##LASTX=270
##FIRSTY=50
##MAXX=270
##MINX=26
##MAXY=9999
##MINY=30
##NPOINTS=94
##PEAK TABLE=(XY..XY)
26,50 27,150 28,120 29,300
39,200 40,50 41,721 42,130
43,711 44,40 50,160 51,110
52,190 53,210 54,150 55,621
56,160 57,220 65,150 66,140
67,470 68,100 69,270 70,70
71,60 74,60 75,220 76,370
77,400 78,130 79,671 80,240
81,370 82,150 83,120 84,30
91,290 92,50 93,400 94,250
95,330 96,80 97,70 104,240
105,210 107,160 108,170 109,100
110,40 111,140 121,220 122,70
123,40 124,80 125,30 128,30
135,190 136,70 137,30 149,70
151,90 155,591 156,70 157,591
158,60 177,70 178,100 181,30
183,9999 184,731 185,9899 186,701
187,40 195,140 198,40 200,190
201,70 202,150 203,60 211,40
212,30 213,40 226,50 228,40
240,50 242,30 251,140 252,130
253,160 254,150 256,30 267,30
268,40 270,30
##END=
