##TITLE=l-Valine, N-(2-fluorobenzoyl)-, methyl ester
##JCAMP-DX=4.24
##DATA TYPE=MASS SPECTRUM
##ORIGIN=Zaikin V.G., TIPS RAS, Moscow, Russia
##OWNER=NIST Mass Spectrometry Data Center
Collection (C) 2014 copyright by the U.S. Secretary of Commerce
on behalf of the United States of America. All rights reserved.
##$NIST MASS SPEC NO=299621
##MOLFORM=C13 H16 F N O3
##MW=253
##$NIST SOURCE=MSDC
##XUNITS=M/Z
##YUNITS=RELATIVE INTENSITY
##XFACTOR=1
##YFACTOR=1
##FIRSTX=27
##LASTX=211
##FIRSTY=50
##MAXX=211
##MINX=27
##MAXY=9999
##MINY=20
##NPOINTS=37
##PEAK TABLE=(XY..XY)
27,50 28,20 39,50 41,80
43,70 44,40 50,40 51,30
55,30 56,50 59,30 69,50
70,50 74,30 75,290 76,40
83,50 88,40 94,100 95,1171
96,140 122,70 123,9999 124,711
125,40 140,781 141,60 151,80
178,20 179,350 180,40 194,4494
195,501 196,30 206,50 210,60
211,130
##END=
