##TITLE=3-Trifluoromethylbenzoic acid, pent-2-en-4-ynyl ester
##JCAMP-DX=4.24
##DATA TYPE=MASS SPECTRUM
##ORIGIN=Zaikin V.G., TIPS RAS, Moscow, Russia
##OWNER=NIST Mass Spectrometry Data Center
Collection (C) 2014 copyright by the U.S. Secretary of Commerce
on behalf of the United States of America. All rights reserved.
##$NIST MASS SPEC NO=299321
##MOLFORM=C13 H9 F3 O2
##MW=254
##$NIST SOURCE=MSDC
##XUNITS=M/Z
##YUNITS=RELATIVE INTENSITY
##XFACTOR=1
##YFACTOR=1
##FIRSTX=28
##LASTX=254
##FIRSTY=30
##MAXX=254
##MINX=28
##MAXY=9999
##MINY=20
##NPOINTS=33
##PEAK TABLE=(XY..XY)
28,30 38,40 39,280 44,40
50,100 51,70 52,30 53,30
62,40 63,210 64,140 65,340
69,30 74,30 75,130 76,40
81,70 95,220 96,20 109,40
125,140 126,100 127,70 144,40
145,2292 146,200 171,50 173,9999
174,751 175,50 190,50 235,80
254,120
##END=
