##TITLE=l-Valine, N-(2-chlorobenzoyl)-, methyl ester
##JCAMP-DX=4.24
##DATA TYPE=MASS SPECTRUM
##ORIGIN=Zaikin V.G., TIPS RAS, Moscow, Russia
##OWNER=NIST Mass Spectrometry Data Center
Collection (C) 2014 copyright by the U.S. Secretary of Commerce
on behalf of the United States of America. All rights reserved.
##$NIST MASS SPEC NO=299588
##MOLFORM=C13 H16 Cl N O3
##MW=269
##$NIST SOURCE=MSDC
##XUNITS=M/Z
##YUNITS=RELATIVE INTENSITY
##XFACTOR=1
##YFACTOR=1
##FIRSTX=27
##LASTX=269
##FIRSTY=70
##MAXX=269
##MINX=27
##MAXY=9999
##MINY=10
##NPOINTS=58
##PEAK TABLE=(XY..XY)
27,70 28,10 29,30 36,50
39,60 41,110 42,30 43,100
44,60 50,110 51,90 55,50
56,60 59,60 70,70 74,50
75,460 76,190 77,150 82,30
83,70 85,40 88,40 104,60
105,120 110,40 111,1331 112,140
113,450 114,80 115,50 130,40
132,90 138,50 139,9999 140,741
141,2933 142,240 155,30 156,1572
157,130 158,511 159,40 167,70
195,350 196,50 197,110 210,3644
211,450 212,1141 213,140 222,50
226,30 227,220 228,30 229,70
238,30 269,40
##END=
