##TITLE=2,6-Dimethyl-5-tripropylsilyloxynon-1-en-3-yne
##JCAMP-DX=4.24
##DATA TYPE=MASS SPECTRUM
##ORIGIN=Zaikin V.G., TIPS RAS, Moscow, Russia
##OWNER=NIST Mass Spectrometry Data Center
Collection (C) 2014 copyright by the U.S. Secretary of Commerce
on behalf of the United States of America. All rights reserved.
##$NIST MASS SPEC NO=299516
##MOLFORM=C20 H38 O Si
##MW=322
##$NIST SOURCE=MSDC
##XUNITS=M/Z
##YUNITS=RELATIVE INTENSITY
##XFACTOR=1
##YFACTOR=1
##FIRSTX=26
##LASTX=323
##FIRSTY=130
##MAXX=323
##MINX=26
##MAXY=9999
##MINY=20
##NPOINTS=149
##PEAK TABLE=(XY..XY)
26,130 27,260 28,50 29,130
37,30 38,60 39,330 40,120
41,621 42,250 43,440 44,80
45,821 46,50 47,571 50,30
51,60 52,40 53,100 55,190
57,50 58,90 59,821 60,110
61,1261 62,90 63,80 65,110
66,60 67,60 69,220 70,40
71,210 72,60 73,1111 74,150
75,90 76,30 77,400 78,120
79,260 80,50 81,50 83,120
84,60 85,100 87,501 88,60
89,1692 90,160 91,501 92,90
93,190 94,70 95,1351 96,180
97,210 98,50 99,80 101,30
103,120 104,40 105,240 106,110
107,140 108,60 109,1141 110,160
111,440 112,50 113,60 115,1411
116,170 117,100 119,120 121,150
122,40 123,200 124,310 125,340
126,90 127,60 129,140 131,1271
132,160 133,130 135,160 136,50
137,2132 138,360 139,150 141,30
143,40 147,100 148,70 149,270
150,30 151,220 152,60 153,370
154,60 155,30 157,511 158,70
159,20 163,30 165,300 166,230
167,9999 168,1461 169,440 170,40
171,541 172,80 173,20 177,50
179,971 180,180 181,120 193,140
194,50 195,250 196,60 209,671
210,120 211,30 213,991 214,180
215,50 223,30 235,110 236,30
237,4655 238,941 239,250 240,30
251,5234 252,1121 253,300 254,30
265,30 279,2713 280,1021 281,270
282,40 293,30 307,50 322,140
323,30
##END=
