##TITLE=6-Bromohexanoic acid, tridec-2-ynyl ester
##JCAMP-DX=4.24
##DATA TYPE=MASS SPECTRUM
##ORIGIN=Zaikin V.G., TIPS RAS, Moscow, Russia
##OWNER=NIST Mass Spectrometry Data Center
Collection (C) 2014 copyright by the U.S. Secretary of Commerce
on behalf of the United States of America. All rights reserved.
##$NIST MASS SPEC NO=299295
##MOLFORM=C19 H33 Br O2
##MW=372
##$NIST SOURCE=MSDC
##XUNITS=M/Z
##YUNITS=RELATIVE INTENSITY
##XFACTOR=1
##YFACTOR=1
##FIRSTX=26
##LASTX=265
##FIRSTY=160
##MAXX=265
##MINX=26
##MAXY=9999
##MINY=10
##NPOINTS=112
##PEAK TABLE=(XY..XY)
26,160 27,601 28,10 29,791
38,40 39,621 40,210 41,2613
42,470 43,1922 44,190 50,60
51,150 52,440 53,561 54,450
55,1752 56,390 57,521 58,80
59,50 60,160 65,270 66,350
67,1311 68,360 69,9999 70,941
71,651 72,70 73,150 77,501
78,180 79,1602 80,621 81,1211
82,601 83,531 84,330 85,160
86,50 91,561 92,110 93,951
94,551 95,1171 96,440 97,1351
98,220 99,150 100,140 105,140
106,40 107,581 108,280 109,521
110,200 111,3003 112,360 113,320
114,200 115,170 119,40 120,20
121,501 122,150 123,140 124,210
125,511 126,100 127,110 128,130
133,30 135,330 136,190 137,100
138,280 139,130 141,60 149,661
150,100 151,661 152,531 153,140
155,100 163,40 165,30 167,50
169,80 177,5595 178,551 179,5284
180,330 181,90 183,30 195,340
196,410 197,120 205,60 217,30
219,50 223,40 234,30 237,30
245,270 246,90 247,270 248,100
251,50 259,30 261,40 265,30
##END=
