##TITLE=Acetoxyacetic acid, 2-methyloct-5-yn-4-yl ester
##JCAMP-DX=4.24
##DATA TYPE=MASS SPECTRUM
##ORIGIN=Zaikin V.G., TIPS RAS, Moscow, Russia
##OWNER=NIST Mass Spectrometry Data Center
Collection (C) 2014 copyright by the U.S. Secretary of Commerce
on behalf of the United States of America. All rights reserved.
##$NIST MASS SPEC NO=299206
##MOLFORM=C13 H20 O4
##MW=240
##$NIST SOURCE=MSDC
##XUNITS=M/Z
##YUNITS=RELATIVE INTENSITY
##XFACTOR=1
##YFACTOR=1
##FIRSTX=26
##LASTX=240
##FIRSTY=120
##MAXX=240
##MINX=26
##MAXY=9999
##MINY=20
##NPOINTS=109
##PEAK TABLE=(XY..XY)
26,120 27,621 28,60 29,861
30,70 31,50 37,20 38,100
39,991 40,220 41,2472 42,791
43,9999 44,480 45,80 50,120
51,280 52,230 53,871 54,1031
55,2202 56,480 57,961 58,110
59,40 60,40 61,90 62,30
63,110 64,40 65,631 66,470
67,2072 68,851 69,1401 70,290
71,330 72,150 73,5024 74,220
75,40 77,1301 78,310 79,3744
80,971 81,5665 82,1251 83,951
84,190 85,270 86,80 91,1762
92,310 93,3694 94,711 95,1351
96,761 97,781 98,831 99,180
100,230 101,9809 102,440 103,100
105,490 106,80 107,4755 108,551
109,470 110,360 111,501 112,80
113,140 114,190 115,70 119,70
121,270 122,1552 123,1522 124,571
125,761 126,140 127,140 128,50
137,160 138,90 139,691 140,1742
141,350 142,40 151,60 152,240
153,30 155,50 165,120 167,200
168,280 169,120 170,270 171,20
180,30 181,60 183,30 184,40
197,5184 198,701 199,70 225,80
240,80
##END=
