##TITLE=(Phenylthio)acetic acid, hexyl ester
##JCAMP-DX=4.24
##DATA TYPE=MASS SPECTRUM
##ORIGIN=Zaikin V.G., TIPS RAS, Moscow, Russia
##OWNER=NIST Mass Spectrometry Data Center
Collection (C) 2014 copyright by the U.S. Secretary of Commerce
on behalf of the United States of America. All rights reserved.
##$NIST MASS SPEC NO=299844
##MOLFORM=C14 H20 O2 S
##MW=252
##$NIST SOURCE=MSDC
##XUNITS=M/Z
##YUNITS=RELATIVE INTENSITY
##XFACTOR=1
##YFACTOR=1
##FIRSTX=26
##LASTX=255
##FIRSTY=70
##MAXX=255
##MINX=26
##MAXY=9999
##MINY=30
##NPOINTS=63
##PEAK TABLE=(XY..XY)
26,70 27,290 28,160 29,420
39,340 40,40 41,921 42,410
43,3253 44,240 45,1582 46,80
47,70 50,100 51,350 52,40
53,50 54,30 55,541 56,270
57,541 58,30 63,50 65,470
66,130 67,40 69,310 71,40
74,30 76,40 77,651 78,300
79,290 82,40 83,170 84,100
85,110 91,200 94,40 97,40
105,40 108,140 109,1131 110,931
111,120 112,40 121,320 122,120
123,9999 124,1572 125,541 126,100
129,250 150,30 151,240 152,30
168,5755 169,651 170,310 252,6516
253,1081 254,390 255,50
##END=
