##TITLE=Pentafluorobenzoic acid, hex-4-yn-3-yl ester
##JCAMP-DX=4.24
##DATA TYPE=MASS SPECTRUM
##ORIGIN=Zaikin V.G., TIPS RAS, Moscow, Russia
##OWNER=NIST Mass Spectrometry Data Center
Collection (C) 2014 copyright by the U.S. Secretary of Commerce
on behalf of the United States of America. All rights reserved.
##$NIST MASS SPEC NO=299184
##MOLFORM=C13 H9 F5 O2
##MW=292
##$NIST SOURCE=MSDC
##XUNITS=M/Z
##YUNITS=RELATIVE INTENSITY
##XFACTOR=1
##YFACTOR=1
##FIRSTX=27
##LASTX=293
##FIRSTY=60
##MAXX=293
##MINX=27
##MAXY=9999
##MINY=10
##NPOINTS=59
##PEAK TABLE=(XY..XY)
27,60 28,10 29,30 39,170
40,100 41,240 43,120 44,180
50,50 51,90 52,90 53,320
54,30 55,50 57,40 63,30
65,140 66,80 67,100 69,130
77,280 78,60 79,1542 80,831
81,410 82,30 93,100 97,180
98,70 99,100 117,561 118,50
137,40 148,140 149,30 167,1421
168,370 176,30 187,30 195,9999
196,771 197,40 212,60 219,70
221,50 222,30 229,30 233,100
235,60 245,30 246,40 249,110
263,310 264,380 265,40 277,2312
278,300 292,501 293,70
##END=
