##TITLE=l-Cysteine, N,S-bis(m-toluoyl)-, methyl ester
##JCAMP-DX=4.24
##DATA TYPE=MASS SPECTRUM
##ORIGIN=Zaikin V.G., TIPS RAS, Moscow, Russia
##OWNER=NIST Mass Spectrometry Data Center
Collection (C) 2014 copyright by the U.S. Secretary of Commerce
on behalf of the United States of America. All rights reserved.
##$NIST MASS SPEC NO=299643
##MOLFORM=C20 H21 N O4 S
##MW=371
##$NIST SOURCE=MSDC
##XUNITS=M/Z
##YUNITS=RELATIVE INTENSITY
##XFACTOR=1
##YFACTOR=1
##FIRSTX=26
##LASTX=372
##FIRSTY=40
##MAXX=372
##MINX=26
##MAXY=9999
##MINY=10
##NPOINTS=136
##PEAK TABLE=(XY..XY)
26,40 27,40 29,30 31,10
36,50 38,30 39,150 40,40
41,90 42,20 43,60 44,170
45,40 46,10 50,50 51,70
52,20 53,10 55,70 56,10
57,60 58,10 59,50 60,10
61,10 62,30 63,120 64,30
65,611 66,30 67,30 69,50
70,10 71,30 73,60 74,20
75,30 76,10 77,60 78,20
79,30 81,50 82,10 83,40
85,20 86,10 87,20 89,210
90,190 91,2893 92,290 93,30
94,10 95,50 96,60 97,50
103,20 104,20 105,40 106,10
107,20 108,10 109,40 110,10
111,30 115,10 116,30 117,90
118,90 119,9999 120,931 121,70
122,10 123,30 125,20 130,10
131,10 132,10 133,60 134,10
135,100 136,100 137,20 144,20
146,10 147,20 148,10 149,20
150,10 151,10 160,150 161,40
162,20 163,20 165,20 166,10
175,20 176,130 177,40 178,10
179,20 187,60 188,20 189,10
191,60 192,20 193,40 194,10
206,30 210,10 218,10 219,210
220,310 221,50 234,10 235,10
236,150 237,20 238,10 249,10
251,10 252,911 253,140 254,1281
255,230 256,20 265,10 267,40
312,240 313,50 314,10 338,20
340,20 341,10 371,50 372,10
##END=
