##TITLE=2-Chlorobenzoic acid, tridec-2-ynyl ester
##JCAMP-DX=4.24
##DATA TYPE=MASS SPECTRUM
##ORIGIN=Zaikin V.G., TIPS RAS, Moscow, Russia
##OWNER=NIST Mass Spectrometry Data Center
Collection (C) 2014 copyright by the U.S. Secretary of Commerce
on behalf of the United States of America. All rights reserved.
##$NIST MASS SPEC NO=299306
##MOLFORM=C20 H27 Cl O2
##MW=334
##$NIST SOURCE=MSDC
##XUNITS=M/Z
##YUNITS=RELATIVE INTENSITY
##XFACTOR=1
##YFACTOR=1
##FIRSTX=27
##LASTX=195
##FIRSTY=70
##MAXX=195
##MINX=27
##MAXY=9999
##MINY=20
##NPOINTS=54
##PEAK TABLE=(XY..XY)
27,70 28,50 29,140 39,90
41,340 42,60 43,330 50,50
51,50 52,90 53,110 54,70
55,290 56,70 57,100 65,60
66,70 67,230 68,50 69,120
70,30 75,130 76,50 77,170
78,40 79,320 80,80 81,170
82,40 83,40 91,120 93,190
94,80 95,140 104,30 105,50
107,70 108,30 109,30 111,360
112,50 113,120 121,60 129,20
135,30 139,9999 140,641 141,2783
142,210 156,60 157,170 158,30
159,50 195,40
##END=
