##TITLE=trans-3-(Trifluoromethyl)cinnamic acid, pentadecyl ester
##JCAMP-DX=4.24
##DATA TYPE=MASS SPECTRUM
##ORIGIN=Zaikin V.G., TIPS RAS, Moscow, Russia
##OWNER=NIST Mass Spectrometry Data Center
Collection (C) 2014 copyright by the U.S. Secretary of Commerce
on behalf of the United States of America. All rights reserved.
##$NIST MASS SPEC NO=299877
##MOLFORM=C25 H37 F3 O2
##MW=426
##$NIST SOURCE=MSDC
##XUNITS=M/Z
##YUNITS=RELATIVE INTENSITY
##XFACTOR=1
##YFACTOR=1
##FIRSTX=26
##LASTX=427
##FIRSTY=160
##MAXX=427
##MINX=26
##MAXY=9999
##MINY=10
##NPOINTS=136
##PEAK TABLE=(XY..XY)
26,160 27,290 28,10 29,621
36,40 38,30 39,310 40,80
41,1792 42,551 43,2653 44,250
50,90 51,80 52,30 53,120
54,521 55,2973 56,1502 57,2503
58,110 63,30 66,70 67,781
68,1051 69,3073 70,1532 71,1331
72,70 73,40 74,50 75,110
76,60 77,70 79,80 80,50
81,561 82,1562 83,3373 84,1111
85,771 86,40 91,70 94,40
95,460 96,1111 97,2973 98,761
99,160 100,70 101,90 102,420
103,110 109,270 110,490 111,1542
112,480 113,110 119,80 120,100
121,40 122,30 123,210 124,340
125,691 126,310 127,140 129,30
131,100 133,60 137,150 138,220
139,270 140,170 141,40 145,240
146,80 147,420 148,40 149,30
151,2222 152,370 153,140 154,120
159,190 160,30 165,50 166,90
167,50 168,120 169,200 170,410
171,2432 172,1071 173,160 175,90
177,30 179,60 180,150 181,170
182,230 183,40 185,30 186,40
188,100 196,30 197,1261 198,390
199,8097 200,971 201,110 210,200
211,30 212,30 214,40 215,1732
216,8558 217,9999 218,1371 219,150
225,40 227,100 230,60 243,40
244,30 249,30 253,50 257,941
258,140 267,150 268,30 271,891
272,170 366,30 426,581 427,180
##END=
