##TITLE=p-Anisic acid, tridec-2-ynyl ester
##JCAMP-DX=4.24
##DATA TYPE=MASS SPECTRUM
##ORIGIN=Zaikin V.G., TIPS RAS, Moscow, Russia
##OWNER=NIST Mass Spectrometry Data Center
Collection (C) 2014 copyright by the U.S. Secretary of Commerce
on behalf of the United States of America. All rights reserved.
##$NIST MASS SPEC NO=299200
##MOLFORM=C21 H30 O3
##MW=330
##$NIST SOURCE=MSDC
##XUNITS=M/Z
##YUNITS=RELATIVE INTENSITY
##XFACTOR=1
##YFACTOR=1
##FIRSTX=27
##LASTX=203
##FIRSTY=80
##MAXX=203
##MINX=27
##MAXY=9999
##MINY=30
##NPOINTS=43
##PEAK TABLE=(XY..XY)
27,80 28,50 29,140 39,110
41,300 42,40 43,260 50,30
51,40 52,60 53,100 54,40
55,200 56,40 57,60 63,60
64,90 65,80 66,40 67,130
69,60 76,30 77,360 78,60
79,190 80,30 81,90 91,80
92,240 93,100 94,40 95,60
105,30 107,150 108,50 109,50
121,70 135,9999 136,721 137,60
152,270 153,130 203,50
##END=
