##TITLE=4-Cyanobenzoic acid, decyl ester
##JCAMP-DX=4.24
##DATA TYPE=MASS SPECTRUM
##ORIGIN=Zaikin V.G., TIPS RAS, Moscow, Russia
##OWNER=NIST Mass Spectrometry Data Center
Collection (C) 2014 copyright by the U.S. Secretary of Commerce
on behalf of the United States of America. All rights reserved.
##$NIST MASS SPEC NO=299834
##MOLFORM=C18 H25 N O2
##MW=287
##$NIST SOURCE=MSDC
##XUNITS=M/Z
##YUNITS=RELATIVE INTENSITY
##XFACTOR=1
##YFACTOR=1
##FIRSTX=26
##LASTX=287
##FIRSTY=140
##MAXX=287
##MINX=26
##MAXY=9999
##MINY=20
##NPOINTS=92
##PEAK TABLE=(XY..XY)
26,140 27,601 28,20 29,1271
37,30 38,50 39,591 40,130
41,3113 42,1181 43,2953 44,230
50,270 51,490 52,120 53,230
54,641 55,3924 56,3834 57,2012
58,80 63,40 65,60 66,40
67,691 68,1201 69,3333 70,4324
71,741 72,30 74,100 75,771
76,611 77,130 79,70 81,250
82,1241 83,3493 84,2412 85,450
91,20 95,90 96,460 97,2462
98,1341 99,150 100,30 101,170
102,5414 103,1161 104,300 105,40
109,30 110,180 111,1371 112,1842
113,140 117,40 119,30 125,30
129,50 130,9999 131,1311 132,110
138,30 140,1862 141,200 145,120
146,30 147,420 148,5745 149,1281
150,120 157,30 158,50 161,100
174,40 175,30 185,60 188,200
189,360 190,50 202,591 203,300
204,40 216,150 217,90 230,70
231,30 244,100 258,70 287,50
##END=
