##TITLE=l-Valine, N-(4-bromobenzoyl)-, methyl ester
##JCAMP-DX=4.24
##DATA TYPE=MASS SPECTRUM
##ORIGIN=Zaikin V.G., TIPS RAS, Moscow, Russia
##OWNER=NIST Mass Spectrometry Data Center
Collection (C) 2014 copyright by the U.S. Secretary of Commerce
on behalf of the United States of America. All rights reserved.
##$NIST MASS SPEC NO=299614
##MOLFORM=C13 H16 Br N O3
##MW=313
##$NIST SOURCE=MSDC
##XUNITS=M/Z
##YUNITS=RELATIVE INTENSITY
##XFACTOR=1
##YFACTOR=1
##FIRSTX=26
##LASTX=315
##FIRSTY=30
##MAXX=315
##MINX=26
##MAXY=9999
##MINY=10
##NPOINTS=79
##PEAK TABLE=(XY..XY)
26,30 27,90 28,10 29,70
39,90 41,150 42,50 43,130
44,130 50,300 51,100 55,70
56,110 59,70 69,30 70,90
74,130 75,641 76,921 77,200
79,30 80,70 81,20 82,130
83,120 88,50 102,30 103,110
104,581 105,150 107,40 114,260
115,180 130,90 132,80 147,70
154,30 155,1632 156,170 157,1622
158,130 175,40 182,50 183,9999
184,841 185,9689 186,781 187,50
199,340 200,2012 201,511 202,2012
203,160 211,70 212,30 213,60
226,30 228,30 239,380 240,70
241,360 242,50 253,60 254,3463
255,501 256,3413 257,430 258,30
266,50 268,60 270,40 271,250
272,60 273,240 282,40 284,30
298,30 313,130 315,130
##END=
