##TITLE=l-Alanine, N-(2-chlorobenzoyl)-, methyl ester
##JCAMP-DX=4.24
##DATA TYPE=MASS SPECTRUM
##ORIGIN=Zaikin V.G., TIPS RAS, Moscow, Russia
##OWNER=NIST Mass Spectrometry Data Center
Collection (C) 2014 copyright by the U.S. Secretary of Commerce
on behalf of the United States of America. All rights reserved.
##$NIST MASS SPEC NO=299586
##MOLFORM=C11 H12 Cl N O3
##MW=241
##$NIST SOURCE=MSDC
##XUNITS=M/Z
##YUNITS=RELATIVE INTENSITY
##XFACTOR=1
##YFACTOR=1
##FIRSTX=27
##LASTX=243
##FIRSTY=30
##MAXX=243
##MINX=27
##MAXY=9999
##MINY=20
##NPOINTS=39
##PEAK TABLE=(XY..XY)
27,30 28,20 32,20 36,50
42,170 43,40 44,70 50,170
51,130 59,70 70,30 74,90
75,661 76,220 77,140 85,70
91,30 102,110 104,60 105,80
110,50 111,1421 112,150 113,460
114,40 132,40 138,40 139,9999
140,701 141,2903 142,230 146,70
182,4545 183,450 184,1401 185,140
210,40 241,130 243,40
##END=
