##TITLE=4-Cyanobenzoic acid, hexadecyl ester
##JCAMP-DX=4.24
##DATA TYPE=MASS SPECTRUM
##ORIGIN=Zaikin V.G., TIPS RAS, Moscow, Russia
##OWNER=NIST Mass Spectrometry Data Center
Collection (C) 2014 copyright by the U.S. Secretary of Commerce
on behalf of the United States of America. All rights reserved.
##$NIST MASS SPEC NO=299840
##MOLFORM=C24 H37 N O2
##MW=371
##$NIST SOURCE=MSDC
##XUNITS=M/Z
##YUNITS=RELATIVE INTENSITY
##XFACTOR=1
##YFACTOR=1
##FIRSTX=25
##LASTX=372
##FIRSTY=60
##MAXX=372
##MINX=25
##MAXY=9999
##MINY=20
##NPOINTS=201
##PEAK TABLE=(XY..XY)
25,60 26,340 27,1001 28,871
29,2172 37,50 38,100 39,991
40,230 41,5935 42,1762 43,8427
44,531 45,60 49,40 50,370
51,521 52,160 53,360 54,1341
55,8087 56,4064 57,6766 58,290
61,30 62,20 63,60 65,110
66,130 67,1782 68,2022 69,6616
70,3784 71,2873 72,120 73,70
74,110 75,661 76,641 77,220
78,70 79,230 80,90 81,1131
82,2563 83,6646 84,2472 85,1552
86,60 91,110 93,80 94,60
95,711 96,1071 97,5334 98,1532
99,330 101,130 102,4695 103,1291
104,380 105,110 106,30 107,60
108,50 109,330 110,490 111,2663
112,1021 113,180 116,30 117,100
118,30 119,100 120,50 121,40
122,60 123,160 124,290 125,1151
126,611 127,100 128,30 129,90
130,9999 131,1642 132,220 133,80
134,20 135,50 136,30 137,90
138,160 139,410 140,370 141,80
143,30 144,200 145,280 146,110
147,571 148,7406 149,1662 150,561
151,140 152,90 153,190 154,230
155,50 158,130 159,380 160,70
161,70 164,80 165,20 166,60
167,120 168,180 169,30 171,30
172,100 173,110 174,60 175,120
176,651 177,130 178,150 179,40
180,30 181,40 182,60 183,40
185,30 186,40 187,130 188,220
189,320 190,100 191,50 192,30
195,50 196,400 197,110 199,30
200,40 201,90 202,511 203,290
204,80 205,50 215,80 216,200
217,140 218,70 219,40 222,40
224,390 225,70 229,40 230,90
231,40 232,60 243,50 244,110
245,50 246,30 257,50 258,140
259,70 260,30 270,40 271,50
272,170 273,130 274,40 282,30
283,40 284,70 285,40 286,180
287,380 288,80 298,40 300,380
301,641 302,140 314,701 315,891
316,190 326,40 328,1081 329,861
330,210 342,921 343,571 344,90
356,180 357,50 370,250 371,731
372,160
##END=
