##TITLE=l-Proline, N-(m-toluoyl)-, methyl ester
##JCAMP-DX=4.24
##DATA TYPE=MASS SPECTRUM
##ORIGIN=Zaikin V.G., TIPS RAS, Moscow, Russia
##OWNER=NIST Mass Spectrometry Data Center
Collection (C) 2014 copyright by the U.S. Secretary of Commerce
on behalf of the United States of America. All rights reserved.
##$NIST MASS SPEC NO=299640
##MOLFORM=C14 H17 N O3
##MW=247
##$NIST SOURCE=MSDC
##XUNITS=M/Z
##YUNITS=RELATIVE INTENSITY
##XFACTOR=1
##YFACTOR=1
##FIRSTX=26
##LASTX=248
##FIRSTY=20
##MAXX=248
##MINX=26
##MAXY=9999
##MINY=10
##NPOINTS=57
##PEAK TABLE=(XY..XY)
26,20 27,30 29,10 38,10
39,150 40,30 41,210 42,70
43,10 44,70 45,10 50,30
51,60 52,10 53,10 55,10
59,30 62,20 63,100 64,30
65,601 66,30 67,10 68,80
69,50 70,60 75,10 76,10
77,20 89,190 90,180 91,2142
92,180 94,50 96,10 105,10
116,10 117,30 118,80 119,9999
120,711 121,40 128,100 131,10
136,10 146,10 159,10 160,20
161,20 187,20 188,2102 189,270
190,10 215,10 216,10 247,210
248,30
##END=
