##TITLE=l-Valine, N-(p-toluoyl)-, methyl ester
##JCAMP-DX=4.24
##DATA TYPE=MASS SPECTRUM
##ORIGIN=Zaikin V.G., TIPS RAS, Moscow, Russia
##OWNER=NIST Mass Spectrometry Data Center
Collection (C) 2014 copyright by the U.S. Secretary of Commerce
on behalf of the United States of America. All rights reserved.
##$NIST MASS SPEC NO=299647
##MOLFORM=C14 H19 N O3
##MW=249
##$NIST SOURCE=MSDC
##XUNITS=M/Z
##YUNITS=RELATIVE INTENSITY
##XFACTOR=1
##YFACTOR=1
##FIRSTX=26
##LASTX=250
##FIRSTY=10
##MAXX=250
##MINX=26
##MAXY=9999
##MINY=10
##NPOINTS=67
##PEAK TABLE=(XY..XY)
26,10 27,40 29,30 31,10
38,10 39,100 40,10 41,90
42,20 43,50 44,30 50,20
51,40 52,10 53,10 54,10
55,30 56,30 59,30 62,10
63,70 64,20 65,420 66,20
69,10 70,30 76,10 77,10
83,20 88,10 89,150 90,160
91,1582 92,140 93,20 105,10
114,10 115,30 116,10 117,20
118,100 119,9999 120,761 121,50
130,30 134,10 135,400 136,1191
137,110 146,20 147,70 148,10
174,50 175,200 176,30 189,30
190,1301 191,170 192,10 202,40
206,10 207,300 217,10 218,30
234,20 249,140 250,20
##END=
