##TITLE=1-Diphenylmethylsilyloxyundec-2-ene
##JCAMP-DX=4.24
##DATA TYPE=MASS SPECTRUM
##ORIGIN=Zaikin V.G., TIPS RAS, Moscow, Russia
##OWNER=NIST Mass Spectrometry Data Center
Collection (C) 2014 copyright by the U.S. Secretary of Commerce
on behalf of the United States of America. All rights reserved.
##$NIST MASS SPEC NO=299488
##MOLFORM=C24 H34 O Si
##MW=366
##$NIST SOURCE=MSDC
##XUNITS=M/Z
##YUNITS=RELATIVE INTENSITY
##XFACTOR=1
##YFACTOR=1
##FIRSTX=26
##LASTX=368
##FIRSTY=80
##MAXX=368
##MINX=26
##MAXY=9999
##MINY=20
##NPOINTS=191
##PEAK TABLE=(XY..XY)
26,80 27,130 28,70 29,190
39,160 40,30 41,480 42,90
43,380 44,30 45,200 50,60
51,70 52,50 53,110 54,150
55,350 56,80 57,140 59,30
61,50 65,40 66,30 67,230
68,110 69,150 70,40 76,30
77,380 78,280 79,90 80,40
81,170 82,160 83,70 91,340
92,60 93,110 94,30 95,170
96,110 97,40 98,30 99,60
103,30 104,220 105,460 106,50
107,50 109,70 110,50 111,50
112,40 113,40 115,100 116,30
117,410 118,130 119,260 120,160
121,470 122,80 123,260 124,70
125,60 127,40 128,50 129,110
130,120 131,80 132,30 135,220
136,40 137,4845 138,631 139,230
140,40 141,30 143,110 144,40
145,130 146,30 147,110 148,30
149,470 150,771 151,400 152,200
153,80 154,90 155,90 157,40
159,70 160,60 161,300 162,220
163,430 164,70 165,220 166,40
167,100 168,40 169,40 171,60
173,100 174,130 175,1481 176,350
177,240 178,50 179,30 180,120
181,591 182,130 183,641 184,120
185,50 187,40 189,410 190,130
191,100 193,90 195,551 196,140
197,9999 198,1832 199,6986 200,1241
201,350 202,40 203,150 204,70
205,30 210,210 211,110 212,30
213,120 214,110 215,70 216,40
217,110 218,60 221,40 223,210
224,140 225,340 226,140 227,170
228,120 229,40 230,40 231,110
232,30 235,30 237,90 238,30
239,160 240,120 241,30 245,80
247,100 251,40 253,2152 254,561
255,140 256,30 267,501 268,120
269,30 273,561 274,130 275,210
276,50 288,1211 289,350 290,80
295,40 309,170 310,40 321,50
323,160 324,40 336,40 337,20
351,1572 352,470 353,120 365,50
366,1522 367,460 368,120
##END=
