##TITLE=Glycine, N-(2-thienylcarbonyl)-, methyl ester
##JCAMP-DX=4.24
##DATA TYPE=MASS SPECTRUM
##ORIGIN=Zaikin V.G., TIPS RAS, Moscow, Russia
##OWNER=NIST Mass Spectrometry Data Center
Collection (C) 2014 copyright by the U.S. Secretary of Commerce
on behalf of the United States of America. All rights reserved.
##$NIST MASS SPEC NO=299602
##MOLFORM=C8 H9 N O3 S
##MW=199
##$NIST SOURCE=MSDC
##XUNITS=M/Z
##YUNITS=RELATIVE INTENSITY
##XFACTOR=1
##YFACTOR=1
##FIRSTX=28
##LASTX=201
##FIRSTY=10
##MAXX=201
##MINX=28
##MAXY=9999
##MINY=10
##NPOINTS=30
##PEAK TABLE=(XY..XY)
28,10 29,30 38,50 39,921
40,30 44,70 45,120 50,30
53,50 56,100 57,180 58,80
59,60 81,60 82,120 83,470
84,100 85,30 110,30 111,9999
112,541 113,390 140,1932 141,140
142,90 167,410 168,90 199,911
200,80 201,40
##END=
