##TITLE=Cyclopropanecarboxylic acid, 3-methylbut-2-enyl ester
##JCAMP-DX=4.24
##DATA TYPE=MASS SPECTRUM
##ORIGIN=Zaikin V.G., TIPS RAS, Moscow, Russia
##OWNER=NIST Mass Spectrometry Data Center
Collection (C) 2014 copyright by the U.S. Secretary of Commerce
on behalf of the United States of America. All rights reserved.
##$NIST MASS SPEC NO=299374
##MOLFORM=C9 H14 O2
##MW=154
##$NIST SOURCE=MSDC
##XUNITS=M/Z
##YUNITS=RELATIVE INTENSITY
##XFACTOR=1
##YFACTOR=1
##FIRSTX=26
##LASTX=154
##FIRSTY=90
##MAXX=154
##MINX=26
##MAXY=9999
##MINY=20
##NPOINTS=43
##PEAK TABLE=(XY..XY)
26,90 27,450 28,20 29,330
37,30 38,90 39,1311 40,440
41,3984 42,310 43,130 44,150
45,60 50,50 51,90 52,60
53,891 54,100 55,180 56,40
57,70 65,70 66,70 67,2583
68,4885 69,9999 70,440 71,50
79,30 81,60 82,370 83,80
84,50 85,621 86,30 87,180
95,260 96,60 109,30 111,30
112,40 137,30 154,160
##END=
