##TITLE=Hexanoic acid, 2-methyloct-5-yn-4-yl ester
##JCAMP-DX=4.24
##DATA TYPE=MASS SPECTRUM
##ORIGIN=Zaikin V.G., TIPS RAS, Moscow, Russia
##OWNER=NIST Mass Spectrometry Data Center
Collection (C) 2014 copyright by the U.S. Secretary of Commerce
on behalf of the United States of America. All rights reserved.
##$NIST MASS SPEC NO=299356
##MOLFORM=C15 H26 O2
##MW=238
##$NIST SOURCE=MSDC
##XUNITS=M/Z
##YUNITS=RELATIVE INTENSITY
##XFACTOR=1
##YFACTOR=1
##FIRSTX=26
##LASTX=239
##FIRSTY=180
##MAXX=239
##MINX=26
##MAXY=9999
##MINY=30
##NPOINTS=103
##PEAK TABLE=(XY..XY)
26,180 27,951 28,480 29,1211
30,30 37,40 38,80 39,991
40,250 41,2743 42,601 43,6596
44,410 45,60 50,100 51,230
52,190 53,711 54,160 55,1902
56,370 57,581 58,40 59,30
60,370 61,40 63,80 64,30
65,480 66,400 67,981 68,380
69,1421 70,360 71,4545 72,320
73,230 74,40 77,1161 78,320
79,3644 80,1181 81,2953 82,310
83,801 84,140 85,320 87,70
89,30 91,1632 92,310 93,5044
94,871 95,591 96,120 97,1241
98,2092 99,9999 100,681 101,60
103,30 105,490 106,80 107,7356
108,751 109,160 110,40 111,1201
112,240 115,70 117,220 121,340
122,1381 123,791 124,170 125,1652
126,180 135,30 138,100 139,811
140,4224 141,701 142,50 149,50
151,40 153,300 154,50 155,40
167,1161 168,260 169,30 181,470
182,300 183,60 195,6606 196,1181
197,110 209,200 210,40 223,501
224,70 238,420 239,70
##END=
