##TITLE=1-Bromo-3-fluoro-6-dimethyl(dodecyl)silyloxybenzene
##JCAMP-DX=4.24
##DATA TYPE=MASS SPECTRUM
##ORIGIN=Zaikin V.G., TIPS RAS, Moscow, Russia
##OWNER=NIST Mass Spectrometry Data Center
Collection (C) 2014 copyright by the U.S. Secretary of Commerce
on behalf of the United States of America. All rights reserved.
##$NIST MASS SPEC NO=299089
##MOLFORM=C20 H34 Br F O Si
##MW=416
##$NIST SOURCE=MSDC
##XUNITS=M/Z
##YUNITS=RELATIVE INTENSITY
##XFACTOR=1
##YFACTOR=1
##FIRSTX=27
##LASTX=419
##FIRSTY=40
##MAXX=419
##MINX=27
##MAXY=9999
##MINY=30
##NPOINTS=68
##PEAK TABLE=(XY..XY)
27,40 28,40 29,100 39,40
41,190 42,40 43,260 55,90
56,40 57,80 58,30 59,460
60,30 63,30 69,30 73,40
75,30 77,60 79,30 83,30
85,70 87,30 91,50 95,30
97,30 99,90 107,30 109,350
110,30 113,30 123,70 125,70
137,801 138,70 139,891 140,60
141,50 151,40 153,350 154,60
155,80 165,50 166,60 167,611
168,120 169,470 170,60 179,30
181,60 217,40 219,50 233,450
234,60 235,450 236,50 247,9909
248,1171 249,9999 250,1141 251,360
401,280 402,70 403,280 404,60
416,390 417,90 418,400 419,100
##END=
