##TITLE=3-Fluorobenzoic acid, 3,5-difluorophenyl ester
##JCAMP-DX=4.24
##DATA TYPE=MASS SPECTRUM
##ORIGIN=Zaikin V.G., TIPS RAS, Moscow, Russia
##OWNER=NIST Mass Spectrometry Data Center
Collection (C) 2014 copyright by the U.S. Secretary of Commerce
on behalf of the United States of America. All rights reserved.
##$NIST MASS SPEC NO=299054
##MOLFORM=C13 H7 F3 O2
##MW=252
##$NIST SOURCE=MSDC
##XUNITS=M/Z
##YUNITS=RELATIVE INTENSITY
##XFACTOR=1
##YFACTOR=1
##FIRSTX=28
##LASTX=252
##FIRSTY=10
##MAXX=252
##MINX=28
##MAXY=9999
##MINY=10
##NPOINTS=30
##PEAK TABLE=(XY..XY)
28,10 31,30 50,170 51,180
57,110 62,40 63,120 68,100
69,180 74,140 75,1051 76,100
81,90 82,70 93,50 94,220
95,4094 96,280 101,410 102,100
113,40 122,40 123,9999 124,681
125,40 129,60 130,230 175,30
195,30 252,180
##END=
