##TITLE=2-Bromobenzoic acid, 2-isopropoxyphenyl ester
##JCAMP-DX=4.24
##DATA TYPE=MASS SPECTRUM
##ORIGIN=Zaikin V.G., TIPS RAS, Moscow, Russia
##OWNER=NIST Mass Spectrometry Data Center
Collection (C) 2014 copyright by the U.S. Secretary of Commerce
on behalf of the United States of America. All rights reserved.
##$NIST MASS SPEC NO=299019
##MOLFORM=C16 H15 Br O3
##MW=334
##$NIST SOURCE=MSDC
##XUNITS=M/Z
##YUNITS=RELATIVE INTENSITY
##XFACTOR=1
##YFACTOR=1
##FIRSTX=26
##LASTX=337
##FIRSTY=50
##MAXX=337
##MINX=26
##MAXY=9999
##MINY=20
##NPOINTS=55
##PEAK TABLE=(XY..XY)
26,50 27,150 28,20 38,30
39,140 41,220 42,50 43,200
44,50 50,260 51,140 52,280
53,100 63,60 64,60 65,90
74,80 75,420 76,651 77,180
79,30 80,240 81,430 82,100
92,30 93,50 104,270 105,120
109,300 110,320 111,90 121,100
128,50 135,50 136,40 139,40
152,30 155,1121 156,120 157,1051
158,90 168,40 183,9999 184,751
185,9649 186,701 187,40 212,30
263,30 292,160 294,150 334,561
335,100 336,561 337,100
##END=
