##TITLE=p-Toluic acid, 4-tridecyl ester
##JCAMP-DX=4.24
##DATA TYPE=MASS SPECTRUM
##ORIGIN=Zaikin V.G., TIPS RAS, Moscow, Russia
##OWNER=NIST Mass Spectrometry Data Center
Collection (C) 2014 copyright by the U.S. Secretary of Commerce
on behalf of the United States of America. All rights reserved.
##$NIST MASS SPEC NO=299804
##MOLFORM=C21 H34 O2
##MW=318
##$NIST SOURCE=MSDC
##XUNITS=M/Z
##YUNITS=RELATIVE INTENSITY
##XFACTOR=1
##YFACTOR=1
##FIRSTX=26
##LASTX=199
##FIRSTY=50
##MAXX=199
##MINX=26
##MAXY=9999
##MINY=30
##NPOINTS=68
##PEAK TABLE=(XY..XY)
26,50 27,150 28,110 29,270
39,190 40,30 41,731 42,180
43,731 44,70 50,30 51,40
53,50 54,110 55,811 56,480
57,571 58,30 63,60 65,420
66,30 67,170 68,140 69,741
70,621 71,310 77,70 79,40
81,120 82,230 83,661 84,450
85,160 89,130 90,150 91,1982
92,220 93,220 95,50 96,160
97,621 98,300 99,50 105,40
107,50 110,120 111,410 112,220
118,60 119,9999 120,881 121,60
124,50 125,240 126,120 134,50
135,60 136,591 137,4995 138,460
139,120 140,80 153,40 154,140
182,1141 183,150 191,30 199,200
##END=
