##TITLE=2-Diisopropylsilyloxyoct-3-ene
##JCAMP-DX=4.24
##DATA TYPE=MASS SPECTRUM
##ORIGIN=Zaikin V.G., TIPS RAS, Moscow, Russia
##OWNER=NIST Mass Spectrometry Data Center
Collection (C) 2014 copyright by the U.S. Secretary of Commerce
on behalf of the United States of America. All rights reserved.
##$NIST MASS SPEC NO=299581
##MOLFORM=C14 H30 O Si
##MW=242
##$NIST SOURCE=MSDC
##XUNITS=M/Z
##YUNITS=RELATIVE INTENSITY
##XFACTOR=1
##YFACTOR=1
##FIRSTX=26
##LASTX=243
##FIRSTY=40
##MAXX=243
##MINX=26
##MAXY=9999
##MINY=30
##NPOINTS=121
##PEAK TABLE=(XY..XY)
26,40 27,200 28,50 29,140
38,30 39,350 40,120 41,1011
42,180 43,490 44,60 45,1331
46,60 47,330 51,40 52,30
53,270 54,130 55,1632 56,120
57,70 58,30 59,1201 60,200
61,9579 62,641 63,390 65,90
66,60 67,711 68,430 69,1411
70,110 71,180 72,80 73,611
74,80 75,1491 76,110 77,160
79,190 80,30 81,420 82,60
83,70 85,360 86,60 87,671
88,200 89,4154 90,370 91,190
93,40 95,140 97,150 98,30
99,621 100,120 101,1271 102,130
103,1451 104,130 105,70 109,2392
110,350 111,410 112,70 113,811
114,250 115,1351 116,170 117,440
118,40 123,30 125,250 126,30
127,390 128,70 129,2272 130,561
131,1652 132,200 133,50 137,50
139,380 140,40 141,340 142,60
143,1822 144,260 145,90 153,260
154,40 155,591 156,110 157,1782
158,250 159,140 169,60 171,1241
172,490 173,90 181,270 182,30
183,80 185,2042 186,370 187,90
197,180 198,30 199,9999 200,1722
201,480 202,40 213,30 227,771
228,140 229,30 241,50 242,400
243,80
##END=
