##TITLE=1-Diisopropylsilyloxypent-2-en-4-yne
##JCAMP-DX=4.24
##DATA TYPE=MASS SPECTRUM
##ORIGIN=Zaikin V.G., TIPS RAS, Moscow, Russia
##OWNER=NIST Mass Spectrometry Data Center
Collection (C) 2014 copyright by the U.S. Secretary of Commerce
on behalf of the United States of America. All rights reserved.
##$NIST MASS SPEC NO=299579
##MOLFORM=C11 H20 O Si
##MW=196
##$NIST SOURCE=MSDC
##XUNITS=M/Z
##YUNITS=RELATIVE INTENSITY
##XFACTOR=1
##YFACTOR=1
##FIRSTX=26
##LASTX=197
##FIRSTY=130
##MAXX=197
##MINX=26
##MAXY=9999
##MINY=30
##NPOINTS=103
##PEAK TABLE=(XY..XY)
26,130 27,350 29,90 31,30
37,50 38,150 39,1852 40,270
41,931 42,300 43,891 44,140
45,1582 46,120 47,360 49,30
50,60 51,80 52,60 53,230
54,160 55,551 56,100 57,160
58,40 59,1151 60,150 61,2152
62,240 63,360 64,110 65,3924
66,791 67,931 68,140 69,1912
70,190 71,591 72,100 73,470
74,60 75,490 76,30 77,180
78,70 79,250 80,60 81,921
82,190 83,771 84,240 85,1522
86,140 87,541 88,50 89,80
91,290 92,40 93,310 94,30
95,2643 96,330 97,1742 98,260
99,5134 100,511 101,280 103,30
105,50 107,210 108,50 109,921
110,440 111,9999 112,1171 113,631
114,50 115,40 121,40 122,30
123,991 124,270 125,5695 126,761
127,1421 128,170 129,90 133,80
135,190 137,290 138,30 139,130
149,30 151,180 152,50 153,8708
154,1612 155,430 156,40 157,80
166,40 196,631 197,100
##END=
