##TITLE=(Phenylthio)acetic acid, pentadecyl ester
##JCAMP-DX=4.24
##DATA TYPE=MASS SPECTRUM
##ORIGIN=Zaikin V.G., TIPS RAS, Moscow, Russia
##OWNER=NIST Mass Spectrometry Data Center
Collection (C) 2014 copyright by the U.S. Secretary of Commerce
on behalf of the United States of America. All rights reserved.
##$NIST MASS SPEC NO=299852
##MOLFORM=C23 H38 O2 S
##MW=378
##$NIST SOURCE=MSDC
##XUNITS=M/Z
##YUNITS=RELATIVE INTENSITY
##XFACTOR=1
##YFACTOR=1
##FIRSTX=26
##LASTX=381
##FIRSTY=90
##MAXX=381
##MINX=26
##MAXY=9999
##MINY=20
##NPOINTS=77
##PEAK TABLE=(XY..XY)
26,90 27,210 28,180 29,460
38,30 39,300 40,50 41,1421
42,350 43,2513 44,210 45,841
46,40 47,40 50,70 51,180
52,30 53,80 54,180 55,2002
56,621 57,2302 58,100 61,30
63,30 65,300 66,150 67,310
68,260 69,1512 70,470 71,1101
72,60 76,30 77,320 78,200
79,180 81,200 82,300 83,941
84,330 85,581 86,40 91,120
94,40 95,130 96,130 97,611
98,140 99,50 105,40 108,90
109,941 110,1041 111,420 112,130
113,20 121,230 122,110 123,8477
124,1842 125,531 126,160 150,60
151,641 152,100 153,30 168,9719
169,1241 170,541 171,50 255,320
256,50 378,9999 379,2583 380,801
381,140
##END=
