##TITLE=3-Chloropropionic acid, 3-methylbut-2-enyl ester
##JCAMP-DX=4.24
##DATA TYPE=MASS SPECTRUM
##ORIGIN=Zaikin V.G., TIPS RAS, Moscow, Russia
##OWNER=NIST Mass Spectrometry Data Center
Collection (C) 2014 copyright by the U.S. Secretary of Commerce
on behalf of the United States of America. All rights reserved.
##$NIST MASS SPEC NO=299213
##MOLFORM=C8 H13 Cl O2
##MW=176
##$NIST SOURCE=MSDC
##XUNITS=M/Z
##YUNITS=RELATIVE INTENSITY
##XFACTOR=1
##YFACTOR=1
##FIRSTX=26
##LASTX=176
##FIRSTY=240
##MAXX=176
##MINX=26
##MAXY=9999
##MINY=30
##NPOINTS=62
##PEAK TABLE=(XY..XY)
26,240 27,1672 28,40 29,721
31,30 38,220 39,1191 40,681
41,4074 42,460 43,360 44,300
45,70 49,80 50,100 51,190
52,170 53,1892 54,200 55,1111
56,200 57,711 58,40 61,50
62,80 63,3203 64,90 65,1091
66,140 67,5184 68,9999 69,4084
70,230 71,1401 72,90 73,180
75,150 77,70 79,110 83,210
84,100 85,1041 86,1532 87,80
91,4264 92,140 93,1361 94,40
95,30 96,60 97,30 98,40
103,190 105,70 109,40 111,70
125,30 133,50 134,70 147,160
149,50 176,60
##END=
