##TITLE=l-Proline, N-(5-chlorovaleryl)-, methyl ester
##JCAMP-DX=4.24
##DATA TYPE=MASS SPECTRUM
##ORIGIN=Zaikin V.G., TIPS RAS, Moscow, Russia
##OWNER=NIST Mass Spectrometry Data Center
Collection (C) 2014 copyright by the U.S. Secretary of Commerce
on behalf of the United States of America. All rights reserved.
##$NIST MASS SPEC NO=299717
##MOLFORM=C11 H18 Cl N O3
##MW=247
##$NIST SOURCE=MSDC
##XUNITS=M/Z
##YUNITS=RELATIVE INTENSITY
##XFACTOR=1
##YFACTOR=1
##FIRSTX=26
##LASTX=247
##FIRSTY=30
##MAXX=247
##MINX=26
##MAXY=9999
##MINY=30
##NPOINTS=40
##PEAK TABLE=(XY..XY)
26,30 27,150 28,50 29,140
36,50 39,110 40,30 41,310
42,150 43,120 44,60 53,70
54,30 55,611 56,60 59,60
63,40 68,250 69,150 70,9999
71,420 82,30 83,50 91,230
93,70 96,30 112,40 119,120
121,40 124,30 128,250 130,120
152,60 188,1822 189,190 190,581
191,60 212,521 213,60 247,70
##END=
