##TITLE=4-Fluorobenzoic acid, 2-isopropoxyphenyl ester
##JCAMP-DX=4.24
##DATA TYPE=MASS SPECTRUM
##ORIGIN=Zaikin V.G., TIPS RAS, Moscow, Russia
##OWNER=NIST Mass Spectrometry Data Center
Collection (C) 2014 copyright by the U.S. Secretary of Commerce
on behalf of the United States of America. All rights reserved.
##$NIST MASS SPEC NO=299052
##MOLFORM=C16 H15 F O3
##MW=274
##$NIST SOURCE=MSDC
##XUNITS=M/Z
##YUNITS=RELATIVE INTENSITY
##XFACTOR=1
##YFACTOR=1
##FIRSTX=27
##LASTX=275
##FIRSTY=50
##MAXX=275
##MINX=27
##MAXY=9999
##MINY=20
##NPOINTS=29
##PEAK TABLE=(XY..XY)
27,50 28,20 39,60 41,100
43,90 50,40 51,50 52,90
53,40 63,30 64,30 69,20
75,200 80,60 81,150 94,70
95,1301 96,120 105,40 109,130
110,130 121,50 122,30 123,9999
124,601 125,30 232,180 274,320
275,50
##END=
