##TITLE=Butanoic acid, 2,7-dimethyloct-7-en-5-yn-4-yl ester
##JCAMP-DX=4.24
##DATA TYPE=MASS SPECTRUM
##ORIGIN=Zaikin V.G., TIPS RAS, Moscow, Russia
##OWNER=NIST Mass Spectrometry Data Center
Collection (C) 2014 copyright by the U.S. Secretary of Commerce
on behalf of the United States of America. All rights reserved.
##$NIST MASS SPEC NO=299123
##MOLFORM=C14 H22 O2
##MW=222
##$NIST SOURCE=MSDC
##XUNITS=M/Z
##YUNITS=RELATIVE INTENSITY
##XFACTOR=1
##YFACTOR=1
##FIRSTX=26
##LASTX=223
##FIRSTY=150
##MAXX=223
##MINX=26
##MAXY=9999
##MINY=30
##NPOINTS=92
##PEAK TABLE=(XY..XY)
26,150 27,1081 28,160 29,410
37,40 38,90 39,1051 40,270
41,2723 42,300 43,7767 44,440
45,90 50,180 51,511 52,260
53,501 54,40 55,801 56,100
57,350 60,230 62,60 63,270
64,150 65,771 66,330 67,801
68,240 69,561 70,220 71,9008
72,380 73,90 74,40 75,50
76,60 77,1692 78,430 79,1391
80,230 81,1772 82,200 83,180
84,90 85,90 89,140 90,90
91,3724 92,1321 93,1612 94,310
95,2252 96,651 97,320 103,250
104,170 105,911 106,200 107,691
108,330 109,4745 110,2492 111,240
115,120 116,30 117,380 118,80
119,5474 120,581 121,100 123,470
124,80 133,410 134,631 135,260
136,140 137,1301 138,160 151,490
152,1582 153,230 161,30 165,240
166,110 179,9999 180,1151 181,90
193,50 207,60 222,490 223,70
##END=
