##TITLE=Isonicotinic acid, dodecyl ester
##JCAMP-DX=4.24
##DATA TYPE=MASS SPECTRUM
##ORIGIN=Zaikin V.G., TIPS RAS, Moscow, Russia
##OWNER=NIST Mass Spectrometry Data Center
Collection (C) 2014 copyright by the U.S. Secretary of Commerce
on behalf of the United States of America. All rights reserved.
##$NIST MASS SPEC NO=299887
##MOLFORM=C18 H29 N O2
##MW=291
##$NIST SOURCE=MSDC
##XUNITS=M/Z
##YUNITS=RELATIVE INTENSITY
##XFACTOR=1
##YFACTOR=1
##FIRSTX=26
##LASTX=292
##FIRSTY=50
##MAXX=292
##MINX=26
##MAXY=9999
##MINY=30
##NPOINTS=90
##PEAK TABLE=(XY..XY)
26,50 27,140 28,120 29,310
39,140 40,30 41,941 42,300
43,1041 44,80 50,90 51,460
52,90 53,80 54,210 55,1291
56,741 57,651 67,240 68,250
69,971 70,611 71,220 77,50
78,1281 79,691 80,260 81,110
82,180 83,631 84,300 85,100
93,350 94,30 95,40 96,70
97,380 98,150 105,30 106,2873
107,2052 108,150 111,140 112,60
120,260 121,80 122,30 123,400
124,9999 125,811 126,70 134,70
135,40 137,180 140,50 148,50
149,70 150,100 151,100 162,90
163,90 164,290 165,90 176,60
177,30 178,150 179,40 190,60
191,30 192,120 204,130 205,50
206,180 207,30 218,50 219,90
220,260 221,60 234,340 235,60
247,460 248,470 249,80 262,390
263,80 276,220 277,30 290,200
291,250 292,80
##END=
