##TITLE=4-Fluorobenzoic acid, 2-chlorophenyl ester
##JCAMP-DX=4.24
##DATA TYPE=MASS SPECTRUM
##ORIGIN=Zaikin V.G., TIPS RAS, Moscow, Russia
##OWNER=NIST Mass Spectrometry Data Center
Collection (C) 2014 copyright by the U.S. Secretary of Commerce
on behalf of the United States of America. All rights reserved.
##$NIST MASS SPEC NO=299050
##MOLFORM=C13 H8 Cl F O2
##MW=250
##$NIST SOURCE=MSDC
##XUNITS=M/Z
##YUNITS=RELATIVE INTENSITY
##XFACTOR=1
##YFACTOR=1
##FIRSTX=28
##LASTX=252
##FIRSTY=10
##MAXX=252
##MINX=28
##MAXY=9999
##MINY=10
##NPOINTS=30
##PEAK TABLE=(XY..XY)
28,10 38,20 39,50 50,80
51,40 62,30 63,130 64,80
68,30 69,70 73,110 74,70
75,480 76,50 92,30 94,110
95,2022 96,150 99,150 101,40
123,9999 124,611 125,30 128,140
130,40 157,30 215,30 250,220
251,30 252,70
##END=
