##TITLE=2,6-Difluorobenzoic acid, 4-pentadecyl ester
##JCAMP-DX=4.24
##DATA TYPE=MASS SPECTRUM
##ORIGIN=Zaikin V.G., TIPS RAS, Moscow, Russia
##OWNER=NIST Mass Spectrometry Data Center
Collection (C) 2014 copyright by the U.S. Secretary of Commerce
on behalf of the United States of America. All rights reserved.
##$NIST MASS SPEC NO=299777
##MOLFORM=C22 H34 F2 O2
##MW=368
##$NIST SOURCE=MSDC
##XUNITS=M/Z
##YUNITS=RELATIVE INTENSITY
##XFACTOR=1
##YFACTOR=1
##FIRSTX=26
##LASTX=297
##FIRSTY=40
##MAXX=297
##MINX=26
##MAXY=9999
##MINY=30
##NPOINTS=66
##PEAK TABLE=(XY..XY)
26,40 27,120 28,90 29,220
39,110 41,681 42,180 43,831
44,80 53,40 54,130 55,881
56,480 57,731 58,30 63,160
67,190 68,160 69,711 70,531
71,370 79,30 81,140 82,250
83,711 84,400 85,240 93,30
94,40 95,80 96,190 97,741
98,280 99,60 109,30 110,130
111,490 112,210 113,531 114,120
123,40 124,80 125,280 126,150
138,70 139,160 140,170 141,9999
142,741 143,50 152,30 153,70
154,60 156,140 158,150 159,1852
160,140 161,50 167,90 168,50
182,130 210,1241 211,200 213,60
227,90 297,30
##END=
