##TITLE=l-Serine, N,O-bis(3-fluorobenzoyl)-, methyl ester
##JCAMP-DX=4.24
##DATA TYPE=MASS SPECTRUM
##ORIGIN=Zaikin V.G., TIPS RAS, Moscow, Russia
##OWNER=NIST Mass Spectrometry Data Center
Collection (C) 2014 copyright by the U.S. Secretary of Commerce
on behalf of the United States of America. All rights reserved.
##$NIST MASS SPEC NO=299680
##MOLFORM=C18 H15 F2 N O5
##MW=363
##$NIST SOURCE=MSDC
##XUNITS=M/Z
##YUNITS=RELATIVE INTENSITY
##XFACTOR=1
##YFACTOR=1
##FIRSTX=28
##LASTX=363
##FIRSTY=10
##MAXX=363
##MINX=28
##MAXY=9999
##MINY=10
##NPOINTS=41
##PEAK TABLE=(XY..XY)
28,10 29,30 40,30 41,40
44,100 50,50 51,30 68,30
69,50 70,20 74,40 75,350
76,40 94,110 95,2132 96,220
109,40 121,30 122,50 123,9999
124,681 125,40 136,50 140,180
141,30 164,2262 165,260 179,30
191,290 192,70 193,60 210,40
223,731 224,100 240,230 262,691
263,110 304,160 332,30 333,40
363,30
##END=
