##TITLE=2-Chlorobenzoic acid, 6-pentadecyl ester
##JCAMP-DX=4.24
##DATA TYPE=MASS SPECTRUM
##ORIGIN=Zaikin V.G., TIPS RAS, Moscow, Russia
##OWNER=NIST Mass Spectrometry Data Center
Collection (C) 2014 copyright by the U.S. Secretary of Commerce
on behalf of the United States of America. All rights reserved.
##$NIST MASS SPEC NO=299825
##MOLFORM=C22 H35 Cl O2
##MW=366
##$NIST SOURCE=MSDC
##XUNITS=M/Z
##YUNITS=RELATIVE INTENSITY
##XFACTOR=1
##YFACTOR=1
##FIRSTX=26
##LASTX=239
##FIRSTY=70
##MAXX=239
##MINX=26
##MAXY=9999
##MINY=20
##NPOINTS=83
##PEAK TABLE=(XY..XY)
26,70 27,190 28,150 29,370
36,80 39,180 40,40 41,941
42,240 43,1091 44,120 50,110
51,70 53,70 54,230 55,1251
56,691 57,1031 58,60 65,40
66,30 67,310 68,260 69,1071
70,781 71,561 72,30 74,50
75,330 76,200 77,190 78,30
79,60 81,250 82,420 83,1131
84,591 85,330 91,30 95,140
96,330 97,1171 98,450 99,100
104,170 105,140 109,60 110,280
111,1942 112,521 113,450 114,40
121,50 123,30 124,130 125,470
126,270 127,40 138,120 139,9999
140,971 141,3163 142,250 152,60
153,110 154,240 155,30 156,350
157,2943 158,330 159,991 160,70
166,30 167,80 168,70 181,30
182,210 183,30 210,1872 211,300
227,250 228,40 239,20
##END=
