##TITLE=Octanoic acid, 3-methylbut-2-enyl ester
##JCAMP-DX=4.24
##DATA TYPE=MASS SPECTRUM
##ORIGIN=Zaikin V.G., TIPS RAS, Moscow, Russia
##OWNER=NIST Mass Spectrometry Data Center
Collection (C) 2014 copyright by the U.S. Secretary of Commerce
on behalf of the United States of America. All rights reserved.
##$NIST MASS SPEC NO=299341
##MOLFORM=C13 H24 O2
##MW=212
##$NIST SOURCE=MSDC
##XUNITS=M/Z
##YUNITS=RELATIVE INTENSITY
##XFACTOR=1
##YFACTOR=1
##FIRSTX=26
##LASTX=213
##FIRSTY=130
##MAXX=213
##MINX=26
##MAXY=9999
##MINY=10
##NPOINTS=71
##PEAK TABLE=(XY..XY)
26,130 27,681 28,10 29,971
38,40 39,741 40,350 41,3924
42,601 43,1802 44,180 45,50
50,40 51,70 52,50 53,941
54,140 55,1161 56,270 57,8097
58,350 59,110 60,330 61,40
65,70 66,80 67,3203 68,9999
69,7496 70,951 71,300 73,250
75,50 79,30 81,90 82,90
83,581 84,250 85,951 86,140
87,80 89,40 93,30 95,30
96,50 97,330 98,130 99,40
100,20 101,140 107,40 109,541
110,70 111,30 114,80 115,50
125,370 126,40 127,6826 128,641
129,40 141,150 143,80 144,70
145,170 156,40 169,30 170,80
183,60 212,380 213,50
##END=
