##TITLE=3-Bromobenzoic acid, 3-chloroprop-2-enyl ester
##JCAMP-DX=4.24
##DATA TYPE=MASS SPECTRUM
##ORIGIN=Zaikin V.G., TIPS RAS, Moscow, Russia
##OWNER=NIST Mass Spectrometry Data Center
Collection (C) 2014 copyright by the U.S. Secretary of Commerce
on behalf of the United States of America. All rights reserved.
##$NIST MASS SPEC NO=299149
##MOLFORM=C10 H8 Br Cl O2
##MW=274
##$NIST SOURCE=MSDC
##XUNITS=M/Z
##YUNITS=RELATIVE INTENSITY
##XFACTOR=1
##YFACTOR=1
##FIRSTX=26
##LASTX=278
##FIRSTY=80
##MAXX=278
##MINX=26
##MAXY=9999
##MINY=10
##NPOINTS=87
##PEAK TABLE=(XY..XY)
26,80 27,210 28,10 29,140
36,100 37,30 38,140 39,601
40,120 41,741 42,60 44,140
49,190 50,761 51,200 52,30
53,180 55,40 61,30 62,30
63,40 65,60 67,320 68,891
69,430 73,80 74,410 75,2623
76,1522 77,741 78,60 79,60
80,150 81,60 82,150 85,50
89,30 91,250 93,80 103,40
104,210 105,100 115,641 116,460
117,40 129,50 131,130 132,70
150,130 151,100 152,50 153,30
155,2212 156,230 157,2112 158,190
159,350 160,80 177,30 183,9999
184,901 185,9799 186,851 187,50
193,40 195,100 197,30 200,220
201,30 202,230 211,50 212,60
213,40 214,60 221,80 223,80
225,40 227,40 231,30 239,2803
240,340 241,2783 242,330 274,270
276,360 277,30 278,80
##END=
