##TITLE=Isonicoinic acid, 5-tridecyl ester
##JCAMP-DX=4.24
##DATA TYPE=MASS SPECTRUM
##ORIGIN=Zaikin V.G., TIPS RAS, Moscow, Russia
##OWNER=NIST Mass Spectrometry Data Center
Collection (C) 2014 copyright by the U.S. Secretary of Commerce
on behalf of the United States of America. All rights reserved.
##$NIST MASS SPEC NO=299896
##MOLFORM=C19 H31 N O2
##MW=305
##$NIST SOURCE=MSDC
##XUNITS=M/Z
##YUNITS=RELATIVE INTENSITY
##XFACTOR=1
##YFACTOR=1
##FIRSTX=26
##LASTX=305
##FIRSTY=70
##MAXX=305
##MINX=26
##MAXY=9999
##MINY=30
##NPOINTS=79
##PEAK TABLE=(XY..XY)
26,70 27,170 28,130 29,340
36,100 38,30 39,190 40,40
41,1031 42,250 43,1001 44,110
50,130 51,611 52,140 53,100
54,240 55,1321 56,751 57,971
58,60 66,30 67,310 68,230
69,1091 70,731 71,410 77,90
78,2092 79,380 80,70 81,220
82,300 83,871 84,501 85,250
93,40 95,100 96,250 97,721
98,360 99,50 105,50 106,9999
107,971 108,60 109,30 110,170
111,450 112,220 113,30 121,260
122,60 123,290 124,4054 125,521
126,140 137,30 138,40 139,100
140,70 150,30 153,40 154,140
164,140 165,40 180,30 182,611
183,80 192,240 193,60 206,30
220,80 221,30 248,100 261,270
262,60 304,30 305,50
##END=
