##TITLE=l-Proline, N-(4-fluorobenzoyl)-, methyl ester
##JCAMP-DX=4.24
##DATA TYPE=MASS SPECTRUM
##ORIGIN=Zaikin V.G., TIPS RAS, Moscow, Russia
##OWNER=NIST Mass Spectrometry Data Center
Collection (C) 2014 copyright by the U.S. Secretary of Commerce
on behalf of the United States of America. All rights reserved.
##$NIST MASS SPEC NO=299606
##MOLFORM=C13 H14 F N O3
##MW=251
##$NIST SOURCE=MSDC
##XUNITS=M/Z
##YUNITS=RELATIVE INTENSITY
##XFACTOR=1
##YFACTOR=1
##FIRSTX=27
##LASTX=252
##FIRSTY=30
##MAXX=252
##MINX=27
##MAXY=9999
##MINY=20
##NPOINTS=27
##PEAK TABLE=(XY..XY)
27,30 28,40 39,40 41,160
42,70 44,50 50,40 68,80
69,80 74,20 75,290 76,30
94,90 95,1582 96,170 122,40
123,9999 124,631 125,30 128,80
165,40 192,3764 193,420 194,30
220,30 251,370 252,60
##END=
