##TITLE=Dimethyl(dodecyl)silyloxybenzene
##JCAMP-DX=4.24
##DATA TYPE=MASS SPECTRUM
##ORIGIN=Zaikin V.G., TIPS RAS, Moscow, Russia
##OWNER=NIST Mass Spectrometry Data Center
Collection (C) 2014 copyright by the U.S. Secretary of Commerce
on behalf of the United States of America. All rights reserved.
##$NIST MASS SPEC NO=299086
##MOLFORM=C20 H36 O Si
##MW=320
##$NIST SOURCE=MSDC
##XUNITS=M/Z
##YUNITS=RELATIVE INTENSITY
##XFACTOR=1
##YFACTOR=1
##FIRSTX=27
##LASTX=322
##FIRSTY=30
##MAXX=322
##MINX=27
##MAXY=9999
##MINY=20
##NPOINTS=39
##PEAK TABLE=(XY..XY)
27,30 29,60 41,110 43,130
55,50 57,40 59,210 75,140
77,110 85,30 91,180 95,110
97,30 99,90 109,40 113,60
121,140 123,50 127,40 135,180
136,30 137,1241 138,160 139,50
149,70 150,20 151,9999 152,1241
153,370 154,30 163,40 177,70
211,100 305,480 306,130 307,30
320,2833 321,741 322,190
##END=
