##TITLE=3-Methyl-2-butenoic acid, 3-methylbut-2-enyl ester
##JCAMP-DX=4.24
##DATA TYPE=MASS SPECTRUM
##ORIGIN=Zaikin V.G., TIPS RAS, Moscow, Russia
##OWNER=NIST Mass Spectrometry Data Center
Collection (C) 2014 copyright by the U.S. Secretary of Commerce
on behalf of the United States of America. All rights reserved.
##$NIST MASS SPEC NO=299309
##MOLFORM=C10 H16 O2
##MW=168
##$NIST SOURCE=MSDC
##XUNITS=M/Z
##YUNITS=RELATIVE INTENSITY
##XFACTOR=1
##YFACTOR=1
##FIRSTX=26
##LASTX=169
##FIRSTY=60
##MAXX=169
##MINX=26
##MAXY=9999
##MINY=10
##NPOINTS=45
##PEAK TABLE=(XY..XY)
26,60 27,490 28,10 29,621
38,50 39,811 40,280 41,2052
42,160 43,160 44,120 50,50
51,90 52,60 53,741 54,160
55,1431 56,130 57,30 59,50
65,40 66,40 67,1351 68,2492
69,3904 70,210 81,70 82,240
83,9999 84,521 85,721 86,30
96,30 100,270 101,541 107,40
109,30 122,100 123,440 124,50
125,160 126,40 153,170 168,350
169,30
##END=
