##TITLE=Phenylacetic acid, 2-isopropoxyphenyl ester
##JCAMP-DX=4.24
##DATA TYPE=MASS SPECTRUM
##ORIGIN=Zaikin V.G., TIPS RAS, Moscow, Russia
##OWNER=NIST Mass Spectrometry Data Center
Collection (C) 2014 copyright by the U.S. Secretary of Commerce
on behalf of the United States of America. All rights reserved.
##$NIST MASS SPEC NO=299007
##MOLFORM=C17 H18 O3
##MW=270
##$NIST SOURCE=MSDC
##XUNITS=M/Z
##YUNITS=RELATIVE INTENSITY
##XFACTOR=1
##YFACTOR=1
##FIRSTX=26
##LASTX=271
##FIRSTY=70
##MAXX=271
##MINX=26
##MAXY=9999
##MINY=10
##NPOINTS=46
##PEAK TABLE=(XY..XY)
26,70 27,200 28,10 37,30
38,70 39,380 40,50 41,380
42,80 43,370 50,120 51,200
52,350 53,140 54,30 55,30
62,70 63,320 64,210 65,761
66,50 77,40 80,230 81,651
82,60 89,460 90,621 91,7797
92,621 93,60 94,20 109,741
110,9999 111,591 112,50 118,2212
119,250 121,130 135,50 136,50
137,30 152,5094 153,460 154,40
270,230 271,40
##END=
