##TITLE=2-Fluorobenzoic acid, phenyl ester
##JCAMP-DX=4.24
##DATA TYPE=MASS SPECTRUM
##ORIGIN=Zaikin V.G., TIPS RAS, Moscow, Russia
##OWNER=NIST Mass Spectrometry Data Center
Collection (C) 2014 copyright by the U.S. Secretary of Commerce
on behalf of the United States of America. All rights reserved.
##$NIST MASS SPEC NO=299044
##MOLFORM=C13 H9 F O2
##MW=216
##$NIST SOURCE=MSDC
##XUNITS=M/Z
##YUNITS=RELATIVE INTENSITY
##XFACTOR=1
##YFACTOR=1
##FIRSTX=28
##LASTX=217
##FIRSTY=10
##MAXX=217
##MINX=28
##MAXY=9999
##MINY=10
##NPOINTS=24
##PEAK TABLE=(XY..XY)
28,10 38,30 39,170 50,80
51,110 63,60 65,180 66,40
68,40 69,80 74,60 75,511
76,50 77,50 93,50 94,240
95,1652 96,140 122,30 123,9999
124,661 125,40 216,531 217,80
##END=
