##TITLE=1-(Dichloromethyl)dimethylsilyloxypent-2-en-4-yne
##JCAMP-DX=4.24
##DATA TYPE=MASS SPECTRUM
##ORIGIN=Zaikin V.G., TIPS RAS, Moscow, Russia
##OWNER=NIST Mass Spectrometry Data Center
Collection (C) 2014 copyright by the U.S. Secretary of Commerce
on behalf of the United States of America. All rights reserved.
##$NIST MASS SPEC NO=299451
##MOLFORM=C8 H12 Cl2 O Si
##MW=222
##$NIST SOURCE=MSDC
##XUNITS=M/Z
##YUNITS=RELATIVE INTENSITY
##XFACTOR=1
##YFACTOR=1
##FIRSTX=25
##LASTX=224
##FIRSTY=20
##MAXX=224
##MINX=25
##MAXY=9999
##MINY=10
##NPOINTS=125
##PEAK TABLE=(XY..XY)
25,20 26,190 27,310 28,30
29,120 30,10 31,40 35,210
36,1261 37,100 38,551 39,2072
40,150 41,110 42,100 43,661
44,501 45,731 46,30 47,400
48,60 49,90 50,230 51,330
52,260 53,861 54,100 55,150
56,20 57,30 58,110 59,1041
60,130 61,911 62,270 63,1171
64,170 65,4084 66,270 67,90
68,40 69,240 70,20 71,80
73,30 74,70 75,1211 76,120
77,450 78,541 79,1231 80,240
81,240 82,50 83,5314 84,480
85,691 86,40 87,40 89,30
90,10 91,90 92,40 93,1021
94,90 95,1081 96,130 97,220
98,180 99,821 100,110 101,170
103,180 104,20 105,140 106,280
107,80 108,110 109,1291 110,150
111,5585 112,581 113,2452 114,140
115,1692 116,100 117,370 118,20
119,30 121,200 122,30 123,170
124,60 125,60 126,30 127,50
128,20 129,70 130,10 131,90
133,70 135,60 136,20 137,60
138,10 139,9999 140,1201 141,430
142,30 143,60 145,20 149,40
151,50 153,10 159,10 171,10
177,10 187,10 191,20 193,30
207,40 209,40 222,90 223,10
224,60
##END=
