##TITLE=3-Trifluoromethylbenzoic acid, 2-chlorophenyl ester
##JCAMP-DX=4.24
##DATA TYPE=MASS SPECTRUM
##ORIGIN=Zaikin V.G., TIPS RAS, Moscow, Russia
##OWNER=NIST Mass Spectrometry Data Center
Collection (C) 2014 copyright by the U.S. Secretary of Commerce
on behalf of the United States of America. All rights reserved.
##$NIST MASS SPEC NO=299040
##MOLFORM=C14 H8 Cl F3 O2
##MW=300
##$NIST SOURCE=MSDC
##XUNITS=M/Z
##YUNITS=RELATIVE INTENSITY
##XFACTOR=1
##YFACTOR=1
##FIRSTX=28
##LASTX=302
##FIRSTY=10
##MAXX=302
##MINX=28
##MAXY=9999
##MINY=10
##NPOINTS=33
##PEAK TABLE=(XY..XY)
28,10 39,40 50,80 51,30
62,20 63,110 64,50 69,30
73,100 74,50 75,220 76,50
95,270 99,180 101,50 119,30
125,210 126,170 127,40 128,90
130,30 144,70 145,2983 146,250
173,9999 174,781 175,50 265,90
282,30 283,80 300,320 301,50
302,110
##END=
