##TITLE=o-Anisic acid, 6-pentadecyl ester
##JCAMP-DX=4.24
##DATA TYPE=MASS SPECTRUM
##ORIGIN=Zaikin V.G., TIPS RAS, Moscow, Russia
##OWNER=NIST Mass Spectrometry Data Center
Collection (C) 2014 copyright by the U.S. Secretary of Commerce
on behalf of the United States of America. All rights reserved.
##$NIST MASS SPEC NO=299768
##MOLFORM=C23 H38 O3
##MW=362
##$NIST SOURCE=MSDC
##XUNITS=M/Z
##YUNITS=RELATIVE INTENSITY
##XFACTOR=1
##YFACTOR=1
##FIRSTX=26
##LASTX=362
##FIRSTY=60
##MAXX=362
##MINX=26
##MAXY=9999
##MINY=10
##NPOINTS=81
##PEAK TABLE=(XY..XY)
26,60 27,140 28,10 29,290
39,160 40,30 41,701 42,160
43,851 44,90 50,40 51,90
53,60 54,130 55,831 56,360
57,571 58,30 63,60 64,80
65,70 67,180 68,110 69,571
70,330 71,270 73,60 76,70
77,1031 78,130 79,240 81,140
82,140 83,470 84,200 85,140
91,30 92,410 93,60 94,40
95,70 96,90 97,390 98,130
99,30 104,30 105,531 106,140
107,90 108,50 109,30 110,60
111,210 112,100 120,160 121,120
122,50 123,1512 124,130 125,100
126,60 133,60 134,220 135,9999
136,921 137,90 138,60 139,40
140,30 147,30 151,50 152,3794
153,5034 154,470 155,50 182,30
210,160 221,30 227,170 235,30
362,70
##END=
