##TITLE=Hexanoic acid, oct-3-en-2-yl ester
##JCAMP-DX=4.24
##DATA TYPE=MASS SPECTRUM
##ORIGIN=Zaikin V.G., TIPS RAS, Moscow, Russia
##OWNER=NIST Mass Spectrometry Data Center
Collection (C) 2014 copyright by the U.S. Secretary of Commerce
on behalf of the United States of America. All rights reserved.
##$NIST MASS SPEC NO=299355
##MOLFORM=C14 H26 O2
##MW=226
##$NIST SOURCE=MSDC
##XUNITS=M/Z
##YUNITS=RELATIVE INTENSITY
##XFACTOR=1
##YFACTOR=1
##FIRSTX=26
##LASTX=226
##FIRSTY=110
##MAXX=226
##MINX=26
##MAXY=9999
##MINY=20
##NPOINTS=70
##PEAK TABLE=(XY..XY)
26,110 27,561 28,250 29,621
38,30 39,521 40,140 41,1592
42,360 43,3033 44,220 45,60
51,40 52,40 53,450 54,370
55,3103 56,290 57,220 58,210
59,110 60,290 65,90 66,80
67,921 68,3754 69,2973 70,290
71,3283 72,290 73,170 77,70
79,210 80,80 81,2332 82,300
83,110 84,40 85,310 86,480
87,70 91,20 93,30 95,741
96,60 97,70 98,90 99,9999
100,631 101,40 109,100 110,691
111,1101 112,110 113,200 114,140
115,40 117,230 127,1391 128,3083
129,300 141,110 142,40 152,20
155,210 169,130 170,230 183,180
184,30 226,80
##END=
