##TITLE=l-Alanine, N-(2,6-difluorobenzoyl)-, methyl ester
##JCAMP-DX=4.24
##DATA TYPE=MASS SPECTRUM
##ORIGIN=Zaikin V.G., TIPS RAS, Moscow, Russia
##OWNER=NIST Mass Spectrometry Data Center
Collection (C) 2014 copyright by the U.S. Secretary of Commerce
on behalf of the United States of America. All rights reserved.
##$NIST MASS SPEC NO=299660
##MOLFORM=C11 H11 F2 N O3
##MW=243
##$NIST SOURCE=MSDC
##XUNITS=M/Z
##YUNITS=RELATIVE INTENSITY
##XFACTOR=1
##YFACTOR=1
##FIRSTX=28
##LASTX=243
##FIRSTY=60
##MAXX=243
##MINX=28
##MAXY=9999
##MINY=30
##NPOINTS=22
##PEAK TABLE=(XY..XY)
28,60 42,150 43,40 44,40
59,40 62,30 63,310 93,60
94,40 102,40 112,70 113,851
114,120 140,80 141,9999 142,601
143,30 164,40 184,4615 185,410
212,30 243,50
##END=
