##TITLE=1-(Dichloromethyl)dimethylsilyloxytridec-2-yne
##JCAMP-DX=4.24
##DATA TYPE=MASS SPECTRUM
##ORIGIN=Zaikin V.G., TIPS RAS, Moscow, Russia
##OWNER=NIST Mass Spectrometry Data Center
Collection (C) 2014 copyright by the U.S. Secretary of Commerce
on behalf of the United States of America. All rights reserved.
##$NIST MASS SPEC NO=299457
##MOLFORM=C16 H30 Cl2 O Si
##MW=336
##$NIST SOURCE=MSDC
##XUNITS=M/Z
##YUNITS=RELATIVE INTENSITY
##XFACTOR=1
##YFACTOR=1
##FIRSTX=25
##LASTX=271
##FIRSTY=10
##MAXX=271
##MINX=25
##MAXY=9999
##MINY=10
##NPOINTS=180
##PEAK TABLE=(XY..XY)
25,10 26,110 27,310 28,10
29,551 30,30 31,10 35,20
36,170 37,10 38,80 39,290
40,70 41,1081 42,160 43,1201
44,60 45,130 47,140 48,20
49,30 50,40 51,80 52,150
53,290 54,110 55,781 56,120
57,551 58,40 59,1582 60,120
61,190 62,10 63,120 65,220
66,80 67,631 68,90 69,410
70,70 71,80 72,20 73,360
74,50 75,9999 76,751 77,621
78,190 79,791 80,200 81,671
82,110 83,350 84,50 85,290
86,30 87,120 88,20 89,991
90,90 91,330 92,60 93,791
94,130 95,1001 96,260 97,280
98,90 99,410 100,50 101,701
102,60 103,70 104,10 105,110
106,50 107,511 108,120 109,511
110,80 111,310 112,50 113,1411
114,110 115,991 116,80 117,170
118,10 119,80 120,10 121,370
122,40 123,230 124,40 125,440
126,130 127,1261 128,150 129,170
130,10 131,30 133,40 135,170
136,20 137,190 138,30 139,511
140,80 141,450 142,60 143,160
144,10 145,40 147,30 149,100
150,10 151,130 152,30 153,160
154,20 155,220 156,30 157,60
159,50 160,10 161,40 162,10
163,210 164,30 165,40 167,90
168,10 169,70 170,10 171,300
172,40 173,40 175,30 177,601
178,100 179,50 181,70 182,10
183,40 185,1441 186,230 187,70
189,10 191,10 195,90 197,50
199,20 210,20 211,10 212,10
213,10 221,10 223,1341 224,270
225,90 226,10 227,30 229,10
233,10 235,160 236,30 237,30
247,230 248,40 249,180 250,30
251,70 253,1692 254,380 255,90
256,10 267,40 269,40 271,10
##END=
