##TITLE=Acetoxyacetic acid, undec-2-enyl ester
##JCAMP-DX=4.24
##DATA TYPE=MASS SPECTRUM
##ORIGIN=Zaikin V.G., TIPS RAS, Moscow, Russia
##OWNER=NIST Mass Spectrometry Data Center
Collection (C) 2014 copyright by the U.S. Secretary of Commerce
on behalf of the United States of America. All rights reserved.
##$NIST MASS SPEC NO=299209
##MOLFORM=C15 H26 O4
##MW=270
##$NIST SOURCE=MSDC
##XUNITS=M/Z
##YUNITS=RELATIVE INTENSITY
##XFACTOR=1
##YFACTOR=1
##FIRSTX=26
##LASTX=228
##FIRSTY=170
##MAXX=228
##MINX=26
##MAXY=9999
##MINY=30
##NPOINTS=101
##PEAK TABLE=(XY..XY)
26,170 27,611 28,60 29,1271
30,80 31,70 38,40 39,911
40,200 41,3514 42,1451 43,9999
44,480 45,100 50,50 51,80
52,70 53,591 54,4374 55,5545
56,1081 57,2172 58,120 59,30
60,60 61,90 65,150 66,290
67,3033 68,2653 69,4054 70,1562
71,811 72,120 73,3413 74,150
77,150 78,50 79,490 80,370
81,3003 82,3213 83,3604 84,661
85,270 86,80 91,230 93,190
94,280 95,2913 96,2412 97,2743
98,611 99,120 100,120 101,4945
102,210 103,30 107,150 108,180
109,1261 110,1181 111,701 112,681
113,180 114,40 117,90 119,270
121,320 122,130 123,460 124,2262
125,290 126,80 127,40 131,30
135,130 137,100 138,90 139,60
140,60 141,80 149,60 150,180
151,230 152,1902 153,260 154,30
159,40 167,731 168,1431 169,3343
170,410 171,50 173,100 182,280
183,30 197,100 199,30 210,200
228,140
##END=
