##TITLE=1-Dodecyldimethylsilyloxy-2-methylbenzene
##JCAMP-DX=4.24
##DATA TYPE=MASS SPECTRUM
##ORIGIN=Zaikin V.G., TIPS RAS, Moscow, Russia
##OWNER=NIST Mass Spectrometry Data Center
Collection (C) 2014 copyright by the U.S. Secretary of Commerce
on behalf of the United States of America. All rights reserved.
##$NIST MASS SPEC NO=299087
##MOLFORM=C21 H38 O Si
##MW=334
##$NIST SOURCE=MSDC
##XUNITS=M/Z
##YUNITS=RELATIVE INTENSITY
##XFACTOR=1
##YFACTOR=1
##FIRSTX=27
##LASTX=337
##FIRSTY=30
##MAXX=337
##MINX=27
##MAXY=9999
##MINY=20
##NPOINTS=51
##PEAK TABLE=(XY..XY)
27,30 28,20 29,70 39,30
41,140 42,30 43,200 55,60
56,30 57,60 59,430 60,30
61,30 65,40 73,40 75,110
77,30 85,50 91,1692 92,140
97,30 99,110 105,150 113,60
121,40 127,40 135,591 136,80
137,60 147,40 149,941 150,150
151,1211 152,160 153,50 161,30
163,190 164,70 165,9999 166,1371
167,400 168,30 177,40 191,50
211,70 319,360 320,100 334,5374
335,1351 336,340 337,50
##END=
