##TITLE=4-Fluorobenzoic acid. oct-3-en-2-yl ester
##JCAMP-DX=4.24
##DATA TYPE=MASS SPECTRUM
##ORIGIN=Zaikin V.G., TIPS RAS, Moscow, Russia
##OWNER=NIST Mass Spectrometry Data Center
Collection (C) 2014 copyright by the U.S. Secretary of Commerce
on behalf of the United States of America. All rights reserved.
##$NIST MASS SPEC NO=299154
##MOLFORM=C15 H19 F O2
##MW=250
##$NIST SOURCE=MSDC
##XUNITS=M/Z
##YUNITS=RELATIVE INTENSITY
##XFACTOR=1
##YFACTOR=1
##FIRSTX=27
##LASTX=250
##FIRSTY=90
##MAXX=250
##MINX=27
##MAXY=9999
##MINY=20
##NPOINTS=50
##PEAK TABLE=(XY..XY)
27,90 28,20 29,70 39,150
40,70 41,390 42,50 43,170
44,80 50,40 51,40 53,180
54,150 55,831 56,60 57,30
65,50 66,30 67,420 68,1051
69,771 70,50 71,130 74,30
75,230 77,40 79,110 81,741
82,90 94,70 95,1241 96,140
97,30 110,310 111,110 123,9999
124,721 125,40 127,480 128,40
140,170 141,110 151,30 152,120
165,30 193,60 194,40 207,70
208,40 250,40
##END=
