##TITLE=4-Cyanobenzoic acid, 2,6-dimethylnon-1-en-3-yn-5-yl ester
##JCAMP-DX=4.24
##DATA TYPE=MASS SPECTRUM
##ORIGIN=Zaikin V.G., TIPS RAS, Moscow, Russia
##OWNER=NIST Mass Spectrometry Data Center
Collection (C) 2014 copyright by the U.S. Secretary of Commerce
on behalf of the United States of America. All rights reserved.
##$NIST MASS SPEC NO=299228
##MOLFORM=C19 H21 N O2
##MW=295
##$NIST SOURCE=MSDC
##XUNITS=M/Z
##YUNITS=RELATIVE INTENSITY
##XFACTOR=1
##YFACTOR=1
##FIRSTX=26
##LASTX=280
##FIRSTY=40
##MAXX=280
##MINX=26
##MAXY=9999
##MINY=30
##NPOINTS=76
##PEAK TABLE=(XY..XY)
26,40 27,140 28,50 29,130
39,230 40,60 41,480 42,60
43,531 44,80 50,120 51,210
52,100 53,130 55,210 57,40
63,70 64,30 65,190 66,90
67,120 69,260 70,30 71,160
74,40 75,190 76,170 77,440
78,270 79,290 80,40 81,110
82,130 83,80 91,701 92,180
93,260 94,50 95,270 96,30
101,40 102,1622 103,460 104,80
105,410 106,430 107,180 108,30
109,80 115,40 117,70 119,521
120,150 121,50 123,180 124,60
130,9999 131,921 132,60 133,621
134,60 136,210 137,110 147,230
148,360 149,50 165,170 180,30
196,40 197,30 224,70 225,100
238,40 252,450 253,120 280,60
##END=
