##TITLE=Glycine, N-(2,3,4-trifluorobenzoyl)-, methyl ester
##JCAMP-DX=4.24
##DATA TYPE=MASS SPECTRUM
##ORIGIN=Zaikin V.G., TIPS RAS, Moscow, Russia
##OWNER=NIST Mass Spectrometry Data Center
Collection (C) 2014 copyright by the U.S. Secretary of Commerce
on behalf of the United States of America. All rights reserved.
##$NIST MASS SPEC NO=299628
##MOLFORM=C10 H8 F3 N O3
##MW=247
##$NIST SOURCE=MSDC
##XUNITS=M/Z
##YUNITS=RELATIVE INTENSITY
##XFACTOR=1
##YFACTOR=1
##FIRSTX=28
##LASTX=248
##FIRSTY=10
##MAXX=248
##MINX=28
##MAXY=9999
##MINY=10
##NPOINTS=28
##PEAK TABLE=(XY..XY)
28,10 29,40 44,40 56,50
57,30 59,60 62,50 75,30
80,40 81,651 82,30 88,70
99,30 112,80 130,80 131,1341
132,140 140,40 158,40 159,9999
160,661 161,40 188,3213 189,260
215,360 216,140 247,440 248,50
##END=
