##TITLE=1-Butyldimethylsilyloxy-2-chlorobenzene
##JCAMP-DX=4.24
##DATA TYPE=MASS SPECTRUM
##ORIGIN=Zaikin V.G., TIPS RAS, Moscow, Russia
##OWNER=NIST Mass Spectrometry Data Center
Collection (C) 2014 copyright by the U.S. Secretary of Commerce
on behalf of the United States of America. All rights reserved.
##$NIST MASS SPEC NO=299063
##MOLFORM=C12 H19 Cl O Si
##MW=242
##$NIST SOURCE=MSDC
##XUNITS=M/Z
##YUNITS=RELATIVE INTENSITY
##XFACTOR=1
##YFACTOR=1
##FIRSTX=26
##LASTX=245
##FIRSTY=40
##MAXX=245
##MINX=26
##MAXY=9999
##MINY=20
##NPOINTS=87
##PEAK TABLE=(XY..XY)
26,40 27,70 28,20 29,60
31,30 36,70 39,90 41,90
43,140 44,80 45,60 50,40
51,50 55,60 58,70 59,601
60,50 61,40 63,480 64,110
65,440 67,90 72,30 73,60
74,30 75,90 76,30 77,150
78,70 79,511 80,40 81,190
85,40 89,80 90,50 91,871
92,210 93,3373 94,360 95,1151
96,80 97,60 99,30 103,30
105,110 107,60 115,50 117,30
121,100 125,40 127,30 128,60
133,40 135,531 136,60 137,60
143,50 147,90 148,80 149,2983
150,430 151,230 152,30 155,230
157,90 161,30 163,50 169,100
170,40 171,1091 172,140 173,380
174,40 183,60 185,9999 186,1271
187,3393 188,440 189,130 227,551
228,90 229,200 230,30 242,761
243,130 244,270 245,40
##END=
