##TITLE=2-Bromobenzoic acid, 2-methyloct-5-yn-4-yl ester
##JCAMP-DX=4.24
##DATA TYPE=MASS SPECTRUM
##ORIGIN=Zaikin V.G., TIPS RAS, Moscow, Russia
##OWNER=NIST Mass Spectrometry Data Center
Collection (C) 2014 copyright by the U.S. Secretary of Commerce
on behalf of the United States of America. All rights reserved.
##$NIST MASS SPEC NO=299396
##MOLFORM=C16 H19 Br O2
##MW=322
##$NIST SOURCE=MSDC
##XUNITS=M/Z
##YUNITS=RELATIVE INTENSITY
##XFACTOR=1
##YFACTOR=1
##FIRSTX=26
##LASTX=309
##FIRSTY=40
##MAXX=309
##MINX=26
##MAXY=9999
##MINY=20
##NPOINTS=92
##PEAK TABLE=(XY..XY)
26,40 27,180 28,70 29,170
38,40 39,290 40,60 41,651
42,50 43,561 44,80 50,280
51,160 52,80 53,230 54,40
55,430 56,70 57,110 63,50
65,210 66,120 67,300 68,70
69,320 74,90 75,450 76,641
77,601 78,140 79,1171 80,370
81,1071 82,170 83,80 91,521
92,110 93,1411 94,280 95,160
96,40 97,60 98,50 104,250
105,220 107,1602 108,170 109,30
115,30 121,90 122,681 123,140
124,120 128,40 129,30 139,531
140,60 141,20 142,30 155,991
156,120 157,951 158,100 159,40
183,9999 184,761 185,9979 186,731
187,90 200,180 201,120 202,180
203,110 215,40 225,80 227,70
239,30 243,70 251,60 252,30
253,50 265,30 266,140 267,60
268,140 269,30 279,1131 280,170
281,1141 282,170 307,30 309,30
##END=
