##TITLE=3-Phenylpropionic acid, hex-4-yn-3-yl ester
##JCAMP-DX=4.24
##DATA TYPE=MASS SPECTRUM
##ORIGIN=Zaikin V.G., TIPS RAS, Moscow, Russia
##OWNER=NIST Mass Spectrometry Data Center
Collection (C) 2014 copyright by the U.S. Secretary of Commerce
on behalf of the United States of America. All rights reserved.
##$NIST MASS SPEC NO=299174
##MOLFORM=C15 H18 O2
##MW=230
##$NIST SOURCE=MSDC
##XUNITS=M/Z
##YUNITS=RELATIVE INTENSITY
##XFACTOR=1
##YFACTOR=1
##FIRSTX=25
##LASTX=231
##FIRSTY=30
##MAXX=231
##MINX=25
##MAXY=9999
##MINY=10
##NPOINTS=149
##PEAK TABLE=(XY..XY)
25,30 26,220 27,701 28,10
29,290 37,50 38,110 39,1121
40,290 41,1582 42,210 43,641
44,330 45,30 49,40 50,380
51,1061 52,480 53,2182 54,170
55,450 56,40 57,100 60,10
61,20 62,80 63,330 64,90
65,1301 66,470 67,320 68,50
69,340 70,30 71,10 73,20
74,100 75,90 76,150 77,2613
78,1231 79,6846 80,3423 81,6736
82,521 83,330 84,20 87,10
89,220 90,120 91,9999 92,871
93,50 94,10 95,30 96,30
97,300 98,2242 99,270 100,10
101,30 102,220 103,1371 104,4645
105,9398 106,841 107,8678 108,661
109,40 111,80 115,130 116,30
117,60 118,20 119,10 120,10
121,20 123,50 124,10 125,90
126,270 127,60 128,170 129,290
130,70 131,420 132,280 133,3163
134,310 135,20 138,10 139,220
140,30 141,330 142,240 143,430
144,90 145,60 146,20 147,90
148,120 149,1311 150,3133 151,360
152,100 153,120 154,80 155,1752
156,360 157,601 158,160 159,110
160,20 162,10 165,40 166,10
167,40 168,40 169,711 170,6656
171,1892 172,190 173,90 174,10
179,10 181,10 182,20 183,130
184,290 185,80 186,10 187,40
188,100 189,10 197,390 198,60
201,591 202,240 203,20 204,10
211,20 212,611 213,100 214,10
215,691 216,90 229,30 230,591
231,90
##END=
