##TITLE=1-Triisobutylsilyloxytridec-2-yne
##JCAMP-DX=4.24
##DATA TYPE=MASS SPECTRUM
##ORIGIN=Zaikin V.G., TIPS RAS, Moscow, Russia
##OWNER=NIST Mass Spectrometry Data Center
Collection (C) 2014 copyright by the U.S. Secretary of Commerce
on behalf of the United States of America. All rights reserved.
##$NIST MASS SPEC NO=299468
##MOLFORM=C25 H50 O Si
##MW=394
##$NIST SOURCE=MSDC
##XUNITS=M/Z
##YUNITS=RELATIVE INTENSITY
##XFACTOR=1
##YFACTOR=1
##FIRSTX=26
##LASTX=338
##FIRSTY=110
##MAXX=338
##MINX=26
##MAXY=9999
##MINY=20
##NPOINTS=157
##PEAK TABLE=(XY..XY)
26,110 27,250 28,110 29,280
37,30 38,50 39,400 40,120
41,1031 42,250 43,701 44,30
45,260 47,180 50,40 51,50
52,70 53,140 54,70 55,450
56,310 57,330 58,40 59,991
60,120 61,1602 62,100 63,60
65,50 66,40 67,300 68,50
69,200 70,50 71,180 73,180
74,100 75,300 76,30 77,140
78,40 79,290 80,60 81,280
82,70 83,430 84,130 85,791
86,100 87,370 88,50 89,50
91,170 92,30 93,240 94,60
95,430 96,100 97,701 98,290
99,551 100,60 101,460 102,60
103,1682 104,160 105,130 107,140
108,30 109,430 110,80 111,741
112,170 113,450 114,50 115,220
116,30 117,350 118,30 119,70
121,160 122,30 123,320 124,90
125,631 126,120 127,450 128,50
129,170 131,30 133,30 135,130
137,280 138,50 139,430 140,80
141,420 142,50 143,290 144,30
145,30 149,90 151,150 152,30
153,430 154,130 155,571 156,80
157,140 159,1932 160,270 161,100
163,220 164,30 165,90 167,450
168,80 169,150 171,20 173,80
177,150 179,50 181,340 182,50
183,100 193,120 195,240 196,40
197,180 198,30 199,50 207,70
209,190 210,30 211,30 213,110
223,300 224,60 225,3564 226,701
227,190 237,70 239,370 240,70
249,80 251,270 252,60 253,60
265,30 269,90 279,60 281,9999
282,2392 283,661 284,90 337,110
338,30
##END=
