##TITLE=4-Nitrobenzoic acid, 3-chloroprop-2-enyl ester
##JCAMP-DX=4.24
##DATA TYPE=MASS SPECTRUM
##ORIGIN=Zaikin V.G., TIPS RAS, Moscow, Russia
##OWNER=NIST Mass Spectrometry Data Center
Collection (C) 2014 copyright by the U.S. Secretary of Commerce
on behalf of the United States of America. All rights reserved.
##$NIST MASS SPEC NO=299274
##MOLFORM=C10 H8 Cl N O4
##MW=241
##$NIST SOURCE=MSDC
##XUNITS=M/Z
##YUNITS=RELATIVE INTENSITY
##XFACTOR=1
##YFACTOR=1
##FIRSTX=26
##LASTX=242
##FIRSTY=70
##MAXX=242
##MINX=26
##MAXY=9999
##MINY=20
##NPOINTS=65
##PEAK TABLE=(XY..XY)
26,70 27,110 28,20 29,50
30,100 36,140 37,30 38,140
39,841 40,40 44,150 49,260
50,771 51,140 53,50 55,30
61,40 62,60 63,140 64,160
65,210 73,70 74,380 75,2482
76,1471 77,781 78,50 89,40
91,450 92,791 93,200 103,160
104,1852 105,200 115,170 116,70
120,951 121,300 122,100 127,50
131,50 132,50 133,30 134,320
135,30 136,40 137,30 145,40
149,30 150,9999 151,1231 152,130
155,50 160,50 167,40 168,30
172,60 173,140 176,40 178,30
179,30 188,30 206,2082 211,30
242,70
##END=
