##TITLE=3-Trifluoromethylbenzoic acid, phenyl ester
##JCAMP-DX=4.24
##DATA TYPE=MASS SPECTRUM
##ORIGIN=Zaikin V.G., TIPS RAS, Moscow, Russia
##OWNER=NIST Mass Spectrometry Data Center
Collection (C) 2014 copyright by the U.S. Secretary of Commerce
on behalf of the United States of America. All rights reserved.
##$NIST MASS SPEC NO=299038
##MOLFORM=C14 H9 F3 O2
##MW=266
##$NIST SOURCE=MSDC
##XUNITS=M/Z
##YUNITS=RELATIVE INTENSITY
##XFACTOR=1
##YFACTOR=1
##FIRSTX=28
##LASTX=267
##FIRSTY=10
##MAXX=267
##MINX=28
##MAXY=9999
##MINY=10
##NPOINTS=32
##PEAK TABLE=(XY..XY)
28,10 38,30 39,220 50,120
51,110 57,30 63,60 65,220
66,40 69,30 74,50 75,190
76,60 77,60 93,30 94,120
95,310 99,30 119,30 125,230
126,190 143,30 144,70 145,3393
146,270 173,9999 174,731 175,40
247,300 248,40 266,721 267,110
##END=
