##TITLE=Nicotinic acid, cyclobutyl ester
##JCAMP-DX=4.24
##DATA TYPE=MASS SPECTRUM
##ORIGIN=Zaikin V.G., TIPS RAS, Moscow, Russia
##OWNER=NIST Mass Spectrometry Data Center
Collection (C) 2014 copyright by the U.S. Secretary of Commerce
on behalf of the United States of America. All rights reserved.
##$NIST MASS SPEC NO=299971
##MOLFORM=C10 H11 N O2
##MW=177
##$NIST SOURCE=MSDC
##XUNITS=M/Z
##YUNITS=RELATIVE INTENSITY
##XFACTOR=1
##YFACTOR=1
##FIRSTX=26
##LASTX=176
##FIRSTY=40
##MAXX=176
##MINX=26
##MAXY=9999
##MINY=30
##NPOINTS=30
##PEAK TABLE=(XY..XY)
26,40 27,180 28,30 29,80
39,120 41,50 50,180 51,781
52,120 53,70 54,40 55,150
76,30 77,80 78,2683 79,220
93,40 105,50 106,9999 107,621
108,40 121,1161 122,90 123,40
124,80 132,40 148,160 149,821
150,80 176,50
##END=
