##TITLE=l-Valine, N-caproyl-, methyl ester
##JCAMP-DX=4.24
##DATA TYPE=MASS SPECTRUM
##ORIGIN=Zaikin V.G., TIPS RAS, Moscow, Russia
##OWNER=NIST Mass Spectrometry Data Center
Collection (C) 2014 copyright by the U.S. Secretary of Commerce
on behalf of the United States of America. All rights reserved.
##$NIST MASS SPEC NO=299733
##MOLFORM=C12 H23 N O3
##MW=229
##$NIST SOURCE=MSDC
##XUNITS=M/Z
##YUNITS=RELATIVE INTENSITY
##XFACTOR=1
##YFACTOR=1
##FIRSTX=26
##LASTX=230
##FIRSTY=40
##MAXX=230
##MINX=26
##MAXY=9999
##MINY=30
##NPOINTS=70
##PEAK TABLE=(XY..XY)
26,40 27,210 28,30 29,290
30,70 33,50 39,170 40,30
41,571 42,170 43,1451 44,180
53,50 54,50 55,691 56,260
57,210 58,30 59,260 60,300
68,30 69,150 70,250 71,931
72,9999 73,501 74,50 81,30
82,100 83,180 84,80 85,50
86,80 88,1111 89,260 90,40
97,30 98,220 99,1431 100,110
112,40 113,100 114,581 115,200
116,1431 117,100 126,100 130,250
131,200 132,150 140,60 141,70
144,50 154,60 155,360 156,40
158,260 168,30 170,2102 171,240
173,791 174,70 182,90 186,70
187,300 188,30 198,70 200,50
229,80 230,30
##END=
