##TITLE=Dichloroacetic acid, 2,6-dimethylnon-1-en-3-yn-5-yl ester
##JCAMP-DX=4.24
##DATA TYPE=MASS SPECTRUM
##ORIGIN=Zaikin V.G., TIPS RAS, Moscow, Russia
##OWNER=NIST Mass Spectrometry Data Center
Collection (C) 2014 copyright by the U.S. Secretary of Commerce
on behalf of the United States of America. All rights reserved.
##$NIST MASS SPEC NO=299435
##MOLFORM=C13 H18 Cl2 O2
##MW=276
##$NIST SOURCE=MSDC
##XUNITS=M/Z
##YUNITS=RELATIVE INTENSITY
##XFACTOR=1
##YFACTOR=1
##FIRSTX=25
##LASTX=247
##FIRSTY=40
##MAXX=247
##MINX=25
##MAXY=9999
##MINY=30
##NPOINTS=148
##PEAK TABLE=(XY..XY)
25,40 26,250 27,1311 28,30
29,1461 35,170 36,1141 37,110
38,490 39,2032 40,531 41,3964
42,501 43,9519 44,881 45,90
47,110 48,350 49,220 50,350
51,931 52,591 53,1061 54,100
55,1962 56,120 57,340 58,50
61,30 62,130 63,581 64,210
65,1502 66,741 67,1191 68,100
69,1742 70,420 71,2533 72,130
73,30 74,80 75,130 76,561
77,3423 78,3844 79,2312 80,290
81,701 82,721 83,2172 84,200
85,1261 86,110 87,501 89,160
90,50 91,4204 92,841 93,2322
94,360 95,3413 96,1552 97,230
99,40 100,220 101,30 102,60
103,400 104,210 105,2232 106,2442
107,2202 108,300 109,2302 110,400
111,571 112,70 113,420 114,60
115,350 116,90 117,320 118,100
119,1982 120,541 121,561 122,270
123,3554 124,9999 125,921 126,70
127,120 128,60 129,80 130,40
131,100 132,30 133,2342 134,290
135,170 136,70 137,971 138,130
141,30 142,50 143,120 144,30
145,50 147,180 148,851 149,310
150,50 151,360 152,40 155,100
157,30 163,30 165,200 166,150
167,70 171,1341 172,200 173,440
174,30 177,310 178,40 179,200
181,50 183,50 185,40 191,40
193,70 199,60 205,90 206,60
219,320 221,200 233,290 234,1371
235,330 236,881 237,120 238,130
241,400 242,50 243,130 247,40
##END=
