##TITLE=2-Trifluoromethylbenzoic acid, tridec-2-ynyl ester
##JCAMP-DX=4.24
##DATA TYPE=MASS SPECTRUM
##ORIGIN=Zaikin V.G., TIPS RAS, Moscow, Russia
##OWNER=NIST Mass Spectrometry Data Center
Collection (C) 2014 copyright by the U.S. Secretary of Commerce
on behalf of the United States of America. All rights reserved.
##$NIST MASS SPEC NO=299409
##MOLFORM=C21 H27 F3 O2
##MW=368
##$NIST SOURCE=MSDC
##XUNITS=M/Z
##YUNITS=RELATIVE INTENSITY
##XFACTOR=1
##YFACTOR=1
##FIRSTX=26
##LASTX=242
##FIRSTY=30
##MAXX=242
##MINX=26
##MAXY=9999
##MINY=30
##NPOINTS=56
##PEAK TABLE=(XY..XY)
26,30 27,110 28,70 29,190
39,130 40,30 41,420 42,80
43,420 50,40 51,60 52,130
53,130 54,90 55,360 56,90
57,130 65,70 66,80 67,270
68,60 69,150 70,40 71,30
75,50 77,140 78,50 79,380
80,100 81,220 82,50 83,60
91,130 93,230 94,110 95,230
96,50 105,30 107,90 108,40
109,50 111,30 121,70 125,50
126,60 135,40 145,641 146,80
151,120 154,30 173,9999 174,721
175,40 195,70 241,70 242,30
##END=
