##TITLE=1-Cyclohexyldimethylsilyloxy-3-methylbut-2-ene
##JCAMP-DX=4.24
##DATA TYPE=MASS SPECTRUM
##ORIGIN=Zaikin V.G., TIPS RAS, Moscow, Russia
##OWNER=NIST Mass Spectrometry Data Center
Collection (C) 2014 copyright by the U.S. Secretary of Commerce
on behalf of the United States of America. All rights reserved.
##$NIST MASS SPEC NO=299568
##MOLFORM=C13 H26 O Si
##MW=226
##$NIST SOURCE=MSDC
##XUNITS=M/Z
##YUNITS=RELATIVE INTENSITY
##XFACTOR=1
##YFACTOR=1
##FIRSTX=26
##LASTX=227
##FIRSTY=30
##MAXX=227
##MINX=26
##MAXY=9999
##MINY=30
##NPOINTS=77
##PEAK TABLE=(XY..XY)
26,30 27,50 28,180 35,40
38,80 39,120 40,30 41,320
42,30 43,50 44,210 45,110
47,140 50,40 51,50 52,60
53,130 54,90 55,150 58,30
59,621 60,70 61,591 62,40
63,30 67,270 68,90 69,190
70,30 71,30 73,90 74,100
75,9999 76,821 77,521 78,60
79,180 80,60 81,460 82,110
83,60 85,70 87,50 89,110
94,40 95,30 97,70 99,100
101,220 109,30 111,60 113,200
115,180 125,140 127,240 128,40
129,841 130,90 131,30 135,30
141,130 142,30 143,3874 144,731
145,561 146,60 150,811 151,100
158,70 169,1031 170,270 171,60
211,1191 212,220 213,50 226,490
227,90
##END=
