##TITLE=2-Tripropylsilyloxyoct-3-ene
##JCAMP-DX=4.24
##DATA TYPE=MASS SPECTRUM
##ORIGIN=Zaikin V.G., TIPS RAS, Moscow, Russia
##OWNER=NIST Mass Spectrometry Data Center
Collection (C) 2014 copyright by the U.S. Secretary of Commerce
on behalf of the United States of America. All rights reserved.
##$NIST MASS SPEC NO=299513
##MOLFORM=C17 H36 O Si
##MW=284
##$NIST SOURCE=MSDC
##XUNITS=M/Z
##YUNITS=RELATIVE INTENSITY
##XFACTOR=1
##YFACTOR=1
##FIRSTX=26
##LASTX=284
##FIRSTY=80
##MAXX=284
##MINX=26
##MAXY=9999
##MINY=30
##NPOINTS=91
##PEAK TABLE=(XY..XY)
26,80 27,210 28,60 29,150
39,230 40,70 41,561 42,140
43,350 44,40 45,410 47,601
53,100 54,120 55,581 56,70
57,140 58,30 59,230 60,100
61,1582 62,100 63,60 65,30
66,30 67,290 68,150 69,320
70,120 71,130 72,40 73,531
74,140 75,60 77,40 79,130
80,30 81,240 82,50 83,100
85,90 87,320 88,80 89,5645
90,440 91,220 93,80 94,30
95,100 97,50 99,140 100,30
101,50 103,90 109,70 110,70
111,80 113,160 114,50 115,490
116,60 117,40 127,50 129,60
130,40 131,9999 132,1041 133,360
141,110 143,90 155,240 156,80
157,410 158,50 159,100 171,70
183,50 185,280 186,40 197,110
199,2993 200,470 201,130 227,170
228,30 241,3033 242,581 243,150
269,180 270,30 284,80
##END=
