##TITLE=1,3-Difluoro-5-pentafluorophenyldimethylsilyloxybenzene
##JCAMP-DX=4.24
##DATA TYPE=MASS SPECTRUM
##ORIGIN=Zaikin V.G., TIPS RAS, Moscow, Russia
##OWNER=NIST Mass Spectrometry Data Center
Collection (C) 2014 copyright by the U.S. Secretary of Commerce
on behalf of the United States of America. All rights reserved.
##$NIST MASS SPEC NO=299103
##MOLFORM=C14 H9 F7 O Si
##MW=354
##$NIST SOURCE=MSDC
##XUNITS=M/Z
##YUNITS=RELATIVE INTENSITY
##XFACTOR=1
##YFACTOR=1
##FIRSTX=27
##LASTX=357
##FIRSTY=70
##MAXX=357
##MINX=27
##MAXY=9999
##MINY=10
##NPOINTS=158
##PEAK TABLE=(XY..XY)
27,70 28,10 31,30 39,90
44,120 45,40 47,350 49,260
50,60 51,170 53,100 57,190
61,30 62,80 63,541 64,30
68,30 69,50 74,70 75,470
76,90 77,2673 78,230 79,330
80,70 81,2933 82,290 83,150
85,140 86,30 87,40 91,130
92,40 93,240 94,70 95,130
96,50 97,90 98,50 99,250
100,40 101,210 102,60 105,80
107,40 109,50 110,170 111,110
112,40 113,460 114,70 115,30
117,90 119,130 120,30 123,120
125,771 126,70 127,220 128,30
129,280 130,180 132,40 133,30
135,40 137,90 138,40 139,70
140,20 141,60 143,170 144,30
145,40 147,60 148,40 149,30
156,30 157,250 158,40 159,290
160,40 161,160 162,30 163,280
164,40 165,40 167,110 168,120
169,40 171,50 173,50 175,50
177,30 180,80 181,40 183,30
185,220 186,130 187,521 188,100
189,80 191,761 192,170 193,90
200,30 203,30 204,60 205,120
206,470 210,110 211,6265 212,801
213,50 215,30 219,60 222,30
223,30 224,150 225,220 226,60
229,110 230,150 235,30 236,50
237,140 238,30 239,1231 240,250
241,80 242,90 249,70 253,450
254,60 255,90 258,290 259,40
261,30 271,40 273,40 277,130
289,60 290,40 291,30 295,330
296,50 299,60 319,901 320,210
321,50 324,30 338,60 339,631
340,120 341,30 354,9999 355,2112
356,551 357,60
##END=
