##TITLE=1-(Dimethyldodecylsilyloxy)butane
##JCAMP-DX=4.24
##DATA TYPE=MASS SPECTRUM
##ORIGIN=Zaikin V.G., TIPS RAS, Moscow, Russia
##OWNER=NIST Mass Spectrometry Data Center
Collection (C) 2014 copyright by the U.S. Secretary of Commerce
on behalf of the United States of America. All rights reserved.
##$NIST MASS SPEC NO=299989
##MOLFORM=C18 H40 O Si
##MW=300
##$NIST SOURCE=MSDC
##XUNITS=M/Z
##YUNITS=RELATIVE INTENSITY
##XFACTOR=1
##YFACTOR=1
##FIRSTX=27
##LASTX=287
##FIRSTY=60
##MAXX=287
##MINX=27
##MAXY=9999
##MINY=30
##NPOINTS=46
##PEAK TABLE=(XY..XY)
27,60 28,30 29,90 39,40
41,190 42,70 43,200 45,50
47,30 55,140 56,90 57,130
58,30 59,350 60,30 61,300
69,50 70,40 71,40 73,30
75,1542 76,110 77,60 83,30
85,50 87,70 88,30 89,521
90,40 93,30 97,30 99,80
101,80 113,40 115,120 117,1001
118,110 119,40 131,9999 132,1051
133,380 145,30 157,30 285,1582
286,390 287,100
##END=
