##TITLE=Pentafluorobenzoic acid, 2,6-dimethylnon-1-en-3-yn-5-yl ester
##JCAMP-DX=4.24
##DATA TYPE=MASS SPECTRUM
##ORIGIN=Zaikin V.G., TIPS RAS, Moscow, Russia
##OWNER=NIST Mass Spectrometry Data Center
Collection (C) 2014 copyright by the U.S. Secretary of Commerce
on behalf of the United States of America. All rights reserved.
##$NIST MASS SPEC NO=299188
##MOLFORM=C18 H17 F5 O2
##MW=360
##$NIST SOURCE=MSDC
##XUNITS=M/Z
##YUNITS=RELATIVE INTENSITY
##XFACTOR=1
##YFACTOR=1
##FIRSTX=39
##LASTX=360
##FIRSTY=60
##MAXX=360
##MINX=39
##MAXY=9999
##MINY=20
##NPOINTS=73
##PEAK TABLE=(XY..XY)
39,60 41,130 43,290 44,50
51,40 53,50 55,90 63,30
65,90 66,60 67,60 69,140
71,130 77,240 78,280 79,160
81,50 82,70 83,30 91,440
92,100 93,180 94,40 95,190
96,40 99,80 103,50 104,30
105,280 106,370 107,150 109,60
115,30 117,200 118,30 119,330
120,100 121,40 123,531 124,80
133,490 134,60 136,100 137,100
147,30 148,340 149,60 165,90
167,701 168,330 176,30 177,30
195,9999 196,771 197,40 212,80
232,20 247,110 248,60 250,120
261,130 262,90 275,60 289,100
290,110 303,250 304,40 317,661
318,581 319,90 331,50 345,90
360,80
##END=
