##TITLE=p-Toluic acid, 3-tridecyl ester
##JCAMP-DX=4.24
##DATA TYPE=MASS SPECTRUM
##ORIGIN=Zaikin V.G., TIPS RAS, Moscow, Russia
##OWNER=NIST Mass Spectrometry Data Center
Collection (C) 2014 copyright by the U.S. Secretary of Commerce
on behalf of the United States of America. All rights reserved.
##$NIST MASS SPEC NO=299803
##MOLFORM=C21 H34 O2
##MW=318
##$NIST SOURCE=MSDC
##XUNITS=M/Z
##YUNITS=RELATIVE INTENSITY
##XFACTOR=1
##YFACTOR=1
##FIRSTX=26
##LASTX=213
##FIRSTY=110
##MAXX=213
##MINX=26
##MAXY=9999
##MINY=20
##NPOINTS=76
##PEAK TABLE=(XY..XY)
26,110 27,310 28,250 29,631
38,30 39,380 40,60 41,1451
42,340 43,1461 44,130 50,60
51,90 52,30 53,100 54,200
55,1491 56,881 57,1081 58,50
59,30 63,120 64,40 65,741
66,60 67,290 68,250 69,1121
70,911 71,460 72,50 77,120
79,60 81,190 82,320 83,891
84,561 85,250 89,200 90,220
91,2793 92,330 93,360 94,30
95,100 96,210 97,821 98,330
99,40 105,60 107,70 109,30
110,110 111,430 112,210 118,80
119,9999 120,871 121,60 124,80
125,230 126,130 134,50 135,70
136,741 137,5274 138,460 139,90
140,50 153,60 154,110 177,20
182,591 183,70 199,100 213,20
##END=
