##TITLE=3-Trifluoromethylbenzoic acid, hex-4-yn-3-yl ester
##JCAMP-DX=4.24
##DATA TYPE=MASS SPECTRUM
##ORIGIN=Zaikin V.G., TIPS RAS, Moscow, Russia
##OWNER=NIST Mass Spectrometry Data Center
Collection (C) 2014 copyright by the U.S. Secretary of Commerce
on behalf of the United States of America. All rights reserved.
##$NIST MASS SPEC NO=299322
##MOLFORM=C14 H13 F3 O2
##MW=270
##$NIST SOURCE=MSDC
##XUNITS=M/Z
##YUNITS=RELATIVE INTENSITY
##XFACTOR=1
##YFACTOR=1
##FIRSTX=26
##LASTX=271
##FIRSTY=40
##MAXX=271
##MINX=26
##MAXY=9999
##MINY=30
##NPOINTS=58
##PEAK TABLE=(XY..XY)
26,40 27,210 28,40 29,110
38,40 39,370 40,100 41,490
43,90 44,60 50,170 51,190
52,150 53,511 54,50 55,70
57,70 63,60 65,200 66,110
67,120 69,190 74,50 75,190
76,80 77,390 78,90 79,2953
80,1381 81,480 82,30 95,310
96,50 97,350 119,30 125,220
126,150 127,110 144,70 145,2523
146,220 171,180 172,40 173,9999
174,681 175,40 190,90 191,40
200,50 213,40 227,40 241,460
242,190 251,130 255,801 256,90
270,400 271,50
##END=
