##TITLE=4-(Trifluoromethyl)benzoic acid, oct-3-en-2-yl ester
##JCAMP-DX=4.24
##DATA TYPE=MASS SPECTRUM
##ORIGIN=Zaikin V.G., TIPS RAS, Moscow, Russia
##OWNER=NIST Mass Spectrometry Data Center
Collection (C) 2014 copyright by the U.S. Secretary of Commerce
on behalf of the United States of America. All rights reserved.
##$NIST MASS SPEC NO=299442
##MOLFORM=C16 H19 F3 O2
##MW=300
##$NIST SOURCE=MSDC
##XUNITS=M/Z
##YUNITS=RELATIVE INTENSITY
##XFACTOR=1
##YFACTOR=1
##FIRSTX=27
##LASTX=281
##FIRSTY=100
##MAXX=281
##MINX=27
##MAXY=9999
##MINY=10
##NPOINTS=64
##PEAK TABLE=(XY..XY)
27,100 28,10 29,100 39,160
40,110 41,430 42,60 43,250
44,160 50,60 51,50 52,20
53,210 54,160 55,751 56,60
57,30 65,60 66,50 67,521
68,1451 69,601 70,50 71,130
73,30 75,100 76,40 77,90
79,160 80,30 81,981 82,190
83,30 85,50 95,370 96,60
109,20 110,511 111,140 125,130
126,120 127,701 128,60 143,60
144,50 145,2032 146,190 154,30
171,370 172,50 173,9999 174,841
175,50 190,130 191,70 201,60
202,180 215,40 216,30 243,90
244,50 257,50 258,40 281,80
##END=
