##TITLE=Pentafluorobenzoic acid, 3-chloroprop-2-enyl ester
##JCAMP-DX=4.24
##DATA TYPE=MASS SPECTRUM
##ORIGIN=Zaikin V.G., TIPS RAS, Moscow, Russia
##OWNER=NIST Mass Spectrometry Data Center
Collection (C) 2014 copyright by the U.S. Secretary of Commerce
on behalf of the United States of America. All rights reserved.
##$NIST MASS SPEC NO=299191
##MOLFORM=C10 H4 Cl F5 O2
##MW=286
##$NIST SOURCE=MSDC
##XUNITS=M/Z
##YUNITS=RELATIVE INTENSITY
##XFACTOR=1
##YFACTOR=1
##FIRSTX=26
##LASTX=288
##FIRSTY=30
##MAXX=288
##MINX=26
##MAXY=9999
##MINY=20
##NPOINTS=51
##PEAK TABLE=(XY..XY)
26,30 27,70 29,30 31,40
38,80 39,721 40,40 44,60
49,240 51,60 55,30 61,70
62,30 63,30 73,30 74,170
75,1642 76,100 77,511 79,70
86,30 89,40 91,831 92,30
93,541 98,200 99,110 117,1281
118,80 137,30 148,200 149,30
167,1932 168,330 176,60 177,20
187,40 195,9999 196,771 197,40
203,20 212,30 213,50 223,80
241,140 243,40 251,1842 252,200
257,30 286,140 288,40
##END=
