##TITLE=2-Thiopheneacetic acid, 2,6-dimethylnon-1-en-3-yn-5-yl ester
##JCAMP-DX=4.24
##DATA TYPE=MASS SPECTRUM
##ORIGIN=Zaikin V.G., TIPS RAS, Moscow, Russia
##OWNER=NIST Mass Spectrometry Data Center
Collection (C) 2014 copyright by the U.S. Secretary of Commerce
on behalf of the United States of America. All rights reserved.
##$NIST MASS SPEC NO=299389
##MOLFORM=C17 H22 O2 S
##MW=290
##$NIST SOURCE=MSDC
##XUNITS=M/Z
##YUNITS=RELATIVE INTENSITY
##XFACTOR=1
##YFACTOR=1
##FIRSTX=26
##LASTX=291
##FIRSTY=40
##MAXX=291
##MINX=26
##MAXY=9999
##MINY=20
##NPOINTS=118
##PEAK TABLE=(XY..XY)
26,40 27,150 28,60 29,160
38,30 39,350 40,60 41,691
42,70 43,581 44,240 45,410
47,30 50,90 51,200 52,130
53,631 54,40 55,661 56,40
57,240 58,60 62,40 63,160
64,50 65,340 66,110 67,250
69,1191 70,190 71,150 77,1311
78,260 79,1311 80,120 81,380
82,110 83,190 84,50 89,40
91,1782 92,310 93,2372 94,260
95,440 96,260 97,9999 98,781
99,470 100,30 103,130 104,80
105,911 106,410 107,2643 108,300
109,260 110,40 111,80 115,80
117,100 118,30 119,480 120,160
121,751 122,90 123,280 124,1842
125,220 126,40 129,30 131,30
133,330 134,120 135,60 136,230
137,240 138,30 142,170 143,30
147,60 148,711 149,350 150,50
151,150 161,70 162,220 163,60
164,30 165,230 166,781 167,100
173,40 175,210 176,50 177,40
178,80 179,30 187,20 189,90
190,40 191,90 192,60 193,230
194,30 203,50 205,110 206,50
207,380 208,40 219,140 220,40
247,360 248,160 249,40 275,40
290,400 291,70
##END=
