##TITLE=4-Cyanobenzoic acid, tridecyl ester
##JCAMP-DX=4.24
##DATA TYPE=MASS SPECTRUM
##ORIGIN=Zaikin V.G., TIPS RAS, Moscow, Russia
##OWNER=NIST Mass Spectrometry Data Center
Collection (C) 2014 copyright by the U.S. Secretary of Commerce
on behalf of the United States of America. All rights reserved.
##$NIST MASS SPEC NO=299837
##MOLFORM=C21 H31 N O2
##MW=329
##$NIST SOURCE=MSDC
##XUNITS=M/Z
##YUNITS=RELATIVE INTENSITY
##XFACTOR=1
##YFACTOR=1
##FIRSTX=26
##LASTX=330
##FIRSTY=190
##MAXX=330
##MINX=26
##MAXY=9999
##MINY=20
##NPOINTS=133
##PEAK TABLE=(XY..XY)
26,190 27,601 28,20 29,1351
37,40 38,120 39,651 40,140
41,3794 42,1151 43,4545 44,541
45,30 50,290 51,450 52,120
53,270 54,881 55,5184 56,3493
57,3804 58,140 63,40 65,70
66,80 67,1131 68,1602 69,4915
70,3784 71,1562 72,50 73,80
74,90 75,701 76,541 77,180
78,50 79,170 80,50 81,611
82,1972 83,5034 84,2523 85,851
86,40 91,70 93,30 95,290
96,881 97,3894 98,1592 99,180
101,150 102,4855 103,1191 104,300
105,60 109,100 110,400 111,2052
112,981 113,100 117,50 119,60
123,50 124,190 125,931 126,591
127,50 129,50 130,9999 131,1361
132,140 133,70 138,60 139,240
140,260 141,30 144,70 145,190
146,50 147,521 148,6415 149,1612
150,250 151,70 152,30 153,90
154,891 155,100 158,80 159,160
161,70 173,30 174,30 175,40
176,170 177,40 182,1001 183,120
185,40 188,180 189,300 190,60
191,70 193,40 199,20 202,581
203,280 204,40 215,40 216,170
217,100 230,100 231,30 244,90
245,30 257,30 258,90 259,30
272,120 273,100 282,30 286,150
287,240 288,40 300,200 301,290
302,40 314,50 328,70 329,290
330,50
##END=
