##TITLE=3-Fluorobenzoic acid, 2-methylphenyl ester
##JCAMP-DX=4.24
##DATA TYPE=MASS SPECTRUM
##ORIGIN=Zaikin V.G., TIPS RAS, Moscow, Russia
##OWNER=NIST Mass Spectrometry Data Center
Collection (C) 2014 copyright by the U.S. Secretary of Commerce
on behalf of the United States of America. All rights reserved.
##$NIST MASS SPEC NO=299056
##MOLFORM=C14 H11 F O2
##MW=230
##$NIST SOURCE=MSDC
##XUNITS=M/Z
##YUNITS=RELATIVE INTENSITY
##XFACTOR=1
##YFACTOR=1
##FIRSTX=27
##LASTX=231
##FIRSTY=30
##MAXX=231
##MINX=27
##MAXY=9999
##MINY=30
##NPOINTS=27
##PEAK TABLE=(XY..XY)
27,30 28,30 39,80 50,80
51,120 52,60 53,50 63,40
65,50 69,50 74,50 75,370
76,50 77,280 78,130 79,80
91,30 94,100 95,2282 96,180
107,140 108,100 123,9999 124,621
125,30 230,1201 231,180
##END=
