##TITLE=2-Chlorobenzoic acid, 8-pentadecyl ester
##JCAMP-DX=4.24
##DATA TYPE=MASS SPECTRUM
##ORIGIN=Zaikin V.G., TIPS RAS, Moscow, Russia
##OWNER=NIST Mass Spectrometry Data Center
Collection (C) 2014 copyright by the U.S. Secretary of Commerce
on behalf of the United States of America. All rights reserved.
##$NIST MASS SPEC NO=299827
##MOLFORM=C22 H35 Cl O2
##MW=366
##$NIST SOURCE=MSDC
##XUNITS=M/Z
##YUNITS=RELATIVE INTENSITY
##XFACTOR=1
##YFACTOR=1
##FIRSTX=26
##LASTX=267
##FIRSTY=80
##MAXX=267
##MINX=26
##MAXY=9999
##MINY=20
##NPOINTS=88
##PEAK TABLE=(XY..XY)
26,80 27,180 28,120 29,320
36,150 38,70 39,190 40,40
41,901 42,230 43,991 44,130
50,130 51,100 53,80 54,240
55,1201 56,671 57,1031 58,60
65,50 66,30 67,380 68,270
69,1101 70,741 71,531 72,30
74,60 75,360 76,210 77,240
78,50 79,90 80,30 81,290
82,480 83,1121 84,601 85,370
91,50 93,40 95,180 96,360
97,1191 98,440 99,100 104,180
105,170 109,80 110,300 111,2092
112,531 113,511 114,50 121,60
123,40 124,170 125,480 126,270
127,60 133,40 135,30 138,140
139,9999 140,1011 141,3303 142,250
152,70 153,130 154,230 155,30
156,390 157,2703 158,330 159,891
160,60 166,40 167,90 168,70
181,40 182,210 183,20 210,1722
211,290 227,220 228,30 267,20
##END=
