##TITLE=2,2-Dimethylpropanoic acid, 2,7-dimethyloct-7-en-5-yn-4-yl ester
##JCAMP-DX=4.24
##DATA TYPE=MASS SPECTRUM
##ORIGIN=Zaikin V.G., TIPS RAS, Moscow, Russia
##OWNER=NIST Mass Spectrometry Data Center
Collection (C) 2014 copyright by the U.S. Secretary of Commerce
on behalf of the United States of America. All rights reserved.
##$NIST MASS SPEC NO=299335
##MOLFORM=C15 H24 O2
##MW=236
##$NIST SOURCE=MSDC
##XUNITS=M/Z
##YUNITS=RELATIVE INTENSITY
##XFACTOR=1
##YFACTOR=1
##FIRSTX=26
##LASTX=236
##FIRSTY=80
##MAXX=236
##MINX=26
##MAXY=9999
##MINY=30
##NPOINTS=85
##PEAK TABLE=(XY..XY)
26,80 27,410 28,310 29,781
39,671 40,170 41,2212 42,250
43,1081 44,240 50,120 51,300
52,160 53,310 54,80 55,611
56,270 57,9999 58,430 59,30
62,30 63,140 64,90 65,410
66,160 67,430 68,180 69,340
70,130 71,50 75,30 76,30
77,1071 78,240 79,921 80,140
81,761 82,160 83,120 84,40
85,861 86,50 89,50 90,40
91,2152 92,811 93,1231 94,190
95,1181 96,350 97,160 103,140
104,80 105,531 106,110 107,651
108,130 109,1542 110,671 111,70
115,50 117,180 118,30 119,2993
120,340 121,60 123,170 124,60
133,210 134,430 135,280 136,90
137,460 138,80 151,260 152,571
153,60 179,160 180,360 181,30
193,4955 194,621 195,50 221,30
236,180
##END=
