##TITLE=2-Fluorobenzoic acid, 2-bromo-4-fluorophenyl ester
##JCAMP-DX=4.24
##DATA TYPE=MASS SPECTRUM
##ORIGIN=Zaikin V.G., TIPS RAS, Moscow, Russia
##OWNER=NIST Mass Spectrometry Data Center
Collection (C) 2014 copyright by the U.S. Secretary of Commerce
on behalf of the United States of America. All rights reserved.
##$NIST MASS SPEC NO=299047
##MOLFORM=C13 H7 Br F2 O2
##MW=312
##$NIST SOURCE=MSDC
##XUNITS=M/Z
##YUNITS=RELATIVE INTENSITY
##XFACTOR=1
##YFACTOR=1
##FIRSTX=28
##LASTX=314
##FIRSTY=30
##MAXX=314
##MINX=28
##MAXY=9999
##MINY=30
##NPOINTS=34
##PEAK TABLE=(XY..XY)
28,30 50,90 51,50 56,30
57,60 62,30 63,60 68,60
69,100 74,80 75,571 76,50
81,120 82,150 83,40 93,30
94,170 95,1512 96,130 110,40
122,30 123,9999 124,641 125,40
161,120 163,120 189,30 190,80
191,40 192,80 204,30 262,30
312,90 314,80
##END=
