##TITLE=Isonicotinic acid, 3-tridecyl ester
##JCAMP-DX=4.24
##DATA TYPE=MASS SPECTRUM
##ORIGIN=Zaikin V.G., TIPS RAS, Moscow, Russia
##OWNER=NIST Mass Spectrometry Data Center
Collection (C) 2014 copyright by the U.S. Secretary of Commerce
on behalf of the United States of America. All rights reserved.
##$NIST MASS SPEC NO=299894
##MOLFORM=C19 H31 N O2
##MW=305
##$NIST SOURCE=MSDC
##XUNITS=M/Z
##YUNITS=RELATIVE INTENSITY
##XFACTOR=1
##YFACTOR=1
##FIRSTX=26
##LASTX=306
##FIRSTY=100
##MAXX=306
##MINX=26
##MAXY=9999
##MINY=30
##NPOINTS=108
##PEAK TABLE=(XY..XY)
26,100 27,120 28,50 29,120
35,60 36,430 38,120 39,130
40,30 41,521 42,130 43,521
44,350 50,130 51,410 52,130
53,80 54,140 55,831 56,400
57,561 58,30 67,280 68,210
69,781 70,521 71,350 73,40
77,120 78,1712 79,470 80,140
81,250 82,310 83,741 84,410
85,210 91,30 93,150 95,170
96,220 97,761 98,280 99,50
105,90 106,9999 107,1491 108,110
109,70 110,120 111,400 112,190
120,230 121,370 122,110 123,551
124,8868 125,1041 126,120 134,160
135,60 136,60 137,70 138,40
139,60 140,50 148,50 149,100
150,70 151,40 153,50 154,120
162,90 163,50 164,501 165,130
176,110 177,50 178,70 179,40
180,30 182,290 183,30 190,140
191,70 192,40 193,30 204,110
205,210 206,70 218,60 219,50
220,60 232,50 234,70 246,90
247,40 248,220 249,90 261,2142
262,551 263,70 276,470 277,80
290,80 304,110 305,340 306,70
##END=
