##TITLE=3-Bromobenzoic acid, pent-2-en-4-ynyl ester
##JCAMP-DX=4.24
##DATA TYPE=MASS SPECTRUM
##ORIGIN=Zaikin V.G., TIPS RAS, Moscow, Russia
##OWNER=NIST Mass Spectrometry Data Center
Collection (C) 2014 copyright by the U.S. Secretary of Commerce
on behalf of the United States of America. All rights reserved.
##$NIST MASS SPEC NO=299141
##MOLFORM=C12 H9 Br O2
##MW=264
##$NIST SOURCE=MSDC
##XUNITS=M/Z
##YUNITS=RELATIVE INTENSITY
##XFACTOR=1
##YFACTOR=1
##FIRSTX=26
##LASTX=266
##FIRSTY=70
##MAXX=266
##MINX=26
##MAXY=9999
##MINY=20
##NPOINTS=54
##PEAK TABLE=(XY..XY)
26,70 27,100 28,20 37,50
38,180 39,1071 40,40 44,120
49,60 50,881 51,320 52,120
53,110 61,30 62,100 63,531
64,320 65,1451 66,80 73,30
74,320 75,1181 76,1431 77,310
78,60 79,70 80,110 81,130
82,110 104,230 105,70 109,531
110,30 115,110 127,30 128,70
129,120 131,40 139,90 140,90
141,130 155,1972 156,190 157,1962
158,160 183,9999 184,731 185,9969
186,701 187,30 200,210 202,200
264,210 266,200
##END=
