##TITLE=5-Bromovaleric acid, 5-tetradecyl ester
##JCAMP-DX=4.24
##DATA TYPE=MASS SPECTRUM
##ORIGIN=Zaikin V.G., TIPS RAS, Moscow, Russia
##OWNER=NIST Mass Spectrometry Data Center
Collection (C) 2014 copyright by the U.S. Secretary of Commerce
on behalf of the United States of America. All rights reserved.
##$NIST MASS SPEC NO=299931
##MOLFORM=C19 H37 Br O2
##MW=376
##$NIST SOURCE=MSDC
##XUNITS=M/Z
##YUNITS=RELATIVE INTENSITY
##XFACTOR=1
##YFACTOR=1
##FIRSTX=26
##LASTX=321
##FIRSTY=130
##MAXX=321
##MINX=26
##MAXY=9999
##MINY=20
##NPOINTS=101
##PEAK TABLE=(XY..XY)
26,130 27,410 28,290 29,721
36,30 39,310 40,70 41,1471
42,450 43,1712 44,190 45,50
53,140 54,340 55,4014 56,1311
57,2052 58,150 59,80 66,30
67,380 68,340 69,1622 70,1181
71,1181 72,70 73,160 79,100
80,120 81,340 82,631 83,1802
84,891 85,911 86,60 91,110
93,40 95,170 96,370 97,1381
98,591 99,390 100,110 101,1181
102,60 107,60 109,130 110,290
111,861 112,501 113,150 119,681
120,40 121,200 123,30 124,180
125,581 126,290 127,100 135,1762
136,100 137,1742 138,220 139,400
140,190 141,240 152,50 153,110
154,130 155,320 156,50 162,30
163,9999 164,581 165,9829 166,541
167,90 168,280 169,40 178,210
179,80 180,370 181,591 182,180
183,501 194,40 196,2412 197,430
198,30 210,40 211,310 212,40
213,120 249,290 250,30 251,280
291,30 292,20 293,20 319,90
321,90
##END=
