##TITLE=4-Dimethyldodecylsilyloxy-2-methyloct-5-yne
##JCAMP-DX=4.24
##DATA TYPE=MASS SPECTRUM
##ORIGIN=Zaikin V.G., TIPS RAS, Moscow, Russia
##OWNER=NIST Mass Spectrometry Data Center
Collection (C) 2014 copyright by the U.S. Secretary of Commerce
on behalf of the United States of America. All rights reserved.
##$NIST MASS SPEC NO=299554
##MOLFORM=C23 H46 O Si
##MW=366
##$NIST SOURCE=MSDC
##XUNITS=M/Z
##YUNITS=RELATIVE INTENSITY
##XFACTOR=1
##YFACTOR=1
##FIRSTX=25
##LASTX=366
##FIRSTY=10
##MAXX=366
##MINX=25
##MAXY=9999
##MINY=10
##NPOINTS=147
##PEAK TABLE=(XY..XY)
25,10 26,90 27,230 29,300
31,10 36,20 37,10 38,30
39,260 40,60 41,771 42,240
43,931 44,80 45,80 47,80
50,20 51,40 52,30 53,100
54,80 55,440 56,250 57,400
58,60 59,2122 60,170 61,571
62,30 63,30 65,50 66,30
67,160 68,50 69,350 70,150
71,110 72,40 73,280 74,70
75,3163 76,230 77,220 78,30
79,190 80,40 81,260 82,40
83,220 84,70 85,250 86,40
87,230 88,20 89,50 91,100
92,10 93,90 94,10 95,100
96,60 97,661 98,100 99,430
100,40 101,250 102,20 103,60
105,30 107,80 108,10 109,80
110,60 111,4735 112,591 113,511
114,50 115,100 116,10 117,10
119,10 121,130 122,40 123,220
124,30 125,380 126,80 127,460
128,60 129,140 130,10 135,10
137,60 138,10 139,270 140,100
141,9999 142,1251 143,1271 144,130
145,80 151,20 153,110 154,50
155,490 156,80 157,40 165,20
167,140 168,30 169,120 170,10
171,10 179,20 181,110 182,20
183,841 184,130 185,40 195,30
196,10 197,7216 198,1231 199,350
200,30 211,10 223,40 224,10
225,10 227,120 228,20 229,20
237,20 265,20 279,10 297,30
309,2012 310,541 311,130 312,20
337,250 338,60 339,10 351,90
352,20 365,10 366,10
##END=
