##TITLE=Phenylacetic acid, 2-methylphenyl ester
##JCAMP-DX=4.24
##DATA TYPE=MASS SPECTRUM
##ORIGIN=Zaikin V.G., TIPS RAS, Moscow, Russia
##OWNER=NIST Mass Spectrometry Data Center
Collection (C) 2014 copyright by the U.S. Secretary of Commerce
on behalf of the United States of America. All rights reserved.
##$NIST MASS SPEC NO=299004
##MOLFORM=C15 H14 O2
##MW=226
##$NIST SOURCE=MSDC
##XUNITS=M/Z
##YUNITS=RELATIVE INTENSITY
##XFACTOR=1
##YFACTOR=1
##FIRSTX=26
##LASTX=226
##FIRSTY=40
##MAXX=226
##MINX=26
##MAXY=9999
##MINY=30
##NPOINTS=33
##PEAK TABLE=(XY..XY)
26,40 27,50 28,30 38,30
39,300 40,30 41,70 44,40
50,100 51,230 52,110 53,90
62,60 63,240 64,80 65,851
66,50 77,460 78,200 79,160
80,40 89,410 90,781 91,7306
92,561 107,420 108,1041 109,80
118,9999 119,821 120,50 136,50
226,70
##END=
