##TITLE=l-Phenylalanine, N-(5-chlorovaleryl)-, methyl ester
##JCAMP-DX=4.24
##DATA TYPE=MASS SPECTRUM
##ORIGIN=Zaikin V.G., TIPS RAS, Moscow, Russia
##OWNER=NIST Mass Spectrometry Data Center
Collection (C) 2014 copyright by the U.S. Secretary of Commerce
on behalf of the United States of America. All rights reserved.
##$NIST MASS SPEC NO=299719
##MOLFORM=C15 H20 Cl N O3
##MW=297
##$NIST SOURCE=MSDC
##XUNITS=M/Z
##YUNITS=RELATIVE INTENSITY
##XFACTOR=1
##YFACTOR=1
##FIRSTX=26
##LASTX=297
##FIRSTY=40
##MAXX=297
##MINX=26
##MAXY=9999
##MINY=30
##NPOINTS=79
##PEAK TABLE=(XY..XY)
26,40 27,120 28,70 29,190
33,40 36,110 38,30 39,140
41,160 42,70 43,40 44,130
49,30 50,40 51,80 52,30
53,90 54,40 55,1552 56,100
57,40 59,110 60,30 62,30
63,140 65,300 77,240 78,100
79,30 83,70 84,30 85,30
88,2272 89,210 90,100 91,2593
92,350 93,400 100,70 101,50
102,100 103,400 104,180 105,50
107,30 110,30 116,40 117,250
118,260 119,1692 120,2993 121,811
122,40 128,120 130,100 131,1832
132,200 133,30 134,50 144,100
146,140 147,60 161,1011 162,9999
163,1141 164,100 170,330 171,30
178,470 179,40 180,210 202,90
206,50 237,30 238,330 239,60
240,100 262,50 297,40
##END=
