##TITLE=trans-3-(Trifluoromethyl)cinnamic acid, tetradecyl ester
##JCAMP-DX=4.24
##DATA TYPE=MASS SPECTRUM
##ORIGIN=Zaikin V.G., TIPS RAS, Moscow, Russia
##OWNER=NIST Mass Spectrometry Data Center
Collection (C) 2014 copyright by the U.S. Secretary of Commerce
on behalf of the United States of America. All rights reserved.
##$NIST MASS SPEC NO=299876
##MOLFORM=C24 H35 F3 O2
##MW=412
##$NIST SOURCE=MSDC
##XUNITS=M/Z
##YUNITS=RELATIVE INTENSITY
##XFACTOR=1
##YFACTOR=1
##FIRSTX=26
##LASTX=413
##FIRSTY=170
##MAXX=413
##MINX=26
##MAXY=9999
##MINY=10
##NPOINTS=134
##PEAK TABLE=(XY..XY)
26,170 27,340 28,10 29,731
36,40 38,30 39,350 40,80
41,1952 42,611 43,2743 44,260
50,100 51,100 52,30 53,120
54,531 55,3003 56,1632 57,2362
58,90 63,40 66,70 67,731
68,991 69,2933 70,1612 71,1111
72,50 73,150 74,50 75,110
76,70 77,60 79,60 80,30
81,410 82,1191 83,2663 84,991
85,501 86,20 91,50 95,310
96,781 97,2282 98,621 99,120
100,50 101,80 102,370 103,90
109,180 110,360 111,1201 112,410
113,90 119,60 120,100 121,30
123,130 124,250 125,571 126,260
127,100 131,80 133,50 137,110
138,180 139,200 140,150 141,30
145,220 146,70 147,470 148,50
151,2032 152,310 153,70 154,60
159,150 165,30 166,110 167,30
168,240 169,180 170,370 171,2152
172,921 173,130 175,70 179,40
180,60 181,150 185,30 186,40
188,100 194,691 195,160 196,240
197,1261 198,400 199,8668 200,1001
201,100 211,40 212,30 213,110
214,50 215,1862 216,8898 217,9999
218,1311 219,140 221,110 230,60
239,50 243,40 244,30 253,130
254,30 257,991 258,150 271,901
272,160 282,30 295,30 341,30
352,20 355,120 356,40 393,20
412,631 413,190
##END=
