##TITLE=1-Tributylsilyloxypent-2-en-4-yne
##JCAMP-DX=4.24
##DATA TYPE=MASS SPECTRUM
##ORIGIN=Zaikin V.G., TIPS RAS, Moscow, Russia
##OWNER=NIST Mass Spectrometry Data Center
Collection (C) 2014 copyright by the U.S. Secretary of Commerce
on behalf of the United States of America. All rights reserved.
##$NIST MASS SPEC NO=299541
##MOLFORM=C17 H32 O Si
##MW=280
##$NIST SOURCE=MSDC
##XUNITS=M/Z
##YUNITS=RELATIVE INTENSITY
##XFACTOR=1
##YFACTOR=1
##FIRSTX=25
##LASTX=227
##FIRSTY=20
##MAXX=227
##MINX=25
##MAXY=9999
##MINY=10
##NPOINTS=148
##PEAK TABLE=(XY..XY)
25,20 26,150 27,230 29,280
31,20 39,571 40,70 41,561
42,80 43,230 44,60 45,851
46,50 47,450 48,20 49,20
50,40 51,40 52,40 53,90
54,50 55,541 56,180 57,300
58,70 59,1021 60,150 61,721
62,60 63,80 64,30 65,1572
66,270 67,551 68,40 69,340
70,50 71,240 72,50 73,370
74,140 75,250 76,60 77,100
78,50 79,110 80,40 81,400
82,70 83,1221 84,240 85,971
86,110 87,490 88,80 89,30
91,90 92,10 93,80 94,40
95,310 96,60 97,350 98,80
99,400 100,40 101,841 102,100
103,310 104,30 105,60 106,10
107,90 108,40 109,921 110,440
111,9999 112,1191 113,681 114,50
115,60 117,60 119,70 120,10
121,110 122,20 123,250 124,190
125,711 126,150 127,190 128,20
129,50 130,10 131,10 133,110
134,10 135,80 136,20 137,1131
138,240 139,851 140,180 141,360
142,60 143,621 144,80 145,30
147,40 149,150 150,20 151,60
152,20 153,70 154,10 155,50
157,150 158,20 159,90 160,10
163,10 165,160 166,50 167,8658
168,3363 169,881 170,150 171,20
173,10 177,10 179,20 181,50
182,10 183,10 193,781 194,150
195,110 196,50 197,70 198,10
199,130 200,20 209,50 223,8007
224,1702 225,470 226,50 227,10
##END=
