##TITLE=Trichloroacetic acid, 2,6-dimethylnon-1-en-3-yn-5-yl ester
##JCAMP-DX=4.24
##DATA TYPE=MASS SPECTRUM
##ORIGIN=Zaikin V.G., TIPS RAS, Moscow, Russia
##OWNER=NIST Mass Spectrometry Data Center
Collection (C) 2014 copyright by the U.S. Secretary of Commerce
on behalf of the United States of America. All rights reserved.
##$NIST MASS SPEC NO=299260
##MOLFORM=C13 H17 Cl3 O2
##MW=310
##$NIST SOURCE=MSDC
##XUNITS=M/Z
##YUNITS=RELATIVE INTENSITY
##XFACTOR=1
##YFACTOR=1
##FIRSTX=26
##LASTX=285
##FIRSTY=190
##MAXX=285
##MINX=26
##MAXY=9999
##MINY=10
##NPOINTS=186
##PEAK TABLE=(XY..XY)
26,190 27,1081 28,10 29,1181
35,200 36,1261 37,110 38,521
39,1752 40,420 41,3624 42,480
43,9999 44,971 45,30 47,170
48,50 49,70 50,290 51,841
52,581 53,1041 54,110 55,2102
56,140 57,370 58,20 61,30
62,120 63,561 64,200 65,1431
66,711 67,1491 68,120 69,2462
70,601 71,4204 72,220 73,60
74,70 75,110 76,130 77,3423
78,4014 79,2643 80,350 81,741
82,1341 83,621 84,310 85,270
86,50 87,90 89,180 90,60
91,5394 92,1051 93,3203 94,541
95,3363 96,300 97,50 99,50
102,60 103,490 104,250 105,2833
106,3684 107,3193 108,400 109,531
110,941 111,80 112,541 113,230
114,170 115,320 116,100 117,3874
118,160 119,6165 120,741 121,1922
122,621 123,8097 124,881 125,80
126,30 127,100 128,40 129,140
130,60 131,140 132,50 133,3433
134,440 135,220 136,100 137,170
139,90 140,80 141,190 142,80
143,70 144,20 145,30 146,20
147,410 148,1161 149,641 150,90
151,100 153,30 155,30 156,30
157,50 161,80 163,80 164,30
165,240 169,100 170,40 171,70
172,30 173,30 175,80 176,90
177,170 178,70 179,100 181,100
183,50 189,621 190,50 191,440
192,40 193,130 195,30 197,60
199,20 203,60 204,30 205,1031
206,110 207,1001 208,140 209,180
211,110 213,100 215,90 217,160
219,110 221,20 232,40 233,200
234,60 235,130 239,170 240,190
241,190 242,180 243,70 244,90
246,30 253,400 254,50 255,430
256,50 257,150 267,390 268,1872
269,551 270,1742 271,300 272,591
273,50 274,60 275,400 276,50
277,260 278,30 279,30 281,160
283,110 285,30
##END=
