##TITLE=Benzamide, N-(4-bromophenyl)-3-trifluoromethyl-
##JCAMP-DX=4.24
##DATA TYPE=MASS SPECTRUM
##ORIGIN=Zaikin V.G., TIPS RAS, Moscow, Russia
##OWNER=NIST Mass Spectrometry Data Center
Collection (C) 2014 copyright by the U.S. Secretary of Commerce
on behalf of the United States of America. All rights reserved.
##$NIST MASS SPEC NO=306938
##MOLFORM=C14 H9 Br F3 N O
##MW=343
##$NIST SOURCE=MSDC
##XUNITS=M/Z
##YUNITS=RELATIVE INTENSITY
##XFACTOR=1
##YFACTOR=1
##FIRSTX=28
##LASTX=346
##FIRSTY=10
##MAXX=346
##MINX=28
##MAXY=9999
##MINY=10
##NPOINTS=39
##PEAK TABLE=(XY..XY)
28,10 39,40 50,70 51,30
62,30 63,140 64,110 65,70
74,30 75,140 76,70 90,60
91,230 92,50 95,240 119,50
125,180 126,170 143,110 144,70
145,3603 146,280 170,40 171,100
172,100 173,9999 174,741 175,40
235,20 263,80 264,30 310,80
324,120 325,290 326,170 343,2182
344,340 345,2172 346,320
##END=
