##TITLE=Benzamide, N-(4-fluorophenyl)-4-butyl-
##JCAMP-DX=4.24
##DATA TYPE=MASS SPECTRUM
##ORIGIN=Zaikin V.G., TIPS RAS, Moscow, Russia
##OWNER=NIST Mass Spectrometry Data Center
Collection (C) 2014 copyright by the U.S. Secretary of Commerce
on behalf of the United States of America. All rights reserved.
##$NIST MASS SPEC NO=306990
##MOLFORM=C17 H18 F N O
##MW=271
##$NIST SOURCE=MSDC
##XUNITS=M/Z
##YUNITS=RELATIVE INTENSITY
##XFACTOR=1
##YFACTOR=1
##FIRSTX=27
##LASTX=273
##FIRSTY=30
##MAXX=273
##MINX=27
##MAXY=9999
##MINY=30
##NPOINTS=37
##PEAK TABLE=(XY..XY)
27,30 29,30 39,40 41,70
51,30 55,60 63,40 65,120
77,130 78,50 79,40 83,90
84,40 89,160 90,430 91,1101
92,100 103,110 104,80 105,110
110,50 111,130 115,60 116,30
117,30 118,350 119,50 131,90
133,90 159,40 161,9999 162,961
163,70 228,70 271,1561 272,290
273,30
##END=
