##TITLE=Butanamide, N-(3-chlorophenyl)-
##JCAMP-DX=4.24
##DATA TYPE=MASS SPECTRUM
##ORIGIN=Zaikin V.G., TIPS RAS, Moscow, Russia
##OWNER=NIST Mass Spectrometry Data Center
Collection (C) 2014 copyright by the U.S. Secretary of Commerce
on behalf of the United States of America. All rights reserved.
##$NIST MASS SPEC NO=306914
##MOLFORM=C10 H12 Cl N O
##MW=197
##$NIST SOURCE=MSDC
##XUNITS=M/Z
##YUNITS=RELATIVE INTENSITY
##XFACTOR=1
##YFACTOR=1
##FIRSTX=27
##LASTX=200
##FIRSTY=270
##MAXX=200
##MINX=27
##MAXY=9999
##MINY=10
##NPOINTS=53
##PEAK TABLE=(XY..XY)
27,270 28,10 36,40 38,40
39,180 41,440 42,60 43,1611
44,50 50,40 51,40 52,30
55,90 62,40 63,180 64,130
65,210 70,30 71,891 72,40
73,80 74,30 75,190 76,40
77,30 90,110 91,170 92,220
93,50 99,270 100,110 101,90
102,40 111,260 113,80 125,50
126,170 127,9999 128,681 129,2853
130,200 140,30 153,80 154,130
155,30 156,40 168,30 169,40
182,30 197,1832 198,220 199,591
200,60
##END=
