##TITLE=Benzamide, N-(2-iodo-4-methylphenyl)-2-chloro-
##JCAMP-DX=4.24
##DATA TYPE=MASS SPECTRUM
##ORIGIN=Zaikin V.G., TIPS RAS, Moscow, Russia
##OWNER=NIST Mass Spectrometry Data Center
Collection (C) 2014 copyright by the U.S. Secretary of Commerce
on behalf of the United States of America. All rights reserved.
##$NIST MASS SPEC NO=306985
##MOLFORM=C14 H11 Cl I N O
##MW=371
##$NIST SOURCE=MSDC
##XUNITS=M/Z
##YUNITS=RELATIVE INTENSITY
##XFACTOR=1
##YFACTOR=1
##FIRSTX=28
##LASTX=374
##FIRSTY=20
##MAXX=374
##MINX=28
##MAXY=9999
##MINY=20
##NPOINTS=54
##PEAK TABLE=(XY..XY)
28,20 36,50 39,50 50,110
51,170 52,80 63,60 65,20
74,50 75,390 76,190 77,340
78,230 79,70 85,30 89,60
90,60 91,30 103,40 104,360
105,290 106,70 107,30 110,30
111,1531 112,150 113,500 114,40
119,60 127,80 128,150 135,40
138,40 139,9999 140,691 141,3393
142,230 152,30 180,100 181,30
208,90 209,140 232,140 233,180
234,140 243,30 244,70 245,70
246,30 258,20 371,6186 372,911
373,2092 374,300
##END=
