##TITLE=Pentanamide, N-(4-fluorophenyl)-
##JCAMP-DX=4.24
##DATA TYPE=MASS SPECTRUM
##ORIGIN=Zaikin V.G., TIPS RAS, Moscow, Russia
##OWNER=NIST Mass Spectrometry Data Center
Collection (C) 2014 copyright by the U.S. Secretary of Commerce
on behalf of the United States of America. All rights reserved.
##$NIST MASS SPEC NO=306890
##MOLFORM=C11 H14 F N O
##MW=195
##$NIST SOURCE=MSDC
##XUNITS=M/Z
##YUNITS=RELATIVE INTENSITY
##XFACTOR=1
##YFACTOR=1
##FIRSTX=27
##LASTX=196
##FIRSTY=130
##MAXX=196
##MINX=27
##MAXY=9999
##MINY=30
##NPOINTS=35
##PEAK TABLE=(XY..XY)
27,130 28,140 29,370 39,90
41,390 42,30 55,160 56,30
57,901 58,40 63,40 64,30
75,80 81,30 82,50 83,400
84,230 85,330 93,40 95,180
96,30 109,140 110,400 111,9999
112,591 124,40 137,70 138,140
152,50 153,440 154,40 166,40
194,30 195,1161 196,150
##END=
