##TITLE=Butanamide, N-(2,5-dimethoxyphenyl)-
##JCAMP-DX=4.24
##DATA TYPE=MASS SPECTRUM
##ORIGIN=Zaikin V.G., TIPS RAS, Moscow, Russia
##OWNER=NIST Mass Spectrometry Data Center
Collection (C) 2014 copyright by the U.S. Secretary of Commerce
on behalf of the United States of America. All rights reserved.
##$NIST MASS SPEC NO=306917
##MOLFORM=C12 H17 N O3
##MW=223
##$NIST SOURCE=MSDC
##XUNITS=M/Z
##YUNITS=RELATIVE INTENSITY
##XFACTOR=1
##YFACTOR=1
##FIRSTX=27
##LASTX=225
##FIRSTY=140
##MAXX=225
##MINX=27
##MAXY=9999
##MINY=20
##NPOINTS=62
##PEAK TABLE=(XY..XY)
27,140 28,40 39,100 41,250
42,30 43,601 51,70 52,110
53,60 54,20 55,80 63,30
65,70 66,30 67,60 68,80
69,60 70,30 71,180 77,50
78,40 79,160 80,70 82,40
90,30 92,80 93,90 94,50
95,220 96,20 106,30 107,130
108,70 109,90 110,360 111,60
122,140 123,80 124,70 125,100
136,70 137,30 138,9999 139,751
140,60 150,170 151,60 152,110
153,5865 154,540 155,40 163,40
164,210 165,380 166,40 179,70
180,110 192,150 208,50 223,5925
224,731 225,80
##END=
