##TITLE=Benzamide, N-(2,5-dimethoxyphenyl)-4-butyl-
##JCAMP-DX=4.24
##DATA TYPE=MASS SPECTRUM
##ORIGIN=Zaikin V.G., TIPS RAS, Moscow, Russia
##OWNER=NIST Mass Spectrometry Data Center
Collection (C) 2014 copyright by the U.S. Secretary of Commerce
on behalf of the United States of America. All rights reserved.
##$NIST MASS SPEC NO=306995
##MOLFORM=C19 H23 N O3
##MW=313
##$NIST SOURCE=MSDC
##XUNITS=M/Z
##YUNITS=RELATIVE INTENSITY
##XFACTOR=1
##YFACTOR=1
##FIRSTX=28
##LASTX=315
##FIRSTY=10
##MAXX=315
##MINX=28
##MAXY=9999
##MINY=10
##NPOINTS=50
##PEAK TABLE=(XY..XY)
28,10 39,30 41,50 55,60
65,80 77,90 78,30 79,60
89,80 90,310 91,1011 92,110
93,40 95,30 103,80 104,70
105,110 107,30 109,30 115,40
116,30 117,30 118,290 119,100
122,30 123,40 124,30 125,40
131,120 133,90 135,30 138,140
139,30 151,40 152,50 153,40
154,50 159,90 161,9999 162,981
163,70 238,20 242,30 270,40
282,300 283,90 298,90 313,4984
314,971 315,120
##END=
