##TITLE=Octanamide, N-(1-naphthyl)-
##JCAMP-DX=4.24
##DATA TYPE=MASS SPECTRUM
##ORIGIN=Zaikin V.G., TIPS RAS, Moscow, Russia
##OWNER=NIST Mass Spectrometry Data Center
Collection (C) 2014 copyright by the U.S. Secretary of Commerce
on behalf of the United States of America. All rights reserved.
##$NIST MASS SPEC NO=306931
##MOLFORM=C18 H23 N O
##MW=269
##$NIST SOURCE=MSDC
##XUNITS=M/Z
##YUNITS=RELATIVE INTENSITY
##XFACTOR=1
##YFACTOR=1
##FIRSTX=27
##LASTX=270
##FIRSTY=60
##MAXX=270
##MINX=27
##MAXY=9999
##MINY=20
##NPOINTS=32
##PEAK TABLE=(XY..XY)
27,60 28,40 29,110 39,50
41,220 42,40 43,210 55,170
57,330 89,40 113,20 114,60
115,731 116,200 117,40 126,40
127,190 128,50 140,80 141,110
142,180 143,9999 144,1171 145,70
169,80 170,60 184,90 185,100
198,30 233,50 269,1321 270,260
##END=
