##TITLE=Benzamide, N-(3-methylphenyl)-4-butyl-
##JCAMP-DX=4.24
##DATA TYPE=MASS SPECTRUM
##ORIGIN=Zaikin V.G., TIPS RAS, Moscow, Russia
##OWNER=NIST Mass Spectrometry Data Center
Collection (C) 2014 copyright by the U.S. Secretary of Commerce
on behalf of the United States of America. All rights reserved.
##$NIST MASS SPEC NO=306991
##MOLFORM=C18 H21 N O
##MW=267
##$NIST SOURCE=MSDC
##XUNITS=M/Z
##YUNITS=RELATIVE INTENSITY
##XFACTOR=1
##YFACTOR=1
##FIRSTX=27
##LASTX=269
##FIRSTY=30
##MAXX=269
##MINX=27
##MAXY=9999
##MINY=30
##NPOINTS=36
##PEAK TABLE=(XY..XY)
27,30 39,40 41,60 51,30
55,60 63,30 65,120 77,180
78,70 79,90 89,140 90,390
91,1061 92,100 103,100 104,90
105,110 106,120 107,150 115,50
116,30 117,30 118,300 119,50
131,90 132,50 133,80 159,40
161,9999 162,981 163,60 196,50
224,60 267,2322 268,440 269,40
##END=
