##TITLE=Benzamide, N-(2,5-dimethoxyphenyl)-4-methyl-
##JCAMP-DX=4.24
##DATA TYPE=MASS SPECTRUM
##ORIGIN=Zaikin V.G., TIPS RAS, Moscow, Russia
##OWNER=NIST Mass Spectrometry Data Center
Collection (C) 2014 copyright by the U.S. Secretary of Commerce
on behalf of the United States of America. All rights reserved.
##$NIST MASS SPEC NO=306961
##MOLFORM=C16 H17 N O3
##MW=271
##$NIST SOURCE=MSDC
##XUNITS=M/Z
##YUNITS=RELATIVE INTENSITY
##XFACTOR=1
##YFACTOR=1
##FIRSTX=28
##LASTX=273
##FIRSTY=20
##MAXX=273
##MINX=28
##MAXY=9999
##MINY=20
##NPOINTS=41
##PEAK TABLE=(XY..XY)
28,20 39,70 41,30 51,40
52,50 63,50 65,370 66,30
68,20 79,50 89,100 90,130
91,2052 92,180 93,40 95,40
107,40 109,30 118,60 119,9999
120,751 121,50 122,40 123,40
125,40 136,30 138,170 139,40
151,40 152,40 153,50 154,60
225,30 239,40 240,350 241,80
256,250 257,40 271,5625 272,891
273,100
##END=
