##TITLE=Cyclohexanecarboxamide, N-(4-bromophenyl)-
##JCAMP-DX=4.24
##DATA TYPE=MASS SPECTRUM
##ORIGIN=Zaikin V.G., TIPS RAS, Moscow, Russia
##OWNER=NIST Mass Spectrometry Data Center
Collection (C) 2014 copyright by the U.S. Secretary of Commerce
on behalf of the United States of America. All rights reserved.
##$NIST MASS SPEC NO=306949
##MOLFORM=C13 H16 Br N O
##MW=281
##$NIST SOURCE=MSDC
##XUNITS=M/Z
##YUNITS=RELATIVE INTENSITY
##XFACTOR=1
##YFACTOR=1
##FIRSTX=26
##LASTX=285
##FIRSTY=60
##MAXX=285
##MINX=26
##MAXY=9999
##MINY=20
##NPOINTS=82
##PEAK TABLE=(XY..XY)
26,60 27,240 28,80 29,210
36,30 38,50 39,430 40,70
41,1311 42,80 43,110 44,60
50,90 51,70 52,60 53,230
54,230 55,3143 56,150 57,30
62,40 63,270 64,210 65,430
66,80 67,410 68,70 69,70
74,20 75,110 76,140 77,110
78,30 79,140 80,100 81,290
82,160 83,7247 84,480 90,200
91,581 92,591 93,280 109,50
110,280 111,801 112,60 117,90
119,60 123,30 130,120 131,30
143,170 144,30 145,180 146,40
155,140 157,130 169,50 170,310
171,9999 172,1031 173,9789 174,701
184,70 186,40 197,170 198,100
199,170 200,90 210,70 212,60
213,40 215,30 226,150 228,140
280,20 281,2472 282,400 283,2422
284,360 285,20
##END=
