##TITLE=Pentanoic acid, morpholide
##JCAMP-DX=4.24
##DATA TYPE=MASS SPECTRUM
##ORIGIN=Zaikin V.G., TIPS RAS, Moscow, Russia
##OWNER=NIST Mass Spectrometry Data Center
Collection (C) 2014 copyright by the U.S. Secretary of Commerce
on behalf of the United States of America. All rights reserved.
##$NIST MASS SPEC NO=306888
##MOLFORM=C9 H17 N O2
##MW=171
##$NIST SOURCE=MSDC
##XUNITS=M/Z
##YUNITS=RELATIVE INTENSITY
##XFACTOR=1
##YFACTOR=1
##FIRSTX=26
##LASTX=172
##FIRSTY=100
##MAXX=172
##MINX=26
##MAXY=9999
##MINY=30
##NPOINTS=53
##PEAK TABLE=(XY..XY)
26,100 27,490 28,410 29,1021
30,250 31,40 36,30 39,220
40,50 41,1021 42,881 43,320
44,370 45,130 53,60 54,130
55,851 56,2042 57,6546 58,460
59,90 68,40 69,170 70,1201
71,100 72,520 73,40 83,80
84,130 85,1521 86,4394 87,2772
88,891 89,40 98,300 99,721
100,170 101,130 112,230 113,70
114,1441 115,100 126,130 128,230
129,9999 130,641 131,50 142,1221
143,170 156,320 170,80 171,941
172,170
##END=
