##TITLE=Cyclohexanecarboxamide, N-(4-fluorophenyl)-
##JCAMP-DX=4.24
##DATA TYPE=MASS SPECTRUM
##ORIGIN=Zaikin V.G., TIPS RAS, Moscow, Russia
##OWNER=NIST Mass Spectrometry Data Center
Collection (C) 2014 copyright by the U.S. Secretary of Commerce
on behalf of the United States of America. All rights reserved.
##$NIST MASS SPEC NO=306945
##MOLFORM=C13 H16 F N O
##MW=221
##$NIST SOURCE=MSDC
##XUNITS=M/Z
##YUNITS=RELATIVE INTENSITY
##XFACTOR=1
##YFACTOR=1
##FIRSTX=26
##LASTX=222
##FIRSTY=70
##MAXX=222
##MINX=26
##MAXY=9999
##MINY=30
##NPOINTS=59
##PEAK TABLE=(XY..XY)
26,70 27,400 29,310 38,50
39,591 40,80 41,1792 42,90
43,120 50,60 51,90 52,70
53,320 54,260 55,3934 56,180
57,230 62,30 63,90 64,70
65,80 66,30 67,500 68,80
69,90 75,170 77,90 79,150
80,30 81,300 82,210 83,5975
84,671 85,30 89,30 91,40
92,30 94,30 95,310 96,60
108,30 109,220 110,761 111,9999
112,731 122,60 124,70 135,40
136,30 137,160 138,120 148,30
150,120 153,30 166,120 202,30
203,30 221,811 222,100
##END=
