##TITLE=Pentanamide, N-(3-methylphenyl)-
##JCAMP-DX=4.24
##DATA TYPE=MASS SPECTRUM
##ORIGIN=Zaikin V.G., TIPS RAS, Moscow, Russia
##OWNER=NIST Mass Spectrometry Data Center
Collection (C) 2014 copyright by the U.S. Secretary of Commerce
on behalf of the United States of America. All rights reserved.
##$NIST MASS SPEC NO=306891
##MOLFORM=C12 H17 N O
##MW=191
##$NIST SOURCE=MSDC
##XUNITS=M/Z
##YUNITS=RELATIVE INTENSITY
##XFACTOR=1
##YFACTOR=1
##FIRSTX=27
##LASTX=192
##FIRSTY=100
##MAXX=192
##MINX=27
##MAXY=9999
##MINY=20
##NPOINTS=40
##PEAK TABLE=(XY..XY)
27,100 28,100 29,260 39,110
41,260 42,20 51,50 52,40
53,40 55,130 57,460 63,30
65,140 77,280 78,110 79,190
80,50 85,140 89,40 90,30
91,330 92,30 93,40 104,70
105,50 106,1031 107,9999 108,711
109,20 120,30 132,40 133,60
134,130 148,90 149,540 150,50
162,40 190,30 191,1702 192,230
##END=
