##TITLE=Benzamide, N-tetrahydrofurfuryl-3-trifluoromethyl-
##JCAMP-DX=4.24
##DATA TYPE=MASS SPECTRUM
##ORIGIN=Zaikin V.G., TIPS RAS, Moscow, Russia
##OWNER=NIST Mass Spectrometry Data Center
Collection (C) 2014 copyright by the U.S. Secretary of Commerce
on behalf of the United States of America. All rights reserved.
##$NIST MASS SPEC NO=306933
##MOLFORM=C13 H14 F3 N O2
##MW=273
##$NIST SOURCE=MSDC
##XUNITS=M/Z
##YUNITS=RELATIVE INTENSITY
##XFACTOR=1
##YFACTOR=1
##FIRSTX=26
##LASTX=274
##FIRSTY=30
##MAXX=274
##MINX=26
##MAXY=9999
##MINY=20
##NPOINTS=67
##PEAK TABLE=(XY..XY)
26,30 27,230 28,40 29,100
30,50 39,120 40,30 41,561
42,190 43,2272 44,90 50,80
51,50 53,30 54,50 55,60
56,150 57,40 69,70 70,160
71,9999 72,420 73,20 74,40
75,200 76,70 77,40 83,40
84,2933 85,180 95,350 96,50
99,30 107,30 119,40 125,280
126,230 127,100 132,30 134,40
143,40 144,80 145,3523 146,340
155,190 171,50 172,170 173,4904
174,430 185,70 186,30 189,30
190,140 201,40 202,2612 203,3493
204,591 205,40 214,140 215,70
228,30 229,40 230,60 254,280
255,40 273,30 274,60
##END=
