##TITLE=Benzamide, N-(2,5-dimethoxyphenyl)-3-methoxy-
##JCAMP-DX=4.24
##DATA TYPE=MASS SPECTRUM
##ORIGIN=Zaikin V.G., TIPS RAS, Moscow, Russia
##OWNER=NIST Mass Spectrometry Data Center
Collection (C) 2014 copyright by the U.S. Secretary of Commerce
on behalf of the United States of America. All rights reserved.
##$NIST MASS SPEC NO=306972
##MOLFORM=C16 H17 N O4
##MW=287
##$NIST SOURCE=MSDC
##XUNITS=M/Z
##YUNITS=RELATIVE INTENSITY
##XFACTOR=1
##YFACTOR=1
##FIRSTX=28
##LASTX=289
##FIRSTY=10
##MAXX=289
##MINX=28
##MAXY=9999
##MINY=10
##NPOINTS=57
##PEAK TABLE=(XY..XY)
28,10 39,50 50,30 51,50
52,50 53,30 63,80 64,150
65,90 68,30 76,80 77,841
78,90 79,100 80,30 91,190
92,661 93,90 95,40 104,40
106,30 107,1601 108,160 109,50
110,20 119,641 120,70 121,30
122,50 123,60 124,30 125,50
133,30 135,9999 136,841 137,80
138,240 139,70 150,30 151,50
152,70 153,50 154,90 164,50
226,40 228,40 240,30 241,40
242,40 255,50 256,540 257,140
272,550 273,100 287,7587 288,1251
289,160
##END=
