##TITLE=Benzamide, N-(3-nitrophenyl)-2-chloro-
##JCAMP-DX=4.24
##DATA TYPE=MASS SPECTRUM
##ORIGIN=Zaikin V.G., TIPS RAS, Moscow, Russia
##OWNER=NIST Mass Spectrometry Data Center
Collection (C) 2014 copyright by the U.S. Secretary of Commerce
on behalf of the United States of America. All rights reserved.
##$NIST MASS SPEC NO=306984
##MOLFORM=C13 H9 Cl N2 O3
##MW=276
##$NIST SOURCE=MSDC
##XUNITS=M/Z
##YUNITS=RELATIVE INTENSITY
##XFACTOR=1
##YFACTOR=1
##FIRSTX=28
##LASTX=279
##FIRSTY=10
##MAXX=279
##MINX=28
##MAXY=9999
##MINY=10
##NPOINTS=49
##PEAK TABLE=(XY..XY)
28,10 30,40 36,70 38,40
39,80 41,30 50,200 51,190
52,70 62,30 63,160 64,150
65,90 74,100 75,821 76,290
77,200 78,30 79,30 85,70
90,40 91,100 92,70 104,40
105,50 107,40 110,50 111,2272
112,180 113,771 114,60 119,30
135,140 138,70 139,9999 140,761
141,3413 142,240 152,40 166,50
167,30 183,50 199,40 201,60
246,80 276,1191 277,440 278,520
279,80
##END=
