##TITLE=Cyclohexanecarboxamide, N-tetrahydrofurfuryl-
##JCAMP-DX=4.24
##DATA TYPE=MASS SPECTRUM
##ORIGIN=Zaikin V.G., TIPS RAS, Moscow, Russia
##OWNER=NIST Mass Spectrometry Data Center
Collection (C) 2014 copyright by the U.S. Secretary of Commerce
on behalf of the United States of America. All rights reserved.
##$NIST MASS SPEC NO=306944
##MOLFORM=C12 H21 N O2
##MW=211
##$NIST SOURCE=MSDC
##XUNITS=M/Z
##YUNITS=RELATIVE INTENSITY
##XFACTOR=1
##YFACTOR=1
##FIRSTX=26
##LASTX=211
##FIRSTY=130
##MAXX=211
##MINX=26
##MAXY=9999
##MINY=30
##NPOINTS=75
##PEAK TABLE=(XY..XY)
26,130 27,831 29,961 30,741
31,90 39,921 40,170 41,3053
42,550 43,2813 44,30 50,40
51,80 52,70 53,470 54,480
55,3663 56,681 57,180 58,200
59,50 60,60 65,80 66,50
67,731 68,170 69,140 70,410
71,9999 72,561 73,1722 74,70
77,120 78,30 79,230 80,80
81,611 82,440 83,4304 84,5685
85,631 86,2142 87,170 92,30
93,40 94,30 95,90 96,50
98,110 99,380 100,621 101,150
102,210 109,50 110,190 111,991
112,1071 113,230 122,30 123,90
124,30 126,290 127,60 128,3633
129,250 140,330 141,4344 142,1261
143,110 152,120 153,70 156,300
167,150 168,130 211,80
##END=
