##TITLE=Benzamide, N-(1-naphthyl)-3-trifluoromethyl-
##JCAMP-DX=4.24
##DATA TYPE=MASS SPECTRUM
##ORIGIN=Zaikin V.G., TIPS RAS, Moscow, Russia
##OWNER=NIST Mass Spectrometry Data Center
Collection (C) 2014 copyright by the U.S. Secretary of Commerce
on behalf of the United States of America. All rights reserved.
##$NIST MASS SPEC NO=306942
##MOLFORM=C18 H12 F3 N O
##MW=315
##$NIST SOURCE=MSDC
##XUNITS=M/Z
##YUNITS=RELATIVE INTENSITY
##XFACTOR=1
##YFACTOR=1
##FIRSTX=28
##LASTX=317
##FIRSTY=10
##MAXX=317
##MINX=28
##MAXY=9999
##MINY=10
##NPOINTS=38
##PEAK TABLE=(XY..XY)
28,10 39,30 50,50 51,40
63,70 65,40 74,30 75,110
76,50 77,30 88,40 89,110
95,190 113,70 114,130 115,1241
116,190 125,130 126,200 127,90
140,150 141,80 142,140 143,330
144,901 145,3753 146,300 169,30
172,40 173,9999 174,721 175,40
296,210 297,40 314,40 315,5385
316,971 317,100
##END=
