##TITLE=Benzamide, N-(1-naphthyl)-4-butyl-
##JCAMP-DX=4.24
##DATA TYPE=MASS SPECTRUM
##ORIGIN=Zaikin V.G., TIPS RAS, Moscow, Russia
##OWNER=NIST Mass Spectrometry Data Center
Collection (C) 2014 copyright by the U.S. Secretary of Commerce
on behalf of the United States of America. All rights reserved.
##$NIST MASS SPEC NO=306998
##MOLFORM=C21 H21 N O
##MW=303
##$NIST SOURCE=MSDC
##XUNITS=M/Z
##YUNITS=RELATIVE INTENSITY
##XFACTOR=1
##YFACTOR=1
##FIRSTX=28
##LASTX=305
##FIRSTY=10
##MAXX=305
##MINX=28
##MAXY=9999
##MINY=10
##NPOINTS=40
##PEAK TABLE=(XY..XY)
28,10 39,30 41,50 55,60
63,30 65,90 77,90 78,30
79,30 89,120 90,320 91,1011
92,90 103,80 104,60 105,100
114,30 115,410 116,110 117,40
118,280 119,40 127,30 131,90
133,90 140,40 141,30 142,60
143,280 144,90 159,70 161,9999
162,991 163,70 217,40 232,50
260,40 303,2903 304,641 305,80
##END=
