##TITLE=Cyclohexanecarboxamide, N-(1-naphthyl)-
##JCAMP-DX=4.24
##DATA TYPE=MASS SPECTRUM
##ORIGIN=Zaikin V.G., TIPS RAS, Moscow, Russia
##OWNER=NIST Mass Spectrometry Data Center
Collection (C) 2014 copyright by the U.S. Secretary of Commerce
on behalf of the United States of America. All rights reserved.
##$NIST MASS SPEC NO=306953
##MOLFORM=C17 H19 N O
##MW=253
##$NIST SOURCE=MSDC
##XUNITS=M/Z
##YUNITS=RELATIVE INTENSITY
##XFACTOR=1
##YFACTOR=1
##FIRSTX=27
##LASTX=255
##FIRSTY=70
##MAXX=255
##MINX=27
##MAXY=9999
##MINY=20
##NPOINTS=46
##PEAK TABLE=(XY..XY)
27,70 28,20 29,60 39,110
41,410 43,30 51,30 53,60
54,50 55,851 56,40 63,40
65,30 67,80 77,50 79,40
81,90 83,1261 84,80 89,70
110,30 111,70 113,40 114,100
115,951 116,260 117,40 123,100
126,50 127,180 128,70 140,130
141,110 142,210 143,9999 144,1191
145,70 167,30 168,20 169,150
170,80 182,60 198,40 253,2382
254,470 255,40
##END=
