##TITLE=2-Ethoxycarbonyladamantane
##JCAMP-DX=4.24
##DATA TYPE=MASS SPECTRUM
##ORIGIN=A.Pleshkova, Nesmeyanov Inst.Org.Elem.Cpds, Moscow
##OWNER=NIST Mass Spectrometry Data Center
Collection (C) 2014 copyright by the U.S. Secretary of Commerce
on behalf of the United States of America. All rights reserved.
##$NIST MASS SPEC NO=306448
##MOLFORM=C13 H20 O2
##MW=208
##$NIST SOURCE=MSDC
##XUNITS=M/Z
##YUNITS=RELATIVE INTENSITY
##XFACTOR=1
##YFACTOR=1
##FIRSTX=52
##LASTX=209
##FIRSTY=1291
##MAXX=209
##MINX=52
##MAXY=9999
##MINY=60
##NPOINTS=19
##PEAK TABLE=(XY..XY)
52,1291 53,180 67,3793 68,310
79,4794 80,310 92,3493 93,340
119,1091 120,110 134,9999 135,1191
136,110 162,5795 163,410 180,490
181,60 208,4094 209,280
##END=
