##TITLE=Benzamide, N-(4-methoxyphenyl)-4-methyl-
##JCAMP-DX=4.24
##DATA TYPE=MASS SPECTRUM
##ORIGIN=Zaikin V.G., TIPS RAS, Moscow, Russia
##OWNER=NIST Mass Spectrometry Data Center
Collection (C) 2014 copyright by the U.S. Secretary of Commerce
on behalf of the United States of America. All rights reserved.
##$NIST MASS SPEC NO=306959
##MOLFORM=C15 H15 N O2
##MW=241
##$NIST SOURCE=MSDC
##XUNITS=M/Z
##YUNITS=RELATIVE INTENSITY
##XFACTOR=1
##YFACTOR=1
##FIRSTX=28
##LASTX=243
##FIRSTY=30
##MAXX=243
##MINX=28
##MAXY=9999
##MINY=30
##NPOINTS=32
##PEAK TABLE=(XY..XY)
28,30 39,90 41,80 51,60
52,80 53,50 63,80 64,50
65,500 66,30 77,30 79,40
80,60 89,130 90,140 91,2282
92,200 95,140 107,50 108,80
109,40 118,50 119,9999 120,731
121,40 122,170 123,80 124,60
240,40 241,4844 242,721 243,70
##END=
