##TITLE=Pentanamide, N-(3-nitrophenyl)-
##JCAMP-DX=4.24
##DATA TYPE=MASS SPECTRUM
##ORIGIN=Zaikin V.G., TIPS RAS, Moscow, Russia
##OWNER=NIST Mass Spectrometry Data Center
Collection (C) 2014 copyright by the U.S. Secretary of Commerce
on behalf of the United States of America. All rights reserved.
##$NIST MASS SPEC NO=306896
##MOLFORM=C11 H14 N2 O3
##MW=222
##$NIST SOURCE=MSDC
##XUNITS=M/Z
##YUNITS=RELATIVE INTENSITY
##XFACTOR=1
##YFACTOR=1
##FIRSTX=26
##LASTX=223
##FIRSTY=60
##MAXX=223
##MINX=26
##MAXY=9999
##MINY=30
##NPOINTS=80
##PEAK TABLE=(XY..XY)
26,60 27,380 28,490 29,1241
30,120 36,40 38,80 39,380
40,50 41,1501 42,120 43,110
44,40 50,140 51,100 52,140
53,90 54,60 55,661 56,130
57,4384 58,190 62,40 63,290
64,360 65,581 66,90 74,30
75,150 76,370 77,90 78,60
79,80 80,220 81,50 83,50
84,90 85,3173 86,190 90,160
91,350 92,1281 93,230 104,50
105,70 106,50 107,50 108,601
109,80 110,30 111,40 118,50
119,80 120,40 122,220 123,110
124,40 133,130 134,40 135,30
137,160 138,9999 139,731 140,60
147,30 150,30 162,30 163,260
164,60 165,310 171,70 173,70
179,80 180,1882 181,180 192,150
193,120 221,30 222,1131 223,190
##END=
