##TITLE=Pentanamide, N-(4-methoxyphenyl)-
##JCAMP-DX=4.24
##DATA TYPE=MASS SPECTRUM
##ORIGIN=Zaikin V.G., TIPS RAS, Moscow, Russia
##OWNER=NIST Mass Spectrometry Data Center
Collection (C) 2014 copyright by the U.S. Secretary of Commerce
on behalf of the United States of America. All rights reserved.
##$NIST MASS SPEC NO=306893
##MOLFORM=C12 H17 N O2
##MW=207
##$NIST SOURCE=MSDC
##XUNITS=M/Z
##YUNITS=RELATIVE INTENSITY
##XFACTOR=1
##YFACTOR=1
##FIRSTX=26
##LASTX=209
##FIRSTY=40
##MAXX=209
##MINX=26
##MAXY=9999
##MINY=30
##NPOINTS=50
##PEAK TABLE=(XY..XY)
26,40 27,140 28,140 29,360
39,110 41,410 42,40 51,60
52,140 53,130 55,180 57,540
63,60 64,70 65,110 67,30
77,90 78,60 79,90 80,240
81,50 84,30 85,140 91,40
92,120 93,40 94,30 95,240
106,70 107,110 108,3934 109,350
121,190 122,671 123,9999 124,741
125,40 134,110 135,30 136,40
149,120 150,80 160,30 164,40
165,270 178,50 206,50 207,3403
208,510 209,50
##END=
