##TITLE=Benzamide, N-(3-nitrophenyl)-3-methoxy-
##JCAMP-DX=4.24
##DATA TYPE=MASS SPECTRUM
##ORIGIN=Zaikin V.G., TIPS RAS, Moscow, Russia
##OWNER=NIST Mass Spectrometry Data Center
Collection (C) 2014 copyright by the U.S. Secretary of Commerce
on behalf of the United States of America. All rights reserved.
##$NIST MASS SPEC NO=306973
##MOLFORM=C14 H12 N2 O4
##MW=272
##$NIST SOURCE=MSDC
##XUNITS=M/Z
##YUNITS=RELATIVE INTENSITY
##XFACTOR=1
##YFACTOR=1
##FIRSTX=28
##LASTX=274
##FIRSTY=10
##MAXX=274
##MINX=28
##MAXY=9999
##MINY=10
##NPOINTS=45
##PEAK TABLE=(XY..XY)
28,10 30,20 38,50 39,90
41,30 50,90 51,80 52,40
53,30 62,30 63,260 64,450
65,130 75,50 76,180 77,1321
78,120 79,100 80,30 90,30
91,110 92,1121 93,90 104,40
105,30 106,30 107,2012 108,190
119,100 133,50 135,9999 136,841
137,70 138,50 154,30 182,30
183,60 225,60 241,30 242,250
243,40 257,30 272,1511 273,250
274,30
##END=
