##TITLE=Benzamide, N-(4-bromophenyl)-3-methoxy-
##JCAMP-DX=4.24
##DATA TYPE=MASS SPECTRUM
##ORIGIN=Zaikin V.G., TIPS RAS, Moscow, Russia
##OWNER=NIST Mass Spectrometry Data Center
Collection (C) 2014 copyright by the U.S. Secretary of Commerce
on behalf of the United States of America. All rights reserved.
##$NIST MASS SPEC NO=306971
##MOLFORM=C14 H12 Br N O2
##MW=305
##$NIST SOURCE=MSDC
##XUNITS=M/Z
##YUNITS=RELATIVE INTENSITY
##XFACTOR=1
##YFACTOR=1
##FIRSTX=28
##LASTX=308
##FIRSTY=10
##MAXX=308
##MINX=28
##MAXY=9999
##MINY=10
##NPOINTS=38
##PEAK TABLE=(XY..XY)
28,10 38,20 39,50 50,50
51,40 63,180 64,290 65,90
75,30 76,120 77,881 78,80
79,40 90,30 91,130 92,801
93,60 104,30 107,1481 108,130
113,90 119,60 133,30 135,9999
136,751 137,60 143,30 145,30
154,30 171,120 172,30 173,110
225,70 226,40 305,1842 306,290
307,1792 308,280
##END=
