##TITLE=m-Anisic acid, morpholide
##JCAMP-DX=4.24
##DATA TYPE=MASS SPECTRUM
##ORIGIN=Zaikin V.G., TIPS RAS, Moscow, Russia
##OWNER=NIST Mass Spectrometry Data Center
Collection (C) 2014 copyright by the U.S. Secretary of Commerce
on behalf of the United States of America. All rights reserved.
##$NIST MASS SPEC NO=306965
##MOLFORM=C12 H15 N O3
##MW=221
##$NIST SOURCE=MSDC
##XUNITS=M/Z
##YUNITS=RELATIVE INTENSITY
##XFACTOR=1
##YFACTOR=1
##FIRSTX=27
##LASTX=223
##FIRSTY=40
##MAXX=223
##MINX=27
##MAXY=9999
##MINY=10
##NPOINTS=56
##PEAK TABLE=(XY..XY)
27,40 28,10 29,70 30,30
39,40 42,80 50,50 51,50
54,20 55,60 56,430 57,70
63,160 64,300 65,70 69,30
70,80 75,30 76,140 77,981
78,120 79,50 86,911 87,50
91,30 92,841 93,90 104,40
105,30 107,1762 108,270 119,30
120,40 121,70 122,60 133,40
134,70 135,9999 136,1321 137,110
148,40 150,50 162,30 164,60
176,90 178,70 190,270 191,40
192,40 193,110 206,410 207,40
220,3023 221,2712 222,390 223,40
##END=
