##TITLE=Benzamide, N-(4-bromophenyl)-4-methyl-
##JCAMP-DX=4.24
##DATA TYPE=MASS SPECTRUM
##ORIGIN=Zaikin V.G., TIPS RAS, Moscow, Russia
##OWNER=NIST Mass Spectrometry Data Center
Collection (C) 2014 copyright by the U.S. Secretary of Commerce
on behalf of the United States of America. All rights reserved.
##$NIST MASS SPEC NO=306960
##MOLFORM=C14 H12 Br N O
##MW=289
##$NIST SOURCE=MSDC
##XUNITS=M/Z
##YUNITS=RELATIVE INTENSITY
##XFACTOR=1
##YFACTOR=1
##FIRSTX=28
##LASTX=292
##FIRSTY=40
##MAXX=292
##MINX=28
##MAXY=9999
##MINY=20
##NPOINTS=31
##PEAK TABLE=(XY..XY)
28,40 39,100 41,40 50,30
51,40 62,20 63,150 64,80
65,571 66,30 76,30 89,160
90,180 91,2092 92,220 118,60
119,9999 120,721 121,40 143,40
145,40 171,120 172,30 173,110
180,40 209,30 241,40 289,1381
290,220 291,1361 292,210
##END=
