##TITLE=Octanamide, N-(2-iodo-4-methylphenyl)-
##JCAMP-DX=4.24
##DATA TYPE=MASS SPECTRUM
##ORIGIN=Zaikin V.G., TIPS RAS, Moscow, Russia
##OWNER=NIST Mass Spectrometry Data Center
Collection (C) 2014 copyright by the U.S. Secretary of Commerce
on behalf of the United States of America. All rights reserved.
##$NIST MASS SPEC NO=306930
##MOLFORM=C15 H22 I N O
##MW=359
##$NIST SOURCE=MSDC
##XUNITS=M/Z
##YUNITS=RELATIVE INTENSITY
##XFACTOR=1
##YFACTOR=1
##FIRSTX=27
##LASTX=361
##FIRSTY=80
##MAXX=361
##MINX=27
##MAXY=9999
##MINY=30
##NPOINTS=49
##PEAK TABLE=(XY..XY)
27,80 28,60 29,150 39,80
41,320 42,70 43,360 51,50
52,40 53,30 55,290 56,40
57,861 58,30 63,30 67,40
69,40 77,210 78,140 79,180
83,40 89,70 90,120 91,40
104,230 105,190 106,490 107,280
108,80 109,40 119,30 127,210
128,100 133,40 138,40 147,40
160,30 217,30 232,430 233,9999
234,691 259,40 260,110 275,480
276,40 288,60 359,1982 360,330
361,30
##END=
