##TITLE=Benzamide, N-(4-fluorophenyl)-3-trifluoromethyl-
##JCAMP-DX=4.24
##DATA TYPE=MASS SPECTRUM
##ORIGIN=Zaikin V.G., TIPS RAS, Moscow, Russia
##OWNER=NIST Mass Spectrometry Data Center
Collection (C) 2014 copyright by the U.S. Secretary of Commerce
on behalf of the United States of America. All rights reserved.
##$NIST MASS SPEC NO=306934
##MOLFORM=C14 H9 F4 N O
##MW=283
##$NIST SOURCE=MSDC
##XUNITS=M/Z
##YUNITS=RELATIVE INTENSITY
##XFACTOR=1
##YFACTOR=1
##FIRSTX=28
##LASTX=285
##FIRSTY=20
##MAXX=285
##MINX=28
##MAXY=9999
##MINY=20
##NPOINTS=36
##PEAK TABLE=(XY..XY)
28,20 50,70 51,40 57,130
63,40 69,40 74,30 75,200
76,50 81,40 82,50 83,310
84,60 95,360 96,30 109,50
110,80 111,180 112,40 119,40
125,220 126,200 144,70 145,4384
146,330 172,30 173,9999 174,711
175,40 185,30 264,360 265,70
282,40 283,4044 284,571 285,50
##END=
