##TITLE=Benzamide, N-(3-methylphenyl)-3-trifluoromethyl-
##JCAMP-DX=4.24
##DATA TYPE=MASS SPECTRUM
##ORIGIN=Zaikin V.G., TIPS RAS, Moscow, Russia
##OWNER=NIST Mass Spectrometry Data Center
Collection (C) 2014 copyright by the U.S. Secretary of Commerce
on behalf of the United States of America. All rights reserved.
##$NIST MASS SPEC NO=306935
##MOLFORM=C15 H12 F3 N O
##MW=279
##$NIST SOURCE=MSDC
##XUNITS=M/Z
##YUNITS=RELATIVE INTENSITY
##XFACTOR=1
##YFACTOR=1
##FIRSTX=28
##LASTX=280
##FIRSTY=20
##MAXX=280
##MINX=28
##MAXY=9999
##MINY=20
##NPOINTS=34
##PEAK TABLE=(XY..XY)
28,20 39,60 50,50 51,70
52,40 53,30 63,30 65,60
75,100 76,40 77,240 78,90
79,110 91,70 95,220 104,30
106,130 107,190 108,140 125,160
126,160 132,30 144,50 145,3563
146,280 172,30 173,9999 174,701
175,40 260,290 261,50 278,50
279,4394 280,671
##END=
