##TITLE=Octanamide, N-(4-methoxyphenyl)-
##JCAMP-DX=4.24
##DATA TYPE=MASS SPECTRUM
##ORIGIN=Zaikin V.G., TIPS RAS, Moscow, Russia
##OWNER=NIST Mass Spectrometry Data Center
Collection (C) 2014 copyright by the U.S. Secretary of Commerce
on behalf of the United States of America. All rights reserved.
##$NIST MASS SPEC NO=306926
##MOLFORM=C15 H23 N O2
##MW=249
##$NIST SOURCE=MSDC
##XUNITS=M/Z
##YUNITS=RELATIVE INTENSITY
##XFACTOR=1
##YFACTOR=1
##FIRSTX=27
##LASTX=251
##FIRSTY=80
##MAXX=251
##MINX=27
##MAXY=9999
##MINY=30
##NPOINTS=46
##PEAK TABLE=(XY..XY)
27,80 28,50 29,140 39,60
41,310 42,50 43,240 52,50
53,60 55,220 56,30 57,370
64,30 65,50 67,40 77,50
78,30 79,50 80,120 81,30
83,30 92,70 93,50 95,140
106,30 107,60 108,1962 109,210
121,170 122,520 123,9999 124,771
125,50 127,60 134,70 136,50
149,90 150,50 164,30 165,450
166,40 178,90 248,60 249,2342
250,400 251,40
##END=
