##TITLE=Pentanamide, N-(3-methylphenyl)-5-bromo-
##JCAMP-DX=4.24
##DATA TYPE=MASS SPECTRUM
##ORIGIN=Zaikin V.G., TIPS RAS, Moscow, Russia
##OWNER=NIST Mass Spectrometry Data Center
Collection (C) 2014 copyright by the U.S. Secretary of Commerce
on behalf of the United States of America. All rights reserved.
##$NIST MASS SPEC NO=306988
##MOLFORM=C12 H16 Br N O
##MW=269
##$NIST SOURCE=MSDC
##XUNITS=M/Z
##YUNITS=RELATIVE INTENSITY
##XFACTOR=1
##YFACTOR=1
##FIRSTX=26
##LASTX=272
##FIRSTY=30
##MAXX=272
##MINX=26
##MAXY=9999
##MINY=20
##NPOINTS=62
##PEAK TABLE=(XY..XY)
26,30 27,190 28,60 29,160
36,20 39,190 41,160 50,30
51,80 52,60 53,110 54,30
55,891 56,50 63,60 64,40
65,200 66,30 77,420 78,170
79,310 80,170 81,30 82,90
83,130 89,60 90,50 91,430
92,50 93,40 95,30 104,110
105,60 106,981 107,9999 108,911
109,80 111,40 118,30 119,30
120,50 127,170 129,50 131,200
132,100 133,220 134,280 135,180
137,150 144,60 162,60 163,40
165,40 189,390 190,901 191,120
205,70 237,30 269,961 270,130
271,941 272,120
##END=
