##TITLE=Butanamide, N-(3-nitrophenyl)-
##JCAMP-DX=4.24
##DATA TYPE=MASS SPECTRUM
##ORIGIN=Zaikin V.G., TIPS RAS, Moscow, Russia
##OWNER=NIST Mass Spectrometry Data Center
Collection (C) 2014 copyright by the U.S. Secretary of Commerce
on behalf of the United States of America. All rights reserved.
##$NIST MASS SPEC NO=306918
##MOLFORM=C10 H12 N2 O3
##MW=208
##$NIST SOURCE=MSDC
##XUNITS=M/Z
##YUNITS=RELATIVE INTENSITY
##XFACTOR=1
##YFACTOR=1
##FIRSTX=26
##LASTX=209
##FIRSTY=40
##MAXX=209
##MINX=26
##MAXY=9999
##MINY=20
##NPOINTS=65
##PEAK TABLE=(XY..XY)
26,40 27,550 28,20 29,50
30,90 36,30 38,100 39,400
40,60 41,971 42,140 43,4314
44,140 50,150 51,110 52,150
53,50 54,50 55,250 62,60
63,340 64,420 65,631 66,80
69,60 70,90 71,3353 72,150
74,40 75,140 76,310 77,70
78,60 79,70 80,250 81,40
90,160 91,350 92,1401 93,200
104,40 105,60 106,40 107,30
108,470 109,50 118,40 119,50
122,190 133,70 135,40 137,120
138,9999 139,721 140,60 161,30
163,70 164,30 165,200 178,140
179,40 180,80 193,60 208,1511
209,250
##END=
