##TITLE=Benzamide, N-(4-bromophenyl)-4-butyl-
##JCAMP-DX=4.24
##DATA TYPE=MASS SPECTRUM
##ORIGIN=Zaikin V.G., TIPS RAS, Moscow, Russia
##OWNER=NIST Mass Spectrometry Data Center
Collection (C) 2014 copyright by the U.S. Secretary of Commerce
on behalf of the United States of America. All rights reserved.
##$NIST MASS SPEC NO=306994
##MOLFORM=C17 H18 Br N O
##MW=331
##$NIST SOURCE=MSDC
##XUNITS=M/Z
##YUNITS=RELATIVE INTENSITY
##XFACTOR=1
##YFACTOR=1
##FIRSTX=39
##LASTX=334
##FIRSTY=40
##MAXX=334
##MINX=39
##MAXY=9999
##MINY=30
##NPOINTS=33
##PEAK TABLE=(XY..XY)
39,40 41,60 55,50 63,50
64,40 65,130 76,30 77,110
78,40 79,30 89,140 90,440
91,971 92,120 103,100 104,70
105,90 115,50 117,30 118,360
119,50 131,100 133,80 159,50
161,9999 162,981 163,70 171,90
173,90 331,861 332,170 333,881
334,160
##END=
