##TITLE=Benzamide, N-(2-iodo-4-methylphenyl)-3-methoxy-
##JCAMP-DX=4.24
##DATA TYPE=MASS SPECTRUM
##ORIGIN=Zaikin V.G., TIPS RAS, Moscow, Russia
##OWNER=NIST Mass Spectrometry Data Center
Collection (C) 2014 copyright by the U.S. Secretary of Commerce
on behalf of the United States of America. All rights reserved.
##$NIST MASS SPEC NO=306974
##MOLFORM=C15 H14 I N O2
##MW=367
##$NIST SOURCE=MSDC
##XUNITS=M/Z
##YUNITS=RELATIVE INTENSITY
##XFACTOR=1
##YFACTOR=1
##FIRSTX=28
##LASTX=369
##FIRSTY=10
##MAXX=369
##MINX=28
##MAXY=9999
##MINY=10
##NPOINTS=40
##PEAK TABLE=(XY..XY)
28,10 39,40 50,50 51,80
52,40 63,110 64,200 65,50
76,120 77,951 78,190 79,90
89,30 90,30 91,30 92,681
93,50 104,220 105,160 106,70
107,1431 108,120 119,50 127,60
128,110 133,40 135,9999 136,761
137,60 197,30 232,70 233,170
234,50 239,60 240,80 241,60
242,40 367,5985 368,911 369,90
##END=
