##TITLE=Benzamide, N-(3-methylphenyl)-3-methoxy-
##JCAMP-DX=4.24
##DATA TYPE=MASS SPECTRUM
##ORIGIN=Zaikin V.G., TIPS RAS, Moscow, Russia
##OWNER=NIST Mass Spectrometry Data Center
Collection (C) 2014 copyright by the U.S. Secretary of Commerce
on behalf of the United States of America. All rights reserved.
##$NIST MASS SPEC NO=306968
##MOLFORM=C15 H15 N O2
##MW=241
##$NIST SOURCE=MSDC
##XUNITS=M/Z
##YUNITS=RELATIVE INTENSITY
##XFACTOR=1
##YFACTOR=1
##FIRSTX=28
##LASTX=243
##FIRSTY=20
##MAXX=243
##MINX=28
##MAXY=9999
##MINY=20
##NPOINTS=33
##PEAK TABLE=(XY..XY)
28,20 39,60 50,40 51,60
52,30 53,30 63,110 64,220
65,90 76,100 77,1011 78,140
79,110 91,80 92,761 93,60
104,50 106,150 107,1722 108,170
113,60 119,140 120,80 132,30
133,30 135,9999 136,741 137,60
226,60 240,30 241,4514 242,701
243,70
##END=
