##TITLE=Benzamide, N-(3-chlorophenyl)-3-trifluoromethyl-
##JCAMP-DX=4.24
##DATA TYPE=MASS SPECTRUM
##ORIGIN=Zaikin V.G., TIPS RAS, Moscow, Russia
##OWNER=NIST Mass Spectrometry Data Center
Collection (C) 2014 copyright by the U.S. Secretary of Commerce
on behalf of the United States of America. All rights reserved.
##$NIST MASS SPEC NO=306936
##MOLFORM=C14 H9 Cl F3 N O
##MW=299
##$NIST SOURCE=MSDC
##XUNITS=M/Z
##YUNITS=RELATIVE INTENSITY
##XFACTOR=1
##YFACTOR=1
##FIRSTX=28
##LASTX=302
##FIRSTY=10
##MAXX=302
##MINX=28
##MAXY=9999
##MINY=10
##NPOINTS=37
##PEAK TABLE=(XY..XY)
28,10 39,30 50,60 51,30
63,80 64,50 65,40 73,30
74,30 75,170 76,50 90,30
91,50 95,260 99,150 100,30
101,40 111,30 119,30 125,200
126,180 127,180 128,30 129,40
144,60 145,3583 146,270 173,9999
174,711 175,40 280,210 281,30
282,70 299,2652 300,390 301,821
302,120
##END=
