##TITLE=Benzamide, N-(4-fluorophenyl)-3-methoxy-
##JCAMP-DX=4.24
##DATA TYPE=MASS SPECTRUM
##ORIGIN=Zaikin V.G., TIPS RAS, Moscow, Russia
##OWNER=NIST Mass Spectrometry Data Center
Collection (C) 2014 copyright by the U.S. Secretary of Commerce
on behalf of the United States of America. All rights reserved.
##$NIST MASS SPEC NO=306967
##MOLFORM=C14 H12 F N O2
##MW=245
##$NIST SOURCE=MSDC
##XUNITS=M/Z
##YUNITS=RELATIVE INTENSITY
##XFACTOR=1
##YFACTOR=1
##FIRSTX=28
##LASTX=247
##FIRSTY=10
##MAXX=247
##MINX=28
##MAXY=9999
##MINY=10
##NPOINTS=41
##PEAK TABLE=(XY..XY)
28,10 38,30 39,50 50,60
51,60 57,70 62,30 63,190
64,350 65,50 75,70 76,140
77,1121 78,100 79,50 82,30
83,190 84,60 92,1001 93,80
95,40 104,30 107,1932 108,160
109,40 110,60 111,180 119,30
122,30 133,60 135,9999 136,741
137,80 172,30 185,30 201,40
230,40 244,40 245,3563 246,520
247,50
##END=
