##TITLE=Benzamide, N-(3-chlorophenyl)-3-methoxy-
##JCAMP-DX=4.24
##DATA TYPE=MASS SPECTRUM
##ORIGIN=Zaikin V.G., TIPS RAS, Moscow, Russia
##OWNER=NIST Mass Spectrometry Data Center
Collection (C) 2014 copyright by the U.S. Secretary of Commerce
on behalf of the United States of America. All rights reserved.
##$NIST MASS SPEC NO=306969
##MOLFORM=C14 H12 Cl N O2
##MW=261
##$NIST SOURCE=MSDC
##XUNITS=M/Z
##YUNITS=RELATIVE INTENSITY
##XFACTOR=1
##YFACTOR=1
##FIRSTX=28
##LASTX=264
##FIRSTY=10
##MAXX=264
##MINX=28
##MAXY=9999
##MINY=10
##NPOINTS=35
##PEAK TABLE=(XY..XY)
28,10 38,30 39,50 50,50
51,50 62,30 63,200 64,330
65,80 75,60 76,120 77,971
78,80 79,50 90,30 91,60
92,871 93,70 99,80 104,30
107,1561 108,130 111,30 113,250
119,40 127,190 129,50 135,9999
136,731 137,60 246,20 261,2382
262,360 263,741 264,110
##END=
