##TITLE=3-Trifluoromethylbenzoic acid, morpholide
##JCAMP-DX=4.24
##DATA TYPE=MASS SPECTRUM
##ORIGIN=Zaikin V.G., TIPS RAS, Moscow, Russia
##OWNER=NIST Mass Spectrometry Data Center
Collection (C) 2014 copyright by the U.S. Secretary of Commerce
on behalf of the United States of America. All rights reserved.
##$NIST MASS SPEC NO=306932
##MOLFORM=C12 H12 F3 N O2
##MW=259
##$NIST SOURCE=MSDC
##XUNITS=M/Z
##YUNITS=RELATIVE INTENSITY
##XFACTOR=1
##YFACTOR=1
##FIRSTX=26
##LASTX=261
##FIRSTY=30
##MAXX=261
##MINX=26
##MAXY=9999
##MINY=30
##NPOINTS=67
##PEAK TABLE=(XY..XY)
26,30 27,100 28,40 29,120
30,90 41,60 42,300 43,30
50,110 51,60 54,70 55,160
56,2192 57,170 69,90 70,80
72,360 74,50 75,250 76,80
77,40 86,1601 87,80 94,30
95,430 96,50 99,40 107,40
119,60 125,320 126,270 127,130
143,40 144,100 145,4404 146,390
154,30 155,230 159,70 172,90
173,9999 174,771 175,50 187,30
188,50 190,30 199,30 200,60
201,30 202,240 203,40 214,70
216,340 217,130 228,701 229,110
230,110 231,90 238,70 240,380
241,50 244,1692 245,210 258,2793
259,1872 260,310 261,30
##END=
