##TITLE=Pentanamide, N-(2,5-dimethoxyphenyl)-
##JCAMP-DX=4.24
##DATA TYPE=MASS SPECTRUM
##ORIGIN=Zaikin V.G., TIPS RAS, Moscow, Russia
##OWNER=NIST Mass Spectrometry Data Center
Collection (C) 2014 copyright by the U.S. Secretary of Commerce
on behalf of the United States of America. All rights reserved.
##$NIST MASS SPEC NO=306895
##MOLFORM=C13 H19 N O3
##MW=237
##$NIST SOURCE=MSDC
##XUNITS=M/Z
##YUNITS=RELATIVE INTENSITY
##XFACTOR=1
##YFACTOR=1
##FIRSTX=26
##LASTX=239
##FIRSTY=30
##MAXX=239
##MINX=26
##MAXY=9999
##MINY=30
##NPOINTS=77
##PEAK TABLE=(XY..XY)
26,30 27,130 28,150 29,370
39,130 41,410 42,40 43,30
51,80 52,130 53,90 54,40
55,260 57,571 63,30 65,90
66,40 67,70 68,90 69,40
77,70 78,50 79,190 80,80
81,30 82,50 83,30 84,40
85,140 90,40 91,30 92,90
93,100 94,50 95,250 96,30
106,40 107,170 108,90 109,100
110,380 111,90 121,30 122,170
123,130 124,90 125,110 127,30
135,30 136,80 137,40 138,9999
139,841 140,70 149,40 150,190
151,80 152,130 153,8047 154,821
155,70 162,30 163,60 164,290
165,410 166,50 171,50 173,50
179,80 180,90 194,50 195,200
206,140 222,50 237,6256 238,891
239,100
##END=
