##TITLE=Benzamide, N-tetrahydrofurfuryl-3-methoxy-
##JCAMP-DX=4.24
##DATA TYPE=MASS SPECTRUM
##ORIGIN=Zaikin V.G., TIPS RAS, Moscow, Russia
##OWNER=NIST Mass Spectrometry Data Center
Collection (C) 2014 copyright by the U.S. Secretary of Commerce
on behalf of the United States of America. All rights reserved.
##$NIST MASS SPEC NO=306966
##MOLFORM=C13 H17 N O3
##MW=235
##$NIST SOURCE=MSDC
##XUNITS=M/Z
##YUNITS=RELATIVE INTENSITY
##XFACTOR=1
##YFACTOR=1
##FIRSTX=26
##LASTX=237
##FIRSTY=50
##MAXX=237
##MINX=26
##MAXY=9999
##MINY=30
##NPOINTS=84
##PEAK TABLE=(XY..XY)
26,50 27,230 28,40 29,170
30,60 38,50 39,200 40,40
41,540 42,260 43,2022 44,120
50,110 51,110 52,30 53,70
55,60 56,150 62,30 63,300
64,561 65,170 66,30 69,50
70,170 71,8087 72,360 74,30
75,70 76,270 77,1862 78,240
79,120 82,30 83,40 84,4104
85,280 91,70 92,1611 93,180
94,50 103,40 104,80 105,60
106,50 107,2342 108,370 109,190
119,90 120,40 121,180 122,100
132,30 133,110 134,500 135,9999
136,1161 137,110 147,40 148,40
149,30 150,270 151,420 152,4814
153,440 154,30 162,40 163,90
164,9268 165,6536 166,1031 167,90
176,110 177,60 190,30 191,430
192,200 207,40 217,40 233,30
234,70 235,1601 236,340 237,40
##END=
