##TITLE=Acetamide, N-(1-naphthyl)-2-(2-thienyl)-
##JCAMP-DX=4.24
##DATA TYPE=MASS SPECTRUM
##ORIGIN=Zaikin V.G., TIPS RAS, Moscow, Russia
##OWNER=NIST Mass Spectrometry Data Center
Collection (C) 2014 copyright by the U.S. Secretary of Commerce
on behalf of the United States of America. All rights reserved.
##$NIST MASS SPEC NO=306909
##MOLFORM=C16 H13 N O S
##MW=267
##$NIST SOURCE=MSDC
##XUNITS=M/Z
##YUNITS=RELATIVE INTENSITY
##XFACTOR=1
##YFACTOR=1
##FIRSTX=26
##LASTX=270
##FIRSTY=30
##MAXX=270
##MINX=26
##MAXY=9999
##MINY=30
##NPOINTS=68
##PEAK TABLE=(XY..XY)
26,30 27,50 28,60 39,170
44,30 45,390 47,30 50,70
51,100 52,50 53,370 58,40
62,50 63,170 64,40 65,90
69,90 70,80 71,60 72,30
74,40 75,70 76,50 77,130
87,40 88,80 89,200 90,40
95,60 96,200 97,5055 98,1491
99,310 100,80 101,90 102,30
111,40 113,150 114,310 115,2312
116,480 117,60 124,200 125,40
126,200 127,941 128,170 140,460
141,400 142,1081 143,9058 144,1241
145,80 152,30 153,30 154,30
169,4064 170,1822 171,210 204,30
232,30 233,80 249,30 259,30
267,9999 268,1722 269,581 270,80
##END=
