##TITLE=Benzamide, N-(3-nitrophenyl)-3-trifluoromethyl-
##JCAMP-DX=4.24
##DATA TYPE=MASS SPECTRUM
##ORIGIN=Zaikin V.G., TIPS RAS, Moscow, Russia
##OWNER=NIST Mass Spectrometry Data Center
Collection (C) 2014 copyright by the U.S. Secretary of Commerce
on behalf of the United States of America. All rights reserved.
##$NIST MASS SPEC NO=306940
##MOLFORM=C14 H9 F3 N2 O3
##MW=310
##$NIST SOURCE=MSDC
##XUNITS=M/Z
##YUNITS=RELATIVE INTENSITY
##XFACTOR=1
##YFACTOR=1
##FIRSTX=28
##LASTX=311
##FIRSTY=10
##MAXX=311
##MINX=28
##MAXY=9999
##MINY=10
##NPOINTS=33
##PEAK TABLE=(XY..XY)
28,10 39,30 50,60 51,40
63,80 64,70 65,50 75,120
76,60 91,50 92,30 95,220
115,210 116,30 119,30 125,170
126,170 127,30 140,30 143,60
144,190 145,3733 146,280 172,30
173,9999 174,701 175,40 263,30
280,30 291,220 292,30 310,1061
311,170
##END=
