##TITLE=Benzamide, N-(3-methylphenyl)-2-chloro-
##JCAMP-DX=4.24
##DATA TYPE=MASS SPECTRUM
##ORIGIN=Zaikin V.G., TIPS RAS, Moscow, Russia
##OWNER=NIST Mass Spectrometry Data Center
Collection (C) 2014 copyright by the U.S. Secretary of Commerce
on behalf of the United States of America. All rights reserved.
##$NIST MASS SPEC NO=306979
##MOLFORM=C14 H12 Cl N O
##MW=245
##$NIST SOURCE=MSDC
##XUNITS=M/Z
##YUNITS=RELATIVE INTENSITY
##XFACTOR=1
##YFACTOR=1
##FIRSTX=28
##LASTX=248
##FIRSTY=10
##MAXX=248
##MINX=28
##MAXY=9999
##MINY=10
##NPOINTS=43
##PEAK TABLE=(XY..XY)
28,10 36,40 39,70 50,90
51,120 52,40 53,30 63,40
65,90 74,40 75,450 76,140
77,330 78,100 79,100 85,40
91,110 104,50 105,80 106,150
107,200 108,70 110,30 111,1702
112,150 113,561 114,40 119,50
132,40 138,30 139,9999 140,671
141,3413 142,220 167,30 180,60
181,30 210,450 211,70 245,3693
246,561 247,1251 248,180
##END=
