##TITLE=Benzamide, N-(2,5-dimethoxyphenyl)-3-trifluoromethyl-
##JCAMP-DX=4.24
##DATA TYPE=MASS SPECTRUM
##ORIGIN=Zaikin V.G., TIPS RAS, Moscow, Russia
##OWNER=NIST Mass Spectrometry Data Center
Collection (C) 2014 copyright by the U.S. Secretary of Commerce
on behalf of the United States of America. All rights reserved.
##$NIST MASS SPEC NO=306939
##MOLFORM=C16 H14 F3 N O3
##MW=325
##$NIST SOURCE=MSDC
##XUNITS=M/Z
##YUNITS=RELATIVE INTENSITY
##XFACTOR=1
##YFACTOR=1
##FIRSTX=28
##LASTX=327
##FIRSTY=20
##MAXX=327
##MINX=28
##MAXY=9999
##MINY=20
##NPOINTS=68
##PEAK TABLE=(XY..XY)
28,20 39,70 41,30 50,60
51,90 52,130 53,60 63,30
65,60 66,30 67,30 68,90
69,60 75,100 76,50 77,50
78,30 79,140 80,70 81,40
82,40 92,70 93,100 94,50
95,290 96,40 106,30 107,110
108,70 109,100 110,60 122,100
123,70 124,110 125,320 126,220
127,30 136,50 138,220 139,210
144,50 145,3363 146,280 150,50
151,30 152,80 153,50 154,110
155,30 164,70 172,40 173,9999
174,771 175,50 279,30 280,30
282,70 293,30 294,420 295,90
306,320 307,60 310,1631 311,290
312,30 325,5875 326,981 327,110
##END=
