##TITLE=2-Chlorobenzoic acid, morpholide
##JCAMP-DX=4.24
##DATA TYPE=MASS SPECTRUM
##ORIGIN=Zaikin V.G., TIPS RAS, Moscow, Russia
##OWNER=NIST Mass Spectrometry Data Center
Collection (C) 2014 copyright by the U.S. Secretary of Commerce
on behalf of the United States of America. All rights reserved.
##$NIST MASS SPEC NO=306976
##MOLFORM=C11 H12 Cl N O2
##MW=225
##$NIST SOURCE=MSDC
##XUNITS=M/Z
##YUNITS=RELATIVE INTENSITY
##XFACTOR=1
##YFACTOR=1
##FIRSTX=26
##LASTX=227
##FIRSTY=50
##MAXX=227
##MINX=26
##MAXY=9999
##MINY=20
##NPOINTS=62
##PEAK TABLE=(XY..XY)
26,50 27,130 28,20 29,170
30,90 36,70 41,70 42,260
43,30 50,230 51,200 54,90
55,220 56,1591 57,120 65,30
69,30 70,110 72,160 74,130
75,1031 76,320 77,320 78,30
79,230 85,110 86,2332 87,150
89,30 91,30 102,20 104,60
105,150 110,70 111,2292 112,230
113,781 114,80 125,60 132,100
138,60 139,9999 140,681 141,3393
142,210 146,50 160,150 162,280
168,80 182,40 190,530 191,50
194,200 195,20 196,90 210,370
211,30 212,110 224,981 225,601
226,380 227,200
##END=
