##TITLE=Octanamide, N-(3-methylphenyl)-
##JCAMP-DX=4.24
##DATA TYPE=MASS SPECTRUM
##ORIGIN=Zaikin V.G., TIPS RAS, Moscow, Russia
##OWNER=NIST Mass Spectrometry Data Center
Collection (C) 2014 copyright by the U.S. Secretary of Commerce
on behalf of the United States of America. All rights reserved.
##$NIST MASS SPEC NO=306924
##MOLFORM=C15 H23 N O
##MW=233
##$NIST SOURCE=MSDC
##XUNITS=M/Z
##YUNITS=RELATIVE INTENSITY
##XFACTOR=1
##YFACTOR=1
##FIRSTX=27
##LASTX=234
##FIRSTY=100
##MAXX=234
##MINX=27
##MAXY=9999
##MINY=30
##NPOINTS=39
##PEAK TABLE=(XY..XY)
27,100 28,60 29,150 39,90
41,300 42,60 43,260 51,30
53,30 55,230 56,30 57,440
65,90 67,30 77,180 78,70
79,150 80,40 89,30 91,310
92,30 93,80 104,50 105,40
106,761 107,9999 108,861 109,50
120,50 127,40 132,30 133,60
134,150 148,120 149,831 150,80
162,130 233,891 234,160
##END=
