##TITLE=4-Butylbenzoic acid, morpholide
##JCAMP-DX=4.24
##DATA TYPE=MASS SPECTRUM
##ORIGIN=Zaikin V.G., TIPS RAS, Moscow, Russia
##OWNER=NIST Mass Spectrometry Data Center
Collection (C) 2014 copyright by the U.S. Secretary of Commerce
on behalf of the United States of America. All rights reserved.
##$NIST MASS SPEC NO=306999
##MOLFORM=C15 H21 N O2
##MW=247
##$NIST SOURCE=MSDC
##XUNITS=M/Z
##YUNITS=RELATIVE INTENSITY
##XFACTOR=1
##YFACTOR=1
##FIRSTX=27
##LASTX=248
##FIRSTY=50
##MAXX=248
##MINX=27
##MAXY=9999
##MINY=20
##NPOINTS=50
##PEAK TABLE=(XY..XY)
27,50 28,20 29,50 39,30
41,70 42,40 51,30 55,90
56,150 57,30 63,30 65,100
69,50 70,40 77,130 78,50
79,40 86,240 89,130 90,370
91,1031 92,90 103,120 104,90
105,120 115,70 116,30 117,40
118,280 119,40 131,130 132,30
133,90 148,70 159,60 160,30
161,9999 162,981 163,70 176,50
190,250 191,30 204,90 216,120
218,40 219,30 232,120 246,2182
247,1251 248,220
##END=
