##TITLE=Acetamide, N-(3-nitrophenyl)-2-(2-thienyl)-
##JCAMP-DX=4.24
##DATA TYPE=MASS SPECTRUM
##ORIGIN=Zaikin V.G., TIPS RAS, Moscow, Russia
##OWNER=NIST Mass Spectrometry Data Center
Collection (C) 2014 copyright by the U.S. Secretary of Commerce
on behalf of the United States of America. All rights reserved.
##$NIST MASS SPEC NO=306907
##MOLFORM=C12 H10 N2 O3 S
##MW=262
##$NIST SOURCE=MSDC
##XUNITS=M/Z
##YUNITS=RELATIVE INTENSITY
##XFACTOR=1
##YFACTOR=1
##FIRSTX=27
##LASTX=264
##FIRSTY=50
##MAXX=264
##MINX=27
##MAXY=9999
##MINY=20
##NPOINTS=62
##PEAK TABLE=(XY..XY)
27,50 28,20 30,50 38,50
39,280 45,651 47,50 50,130
51,140 52,140 53,641 54,60
58,70 62,50 63,290 64,230
65,230 66,30 69,160 70,90
74,30 75,150 76,320 77,50
78,40 79,60 80,90 81,30
90,130 91,160 92,380 93,50
95,80 96,420 97,9999 98,4114
99,661 100,190 106,60 107,50
108,230 109,50 118,40 119,50
122,80 124,1041 125,80 126,50
134,340 135,160 137,230 138,120
149,30 164,50 165,390 166,30
232,540 233,80 234,30 262,2182
263,310 264,130
##END=
