##TITLE=Benzamide, N-(1-naphthyl)-4-methyl-
##JCAMP-DX=4.24
##DATA TYPE=MASS SPECTRUM
##ORIGIN=Zaikin V.G., TIPS RAS, Moscow, Russia
##OWNER=NIST Mass Spectrometry Data Center
Collection (C) 2014 copyright by the U.S. Secretary of Commerce
on behalf of the United States of America. All rights reserved.
##$NIST MASS SPEC NO=306964
##MOLFORM=C18 H15 N O
##MW=261
##$NIST SOURCE=MSDC
##XUNITS=M/Z
##YUNITS=RELATIVE INTENSITY
##XFACTOR=1
##YFACTOR=1
##FIRSTX=28
##LASTX=263
##FIRSTY=30
##MAXX=263
##MINX=28
##MAXY=9999
##MINY=30
##NPOINTS=28
##PEAK TABLE=(XY..XY)
28,30 39,70 41,30 51,40
63,90 65,450 89,170 90,130
91,2252 92,180 113,40 114,70
115,601 116,110 118,50 119,9999
120,701 121,40 127,40 140,90
141,60 142,50 143,330 144,130
260,30 261,4114 262,731 263,80
##END=
