##TITLE=1-Dimethylisopropylsilyloxy-3-methylbenzene
##JCAMP-DX=4.24
##DATA TYPE=MASS SPECTRUM
##ORIGIN=Zaikin V.G., TIPS RAS, Moscow, Russia
##OWNER=NIST Mass Spectrometry Data Center
Collection (C) 2014 copyright by the U.S. Secretary of Commerce
on behalf of the United States of America. All rights reserved.
##$NIST MASS SPEC NO=307908
##MOLFORM=C12 H20 O Si
##MW=208
##$NIST SOURCE=MSDC
##XUNITS=M/Z
##YUNITS=RELATIVE INTENSITY
##XFACTOR=1
##YFACTOR=1
##FIRSTX=59
##LASTX=210
##FIRSTY=130
##MAXX=210
##MINX=59
##MAXY=9999
##MINY=30
##NPOINTS=29
##PEAK TABLE=(XY..XY)
59,130 65,70 73,60 75,190
79,30 82,30 83,30 91,821
92,60 95,30 105,140 109,80
135,280 136,30 137,50 149,300
150,60 151,130 163,80 164,30
165,9999 166,1571 167,470 168,30
177,40 193,130 208,2392 209,981
210,120
##END=
