##TITLE=Nicotinic acid, 4-nitrophenyl ester
##JCAMP-DX=4.24
##DATA TYPE=MASS SPECTRUM
##ORIGIN=Zaikin V.G., TIPS RAS, Moscow, Russia
##OWNER=NIST Mass Spectrometry Data Center
Collection (C) 2014 copyright by the U.S. Secretary of Commerce
on behalf of the United States of America. All rights reserved.
##$NIST MASS SPEC NO=307952
##MOLFORM=C12 H8 N2 O4
##MW=244
##$NIST SOURCE=MSDC
##XUNITS=M/Z
##YUNITS=RELATIVE INTENSITY
##XFACTOR=1
##YFACTOR=1
##FIRSTX=28
##LASTX=244
##FIRSTY=40
##MAXX=244
##MINX=28
##MAXY=9999
##MINY=30
##NPOINTS=18
##PEAK TABLE=(XY..XY)
28,40 36,100 50,30 51,581
52,40 77,30 78,2823 79,170
91,150 105,80 106,9999 107,611
108,40 123,230 135,30 139,30
214,50 244,40
##END=
