##TITLE=Benzamide, N-(4-bromophenyl)-2-methoxy-
##JCAMP-DX=4.24
##DATA TYPE=MASS SPECTRUM
##ORIGIN=Zaikin V.G., TIPS RAS, Moscow, Russia
##OWNER=NIST Mass Spectrometry Data Center
Collection (C) 2014 copyright by the U.S. Secretary of Commerce
on behalf of the United States of America. All rights reserved.
##$NIST MASS SPEC NO=307061
##MOLFORM=C14 H12 Br N O2
##MW=305
##$NIST SOURCE=MSDC
##XUNITS=M/Z
##YUNITS=RELATIVE INTENSITY
##XFACTOR=1
##YFACTOR=1
##FIRSTX=28
##LASTX=308
##FIRSTY=10
##MAXX=308
##MINX=28
##MAXY=9999
##MINY=10
##NPOINTS=33
##PEAK TABLE=(XY..XY)
28,10 39,50 50,50 51,90
63,140 64,170 65,100 75,30
76,80 77,1051 78,90 79,70
90,40 91,130 92,581 93,60
105,90 120,130 121,70 135,9999
136,721 137,60 143,30 145,30
170,30 171,130 172,40 173,120
211,30 305,1061 306,170 307,1041
308,160
##END=
