##TITLE=Benzamide, N-(2-iodo-4-methylphenyl)-3-methyl-
##JCAMP-DX=4.24
##DATA TYPE=MASS SPECTRUM
##ORIGIN=Zaikin V.G., TIPS RAS, Moscow, Russia
##OWNER=NIST Mass Spectrometry Data Center
Collection (C) 2014 copyright by the U.S. Secretary of Commerce
on behalf of the United States of America. All rights reserved.
##$NIST MASS SPEC NO=307119
##MOLFORM=C15 H14 I N O
##MW=351
##$NIST SOURCE=MSDC
##XUNITS=M/Z
##YUNITS=RELATIVE INTENSITY
##XFACTOR=1
##YFACTOR=1
##FIRSTX=28
##LASTX=353
##FIRSTY=20
##MAXX=353
##MINX=28
##MAXY=9999
##MINY=20
##NPOINTS=39
##PEAK TABLE=(XY..XY)
28,20 39,90 41,30 50,40
51,100 52,60 63,90 64,30
65,480 66,30 76,40 77,140
78,150 79,50 89,170 90,180
91,2442 92,210 104,240 105,180
106,60 118,40 119,9999 120,751
121,40 127,60 128,110 194,30
222,30 223,80 224,80 225,70
226,30 232,70 233,170 234,50
351,5895 352,911 353,80
##END=
