##TITLE=4-Trifluoromethylbenzoic acid, 4-chlorophenyl ester
##JCAMP-DX=4.24
##DATA TYPE=MASS SPECTRUM
##ORIGIN=Zaikin V.G., TIPS RAS, Moscow, Russia
##OWNER=NIST Mass Spectrometry Data Center
Collection (C) 2014 copyright by the U.S. Secretary of Commerce
on behalf of the United States of America. All rights reserved.
##$NIST MASS SPEC NO=307734
##MOLFORM=C14 H8 Cl F3 O2
##MW=300
##$NIST SOURCE=MSDC
##XUNITS=M/Z
##YUNITS=RELATIVE INTENSITY
##XFACTOR=1
##YFACTOR=1
##FIRSTX=50
##LASTX=302
##FIRSTY=60
##MAXX=302
##MINX=50
##MAXY=9999
##MINY=30
##NPOINTS=26
##PEAK TABLE=(XY..XY)
50,60 63,70 73,70 74,30
75,160 76,40 95,250 99,160
101,40 119,30 125,160 126,130
127,50 128,60 144,70 145,2853
146,230 154,50 173,9999 174,861
175,50 281,120 283,40 300,591
301,90 302,200
##END=
