##TITLE=Pentanamide, N-(3-methylphenyl)-5-chloro-
##JCAMP-DX=4.24
##DATA TYPE=MASS SPECTRUM
##ORIGIN=Zaikin V.G., TIPS RAS, Moscow, Russia
##OWNER=NIST Mass Spectrometry Data Center
Collection (C) 2014 copyright by the U.S. Secretary of Commerce
on behalf of the United States of America. All rights reserved.
##$NIST MASS SPEC NO=307359
##MOLFORM=C12 H16 Cl N O
##MW=225
##$NIST SOURCE=MSDC
##XUNITS=M/Z
##YUNITS=RELATIVE INTENSITY
##XFACTOR=1
##YFACTOR=1
##FIRSTX=27
##LASTX=228
##FIRSTY=160
##MAXX=228
##MINX=27
##MAXY=9999
##MINY=20
##NPOINTS=50
##PEAK TABLE=(XY..XY)
27,160 28,70 29,180 36,50
39,170 41,110 50,30 51,90
52,60 53,110 55,851 56,40
63,110 64,30 65,200 66,30
76,30 77,400 78,150 79,250
80,60 89,60 90,50 91,631
92,50 93,120 104,90 105,50
106,1081 107,9999 108,841 109,30
111,150 118,40 119,90 120,50
121,20 131,40 132,60 133,90
134,190 146,30 162,40 189,80
190,420 191,50 225,1381 226,200
227,460 228,60
##END=
