##TITLE=3-Fluorobenzoic acid, 3-methylphenyl ester
##JCAMP-DX=4.24
##DATA TYPE=MASS SPECTRUM
##ORIGIN=Zaikin V.G., TIPS RAS, Moscow, Russia
##OWNER=NIST Mass Spectrometry Data Center
Collection (C) 2014 copyright by the U.S. Secretary of Commerce
on behalf of the United States of America. All rights reserved.
##$NIST MASS SPEC NO=307725
##MOLFORM=C14 H11 F O2
##MW=230
##$NIST SOURCE=MSDC
##XUNITS=M/Z
##YUNITS=RELATIVE INTENSITY
##XFACTOR=1
##YFACTOR=1
##FIRSTX=27
##LASTX=231
##FIRSTY=30
##MAXX=231
##MINX=27
##MAXY=9999
##MINY=30
##NPOINTS=26
##PEAK TABLE=(XY..XY)
27,30 39,80 50,50 51,80
52,30 53,40 63,30 65,50
69,40 74,30 75,360 76,40
77,180 78,70 79,80 91,30
94,90 95,2422 96,170 107,110
108,60 123,9999 124,721 125,40
230,1712 231,270
##END=
