##TITLE=Cyclopropanecarboxylic acid, 3,4-dichlorophenyl ester
##JCAMP-DX=4.24
##DATA TYPE=MASS SPECTRUM
##ORIGIN=Zaikin V.G., TIPS RAS, Moscow, Russia
##OWNER=NIST Mass Spectrometry Data Center
Collection (C) 2014 copyright by the U.S. Secretary of Commerce
on behalf of the United States of America. All rights reserved.
##$NIST MASS SPEC NO=307526
##MOLFORM=C10 H8 Cl2 O2
##MW=230
##$NIST SOURCE=MSDC
##XUNITS=M/Z
##YUNITS=RELATIVE INTENSITY
##XFACTOR=1
##YFACTOR=1
##FIRSTX=26
##LASTX=232
##FIRSTY=20
##MAXX=232
##MINX=26
##MAXY=9999
##MINY=10
##NPOINTS=44
##PEAK TABLE=(XY..XY)
26,20 27,60 28,10 36,80
37,40 38,100 39,921 40,150
41,3313 42,110 44,30 50,30
55,70 61,60 62,140 63,410
68,80 69,9999 70,420 72,60
73,210 74,90 75,110 83,40
85,40 97,60 98,70 99,160
100,30 101,40 107,50 109,110
111,30 126,30 133,230 135,150
145,50 147,30 161,30 162,200
163,30 164,130 230,300 232,190
##END=
