##TITLE=1-(3-Cyanopropyl)dimethylsilyloxy-4-methoxybenzene
##JCAMP-DX=4.24
##DATA TYPE=MASS SPECTRUM
##ORIGIN=Zaikin V.G., TIPS RAS, Moscow, Russia
##OWNER=NIST Mass Spectrometry Data Center
Collection (C) 2014 copyright by the U.S. Secretary of Commerce
on behalf of the United States of America. All rights reserved.
##$NIST MASS SPEC NO=307932
##MOLFORM=C13 H19 N O2 Si
##MW=249
##$NIST SOURCE=MSDC
##XUNITS=M/Z
##YUNITS=RELATIVE INTENSITY
##XFACTOR=1
##YFACTOR=1
##FIRSTX=28
##LASTX=252
##FIRSTY=10
##MAXX=252
##MINX=28
##MAXY=9999
##MINY=10
##NPOINTS=79
##PEAK TABLE=(XY..XY)
28,10 36,40 43,60 58,30
59,150 64,40 65,50 69,30
70,150 75,320 77,190 78,80
79,40 83,60 84,100 85,60
89,160 90,390 91,240 92,140
93,60 95,100 96,30 98,5705
99,571 100,230 103,120 106,70
107,150 108,40 109,60 110,70
119,40 121,420 122,60 123,250
124,60 125,40 126,9999 127,1201
128,380 133,30 135,200 136,30
137,80 138,110 139,120 149,180
150,130 151,440 152,50 153,90
164,30 165,1712 166,490 167,150
172,20 176,30 179,220 180,110
181,8538 182,1281 183,390 184,30
191,40 193,260 194,40 206,811
207,190 208,30 220,30 221,250
222,30 234,400 235,80 249,8067
250,1551 251,430 252,40
##END=
