##TITLE=1-Adamantanecarboxylic acid, morpholide
##JCAMP-DX=4.24
##DATA TYPE=MASS SPECTRUM
##ORIGIN=Zaikin V.G., TIPS RAS, Moscow, Russia
##OWNER=NIST Mass Spectrometry Data Center
Collection (C) 2014 copyright by the U.S. Secretary of Commerce
on behalf of the United States of America. All rights reserved.
##$NIST MASS SPEC NO=307463
##MOLFORM=C15 H23 N O2
##MW=249
##$NIST SOURCE=MSDC
##XUNITS=M/Z
##YUNITS=RELATIVE INTENSITY
##XFACTOR=1
##YFACTOR=1
##FIRSTX=27
##LASTX=250
##FIRSTY=30
##MAXX=250
##MINX=27
##MAXY=9999
##MINY=30
##NPOINTS=51
##PEAK TABLE=(XY..XY)
27,30 28,70 36,80 39,50
41,140 42,60 43,30 44,140
53,60 55,160 56,100 57,70
65,70 67,240 69,130 70,150
77,280 78,80 79,741 80,70
81,220 86,120 91,320 92,120
93,791 94,70 95,30 105,130
106,30 107,420 108,50 113,30
114,120 119,50 120,40 133,40
134,70 135,9999 136,1171 137,60
162,90 163,90 164,220 165,30
205,40 206,30 207,210 208,30
221,70 249,1872 250,300
##END=
