##TITLE=Propanamide, N-(2,5-dimethoxyphenyl)-2-bromo-
##JCAMP-DX=4.24
##DATA TYPE=MASS SPECTRUM
##ORIGIN=Zaikin V.G., TIPS RAS, Moscow, Russia
##OWNER=NIST Mass Spectrometry Data Center
Collection (C) 2014 copyright by the U.S. Secretary of Commerce
on behalf of the United States of America. All rights reserved.
##$NIST MASS SPEC NO=307478
##MOLFORM=C11 H14 Br N O3
##MW=287
##$NIST SOURCE=MSDC
##XUNITS=M/Z
##YUNITS=RELATIVE INTENSITY
##XFACTOR=1
##YFACTOR=1
##FIRSTX=28
##LASTX=291
##FIRSTY=10
##MAXX=291
##MINX=28
##MAXY=9999
##MINY=10
##NPOINTS=70
##PEAK TABLE=(XY..XY)
28,10 29,30 40,30 41,30
44,40 52,30 53,90 54,30
55,100 66,70 67,110 68,230
69,80 79,160 80,180 81,100
82,120 92,240 93,240 94,120
95,410 96,40 107,270 108,150
109,601 110,380 111,60 120,30
121,60 122,430 123,150 124,210
125,230 135,60 136,140 137,60
138,9999 139,931 140,70 148,100
149,140 150,671 151,240 152,240
153,881 154,170 162,170 163,30
164,390 165,1151 166,130 176,110
177,430 178,100 179,120 180,741
181,70 192,80 193,50 256,60
258,50 272,1431 273,160 274,1411
275,150 287,5295 288,631 289,5165
290,661 291,60
##END=
