##TITLE=2-Furancarboxamide, N-(3-chlorophenyl)-
##JCAMP-DX=4.24
##DATA TYPE=MASS SPECTRUM
##ORIGIN=Zaikin V.G., TIPS RAS, Moscow, Russia
##OWNER=NIST Mass Spectrometry Data Center
Collection (C) 2014 copyright by the U.S. Secretary of Commerce
on behalf of the United States of America. All rights reserved.
##$NIST MASS SPEC NO=307037
##MOLFORM=C11 H8 Cl N O2
##MW=221
##$NIST SOURCE=MSDC
##XUNITS=M/Z
##YUNITS=RELATIVE INTENSITY
##XFACTOR=1
##YFACTOR=1
##FIRSTX=28
##LASTX=224
##FIRSTY=30
##MAXX=224
##MINX=28
##MAXY=9999
##MINY=20
##NPOINTS=41
##PEAK TABLE=(XY..XY)
28,30 38,80 39,480 50,30
51,60 62,30 63,110 64,70
65,50 66,20 67,130 73,50
75,110 90,50 91,50 92,30
93,30 95,9999 96,450 97,40
99,130 101,50 110,30 111,100
113,30 126,30 127,180 128,90
129,80 130,40 153,30 164,50
173,70 178,50 186,30 193,190
195,60 221,3883 222,460 223,1351
224,140
##END=
