##TITLE=Cyclopentanecarboxamide, N-(2-iodo-4-methylphenyl)-
##JCAMP-DX=4.24
##DATA TYPE=MASS SPECTRUM
##ORIGIN=Zaikin V.G., TIPS RAS, Moscow, Russia
##OWNER=NIST Mass Spectrometry Data Center
Collection (C) 2014 copyright by the U.S. Secretary of Commerce
on behalf of the United States of America. All rights reserved.
##$NIST MASS SPEC NO=307031
##MOLFORM=C13 H16 I N O
##MW=329
##$NIST SOURCE=MSDC
##XUNITS=M/Z
##YUNITS=RELATIVE INTENSITY
##XFACTOR=1
##YFACTOR=1
##FIRSTX=27
##LASTX=331
##FIRSTY=80
##MAXX=331
##MINX=27
##MAXY=9999
##MINY=30
##NPOINTS=57
##PEAK TABLE=(XY..XY)
27,80 28,30 39,210 40,60
41,961 42,60 50,50 51,150
52,110 53,80 54,30 55,180
63,80 64,40 65,80 66,40
67,230 68,70 69,3883 70,210
76,50 77,370 78,280 79,220
89,130 90,180 91,60 95,50
96,50 97,611 98,40 103,40
104,450 105,320 106,550 107,200
108,30 117,40 119,50 127,100
128,170 132,30 133,80 144,40
160,40 202,40 217,40 230,30
232,290 233,9999 234,751 259,80
260,80 288,110 329,3283 330,470
331,30
##END=
