##TITLE=Acetamide, N-(1-naphthyl)-2,2,2-trifluoro-
##JCAMP-DX=4.24
##DATA TYPE=MASS SPECTRUM
##ORIGIN=Zaikin V.G., TIPS RAS, Moscow, Russia
##OWNER=NIST Mass Spectrometry Data Center
Collection (C) 2014 copyright by the U.S. Secretary of Commerce
on behalf of the United States of America. All rights reserved.
##$NIST MASS SPEC NO=307316
##MOLFORM=C12 H8 F3 N O
##MW=239
##$NIST SOURCE=MSDC
##XUNITS=M/Z
##YUNITS=RELATIVE INTENSITY
##XFACTOR=1
##YFACTOR=1
##FIRSTX=28
##LASTX=241
##FIRSTY=50
##MAXX=241
##MINX=28
##MAXY=9999
##MINY=30
##NPOINTS=52
##PEAK TABLE=(XY..XY)
28,50 39,90 50,70 51,80
58,130 62,70 63,210 64,50
65,100 69,150 71,300 74,60
75,100 76,60 77,120 85,170
86,30 87,70 88,110 89,250
90,30 101,80 102,30 113,200
114,400 115,3813 116,591 117,30
126,160 127,891 128,130 140,480
141,310 142,1992 143,340 144,1171
145,130 152,60 153,100 169,851
170,641 171,80 172,40 177,40
191,190 192,70 220,70 234,70
238,50 239,9999 240,1271 241,100
##END=
