##TITLE=Benzamide, N-(3-nitrophenyl)-3-methyl-
##JCAMP-DX=4.24
##DATA TYPE=MASS SPECTRUM
##ORIGIN=Zaikin V.G., TIPS RAS, Moscow, Russia
##OWNER=NIST Mass Spectrometry Data Center
Collection (C) 2014 copyright by the U.S. Secretary of Commerce
on behalf of the United States of America. All rights reserved.
##$NIST MASS SPEC NO=307118
##MOLFORM=C14 H12 N2 O3
##MW=256
##$NIST SOURCE=MSDC
##XUNITS=M/Z
##YUNITS=RELATIVE INTENSITY
##XFACTOR=1
##YFACTOR=1
##FIRSTX=26
##LASTX=257
##FIRSTY=30
##MAXX=257
##MINX=26
##MAXY=9999
##MINY=20
##NPOINTS=46
##PEAK TABLE=(XY..XY)
26,30 27,30 28,20 30,60
36,30 38,60 39,350 40,40
41,150 44,50 50,100 51,170
52,90 53,30 62,70 63,380
64,230 65,1551 66,90 74,20
75,40 76,70 77,60 78,30
79,40 80,40 89,370 90,320
91,4924 92,430 93,20 105,30
118,60 119,9999 120,861 121,50
133,30 138,30 180,30 209,40
225,30 226,220 227,30 241,30
256,490 257,70
##END=
