##TITLE=Propanamide, N-(3-chlorophenyl)-2-methyl-
##JCAMP-DX=4.24
##DATA TYPE=MASS SPECTRUM
##ORIGIN=Zaikin V.G., TIPS RAS, Moscow, Russia
##OWNER=NIST Mass Spectrometry Data Center
Collection (C) 2014 copyright by the U.S. Secretary of Commerce
on behalf of the United States of America. All rights reserved.
##$NIST MASS SPEC NO=307321
##MOLFORM=C10 H12 Cl N O
##MW=197
##$NIST SOURCE=MSDC
##XUNITS=M/Z
##YUNITS=RELATIVE INTENSITY
##XFACTOR=1
##YFACTOR=1
##FIRSTX=26
##LASTX=200
##FIRSTY=30
##MAXX=200
##MINX=26
##MAXY=9999
##MINY=30
##NPOINTS=61
##PEAK TABLE=(XY..XY)
26,30 27,380 28,50 36,40
38,60 39,310 40,50 41,771
42,190 43,5085 44,170 50,70
51,60 52,50 55,90 62,60
63,290 64,200 65,320 66,30
69,40 70,260 71,1501 72,60
73,120 74,40 75,300 76,70
77,40 89,30 90,190 91,260
92,340 93,70 99,390 100,180
101,140 102,60 111,410 112,40
113,130 118,50 119,70 125,100
126,280 127,9999 128,821 129,3383
130,230 138,30 140,30 153,180
154,420 155,80 156,130 168,30
182,30 197,2873 198,370 199,961
200,110
##END=
