##TITLE=Acetoxyacetic acid, 2-naphthyl ester
##JCAMP-DX=4.24
##DATA TYPE=MASS SPECTRUM
##ORIGIN=Zaikin V.G., TIPS RAS, Moscow, Russia
##OWNER=NIST Mass Spectrometry Data Center
Collection (C) 2014 copyright by the U.S. Secretary of Commerce
on behalf of the United States of America. All rights reserved.
##$NIST MASS SPEC NO=307546
##MOLFORM=C14 H12 O4
##MW=244
##$NIST SOURCE=MSDC
##XUNITS=M/Z
##YUNITS=RELATIVE INTENSITY
##XFACTOR=1
##YFACTOR=1
##FIRSTX=28
##LASTX=245
##FIRSTY=20
##MAXX=245
##MINX=28
##MAXY=9999
##MINY=20
##NPOINTS=34
##PEAK TABLE=(XY..XY)
28,20 39,60 42,60 43,1812
44,50 50,30 51,40 62,40
63,150 65,90 73,701 74,50
75,50 77,50 87,30 88,50
89,200 91,20 101,861 102,40
113,60 114,90 115,1702 116,350
126,70 127,250 128,50 143,110
144,9999 145,1041 146,60 157,30
244,751 245,110
##END=
