##TITLE=2-Chloropropionic acid, 3,5-dimethylphenyl ester
##JCAMP-DX=4.24
##DATA TYPE=MASS SPECTRUM
##ORIGIN=Zaikin V.G., TIPS RAS, Moscow, Russia
##OWNER=NIST Mass Spectrometry Data Center
Collection (C) 2014 copyright by the U.S. Secretary of Commerce
on behalf of the United States of America. All rights reserved.
##$NIST MASS SPEC NO=307753
##MOLFORM=C11 H13 Cl O2
##MW=212
##$NIST SOURCE=MSDC
##XUNITS=M/Z
##YUNITS=RELATIVE INTENSITY
##XFACTOR=1
##YFACTOR=1
##FIRSTX=27
##LASTX=215
##FIRSTY=190
##MAXX=215
##MINX=27
##MAXY=9999
##MINY=30
##NPOINTS=33
##PEAK TABLE=(XY..XY)
27,190 28,30 39,80 41,50
51,60 52,40 53,110 55,120
56,40 63,540 65,200 77,540
78,130 79,250 91,370 92,30
93,100 94,50 103,80 104,60
105,390 106,30 107,1531 108,70
121,641 122,9999 123,861 124,40
149,80 212,921 213,100 214,290
215,30
##END=
