##TITLE=Butyric acid, 3,5-dimethylphenyl ester
##JCAMP-DX=4.24
##DATA TYPE=MASS SPECTRUM
##ORIGIN=Zaikin V.G., TIPS RAS, Moscow, Russia
##OWNER=NIST Mass Spectrometry Data Center
Collection (C) 2014 copyright by the U.S. Secretary of Commerce
on behalf of the United States of America. All rights reserved.
##$NIST MASS SPEC NO=307514
##MOLFORM=C12 H16 O2
##MW=192
##$NIST SOURCE=MSDC
##XUNITS=M/Z
##YUNITS=RELATIVE INTENSITY
##XFACTOR=1
##YFACTOR=1
##FIRSTX=26
##LASTX=193
##FIRSTY=30
##MAXX=193
##MINX=26
##MAXY=9999
##MINY=10
##NPOINTS=43
##PEAK TABLE=(XY..XY)
26,30 27,400 28,10 29,30
36,50 39,340 40,50 41,540
42,50 43,1892 44,100 50,60
51,170 52,100 53,210 55,150
63,70 65,180 66,30 67,40
69,30 70,30 71,741 77,791
78,190 79,350 81,30 91,470
92,60 93,100 94,60 103,100
104,60 105,200 107,1692 108,130
120,30 121,641 122,9999 123,931
124,60 192,821 193,90
##END=
