##TITLE=3-Cyclopentylpropionic acid, 4-cyanophenyl ester
##JCAMP-DX=4.24
##DATA TYPE=MASS SPECTRUM
##ORIGIN=Zaikin V.G., TIPS RAS, Moscow, Russia
##OWNER=NIST Mass Spectrometry Data Center
Collection (C) 2014 copyright by the U.S. Secretary of Commerce
on behalf of the United States of America. All rights reserved.
##$NIST MASS SPEC NO=307134
##MOLFORM=C15 H17 N O2
##MW=243
##$NIST SOURCE=MSDC
##XUNITS=M/Z
##YUNITS=RELATIVE INTENSITY
##XFACTOR=1
##YFACTOR=1
##FIRSTX=26
##LASTX=244
##FIRSTY=70
##MAXX=244
##MINX=26
##MAXY=9999
##MINY=30
##NPOINTS=77
##PEAK TABLE=(XY..XY)
26,70 27,440 28,200 29,510
36,70 37,70 38,80 39,951
40,170 41,2682 42,230 43,330
44,80 50,80 51,150 52,70
53,470 54,350 55,7877 56,400
57,150 62,60 63,260 64,350
65,190 66,90 67,1111 68,280
69,2372 70,140 75,120 76,70
77,120 78,30 79,3123 80,550
81,2332 82,270 83,961 84,50
89,30 90,420 91,380 92,60
93,40 95,310 96,90 97,2172
98,170 102,360 103,50 105,60
106,30 107,6436 108,611 109,30
116,220 117,350 118,130 119,1101
120,270 123,70 124,110 125,9999
126,971 127,60 128,30 129,50
130,50 131,50 133,30 161,440
162,90 174,70 175,60 243,80
244,50
##END=
