##TITLE=Benzamide, N-(4-bromophenyl)-4-trifluoromethyl-
##JCAMP-DX=4.24
##DATA TYPE=MASS SPECTRUM
##ORIGIN=Zaikin V.G., TIPS RAS, Moscow, Russia
##OWNER=NIST Mass Spectrometry Data Center
Collection (C) 2014 copyright by the U.S. Secretary of Commerce
on behalf of the United States of America. All rights reserved.
##$NIST MASS SPEC NO=307250
##MOLFORM=C14 H9 Br F3 N O
##MW=343
##$NIST SOURCE=MSDC
##XUNITS=M/Z
##YUNITS=RELATIVE INTENSITY
##XFACTOR=1
##YFACTOR=1
##FIRSTX=28
##LASTX=346
##FIRSTY=10
##MAXX=346
##MINX=28
##MAXY=9999
##MINY=10
##NPOINTS=36
##PEAK TABLE=(XY..XY)
28,10 39,30 50,60 51,30
63,130 64,100 65,70 74,30
75,140 76,70 90,50 91,210
92,40 95,230 119,30 125,170
126,160 143,90 144,60 145,3073
146,240 154,30 170,40 171,120
172,100 173,9999 174,781 175,40
263,80 264,30 324,120 326,120
343,1982 344,330 345,2002 346,310
##END=
