##TITLE=3-Fluorobenzoic acid, 4-benzyloxyphenyl ester
##JCAMP-DX=4.24
##DATA TYPE=MASS SPECTRUM
##ORIGIN=Zaikin V.G., TIPS RAS, Moscow, Russia
##OWNER=NIST Mass Spectrometry Data Center
Collection (C) 2014 copyright by the U.S. Secretary of Commerce
on behalf of the United States of America. All rights reserved.
##$NIST MASS SPEC NO=307732
##MOLFORM=C20 H15 F O3
##MW=322
##$NIST SOURCE=MSDC
##XUNITS=M/Z
##YUNITS=RELATIVE INTENSITY
##XFACTOR=1
##YFACTOR=1
##FIRSTX=26
##LASTX=324
##FIRSTY=30
##MAXX=324
##MINX=26
##MAXY=9999
##MINY=30
##NPOINTS=35
##PEAK TABLE=(XY..XY)
26,30 28,30 39,110 41,50
44,110 50,70 51,80 52,40
54,40 55,30 63,90 64,30
65,530 69,70 74,30 75,340
76,40 77,30 79,30 81,30
89,90 90,50 91,9999 92,811
93,30 94,80 95,2112 96,190
110,30 123,4934 124,380 140,70
322,1992 323,400 324,50
##END=
