##TITLE=3-Methyl-1-triisobutylsilyloxybenzene
##JCAMP-DX=4.24
##DATA TYPE=MASS SPECTRUM
##ORIGIN=Zaikin V.G., TIPS RAS, Moscow, Russia
##OWNER=NIST Mass Spectrometry Data Center
Collection (C) 2014 copyright by the U.S. Secretary of Commerce
on behalf of the United States of America. All rights reserved.
##$NIST MASS SPEC NO=307954
##MOLFORM=C19 H34 O Si
##MW=306
##$NIST SOURCE=MSDC
##XUNITS=M/Z
##YUNITS=RELATIVE INTENSITY
##XFACTOR=1
##YFACTOR=1
##FIRSTX=59
##LASTX=308
##FIRSTY=70
##MAXX=308
##MINX=59
##MAXY=9999
##MINY=30
##NPOINTS=42
##PEAK TABLE=(XY..XY)
59,70 65,30 77,30 83,50
85,40 91,450 92,80 93,200
105,60 123,40 135,971 136,150
137,2142 138,290 139,90 143,30
149,290 150,80 151,5115 152,721
153,210 164,40 165,100 175,30
177,210 178,30 191,130 192,70
193,9999 194,1832 195,520 196,40
199,50 207,230 208,50 249,7387
250,1982 251,470 252,70 306,3123
307,821 308,210
##END=
