##TITLE=Dichloroacetic acid, morpholide
##JCAMP-DX=4.24
##DATA TYPE=MASS SPECTRUM
##ORIGIN=Zaikin V.G., TIPS RAS, Moscow, Russia
##OWNER=NIST Mass Spectrometry Data Center
Collection (C) 2014 copyright by the U.S. Secretary of Commerce
on behalf of the United States of America. All rights reserved.
##$NIST MASS SPEC NO=307295
##MOLFORM=C6 H9 Cl2 N O2
##MW=197
##$NIST SOURCE=MSDC
##XUNITS=M/Z
##YUNITS=RELATIVE INTENSITY
##XFACTOR=1
##YFACTOR=1
##FIRSTX=26
##LASTX=201
##FIRSTY=100
##MAXX=201
##MINX=26
##MAXY=9999
##MINY=30
##NPOINTS=77
##PEAK TABLE=(XY..XY)
26,100 27,390 28,70 29,390
30,230 31,60 35,40 36,230
38,70 39,30 40,60 41,280
42,1171 43,150 44,80 45,270
47,40 48,160 49,140 50,50
51,40 52,50 54,320 55,360
56,2132 57,350 58,130 63,300
65,100 68,30 69,40 70,3803
71,170 72,40 75,30 76,450
77,100 78,140 79,30 83,681
84,80 85,530 86,1411 87,160
90,150 92,60 98,30 104,110
106,30 110,60 111,110 112,50
113,70 114,9999 115,611 116,50
132,911 133,60 134,611 135,30
136,80 140,40 153,60 154,30
155,40 162,851 163,70 164,280
167,30 182,390 184,260 186,40
197,1231 198,110 199,811 200,60
201,130
##END=
