##TITLE=4-Bromobutyric acid, 4-methoxyphenyl ester
##JCAMP-DX=4.24
##DATA TYPE=MASS SPECTRUM
##ORIGIN=Zaikin V.G., TIPS RAS, Moscow, Russia
##OWNER=NIST Mass Spectrometry Data Center
Collection (C) 2014 copyright by the U.S. Secretary of Commerce
on behalf of the United States of America. All rights reserved.
##$NIST MASS SPEC NO=307609
##MOLFORM=C11 H13 Br O3
##MW=272
##$NIST SOURCE=MSDC
##XUNITS=M/Z
##YUNITS=RELATIVE INTENSITY
##XFACTOR=1
##YFACTOR=1
##FIRSTX=39
##LASTX=274
##FIRSTY=40
##MAXX=274
##MINX=39
##MAXY=9999
##MINY=30
##NPOINTS=22
##PEAK TABLE=(XY..XY)
39,40 41,330 42,30 52,30
65,40 77,40 81,90 92,30
95,110 107,50 109,1461 110,100
121,140 123,200 124,9999 125,881
126,60 149,130 151,120 272,230
273,30 274,230
##END=
