##TITLE=5-Chlorovaleric acid, 2-naphthyl ester
##JCAMP-DX=4.24
##DATA TYPE=MASS SPECTRUM
##ORIGIN=Zaikin V.G., TIPS RAS, Moscow, Russia
##OWNER=NIST Mass Spectrometry Data Center
Collection (C) 2014 copyright by the U.S. Secretary of Commerce
on behalf of the United States of America. All rights reserved.
##$NIST MASS SPEC NO=307981
##MOLFORM=C15 H15 Cl O2
##MW=262
##$NIST SOURCE=MSDC
##XUNITS=M/Z
##YUNITS=RELATIVE INTENSITY
##XFACTOR=1
##YFACTOR=1
##FIRSTX=27
##LASTX=264
##FIRSTY=130
##MAXX=264
##MINX=27
##MAXY=9999
##MINY=20
##NPOINTS=39
##PEAK TABLE=(XY..XY)
27,130 28,70 29,180 36,60
39,110 41,80 44,40 50,30
51,40 53,50 55,901 56,40
62,40 63,160 65,90 75,40
77,40 88,40 89,170 91,290
93,80 109,20 113,50 114,70
115,1421 116,300 117,30 119,150
121,40 126,60 127,250 128,40
143,60 144,9999 145,1181 146,80
262,370 263,50 264,130
##END=
