##TITLE=1-(3-Cyanopropyl)dimethylsilyloxy-4-nitrobenzene
##JCAMP-DX=4.24
##DATA TYPE=MASS SPECTRUM
##ORIGIN=Zaikin V.G., TIPS RAS, Moscow, Russia
##OWNER=NIST Mass Spectrometry Data Center
Collection (C) 2014 copyright by the U.S. Secretary of Commerce
on behalf of the United States of America. All rights reserved.
##$NIST MASS SPEC NO=307934
##MOLFORM=C12 H16 N2 O3 Si
##MW=264
##$NIST SOURCE=MSDC
##XUNITS=M/Z
##YUNITS=RELATIVE INTENSITY
##XFACTOR=1
##YFACTOR=1
##FIRSTX=43
##LASTX=264
##FIRSTY=30
##MAXX=264
##MINX=43
##MAXY=9999
##MINY=20
##NPOINTS=52
##PEAK TABLE=(XY..XY)
43,30 65,40 70,100 75,30
76,50 84,30 85,50 91,190
95,60 98,3033 99,310 100,100
105,20 107,40 119,30 120,90
121,90 123,40 126,9999 127,1021
128,330 133,30 134,200 135,1381
136,210 137,30 139,60 147,30
148,60 149,270 150,1601 151,240
152,60 166,160 174,30 175,30
179,120 180,1281 181,100 182,80
196,7297 197,1161 198,320 208,40
221,1091 222,140 234,50 236,520
237,90 249,530 250,100 264,210
##END=
