##TITLE=Propanamide, N-(3-methylphenyl)-2-bromo-
##JCAMP-DX=4.24
##DATA TYPE=MASS SPECTRUM
##ORIGIN=Zaikin V.G., TIPS RAS, Moscow, Russia
##OWNER=NIST Mass Spectrometry Data Center
Collection (C) 2014 copyright by the U.S. Secretary of Commerce
on behalf of the United States of America. All rights reserved.
##$NIST MASS SPEC NO=307475
##MOLFORM=C10 H12 Br N O
##MW=241
##$NIST SOURCE=MSDC
##XUNITS=M/Z
##YUNITS=RELATIVE INTENSITY
##XFACTOR=1
##YFACTOR=1
##FIRSTX=26
##LASTX=244
##FIRSTY=90
##MAXX=244
##MINX=26
##MAXY=9999
##MINY=20
##NPOINTS=72
##PEAK TABLE=(XY..XY)
26,90 27,550 28,20 29,60
36,80 38,90 39,350 40,100
41,100 42,40 44,110 50,130
51,310 52,260 53,180 54,50
55,330 56,170 57,40 62,50
63,230 64,140 65,561 66,80
67,30 75,40 76,70 77,1371
78,611 79,811 80,210 81,40
82,80 89,170 90,140 91,1992
92,190 93,40 103,30 104,290
105,100 106,2722 107,9999 108,1071
109,611 115,30 116,40 117,120
118,140 119,220 120,40 127,80
130,30 132,220 133,591 134,4254
135,410 137,60 144,40 145,30
146,70 147,70 154,30 160,70
161,190 162,801 163,150 185,30
241,3863 242,450 243,3813 244,430
##END=
