##TITLE=2-Chloropropionic acid, 3-methylphenyl ester
##JCAMP-DX=4.24
##DATA TYPE=MASS SPECTRUM
##ORIGIN=Zaikin V.G., TIPS RAS, Moscow, Russia
##OWNER=NIST Mass Spectrometry Data Center
Collection (C) 2014 copyright by the U.S. Secretary of Commerce
on behalf of the United States of America. All rights reserved.
##$NIST MASS SPEC NO=307751
##MOLFORM=C10 H11 Cl O2
##MW=198
##$NIST SOURCE=MSDC
##XUNITS=M/Z
##YUNITS=RELATIVE INTENSITY
##XFACTOR=1
##YFACTOR=1
##FIRSTX=27
##LASTX=201
##FIRSTY=180
##MAXX=201
##MINX=27
##MAXY=9999
##MINY=30
##NPOINTS=29
##PEAK TABLE=(XY..XY)
27,180 28,40 39,110 51,80
52,60 53,70 55,110 56,50
63,651 64,30 65,260 77,380
78,120 79,340 80,180 89,30
90,200 91,530 92,50 106,30
107,1401 108,9999 109,821 110,40
135,110 198,1431 199,150 200,480
201,40
##END=
