##TITLE=1-Allyldimethylsilyloxy-3,5-dimethylbenzene
##JCAMP-DX=4.24
##DATA TYPE=MASS SPECTRUM
##ORIGIN=Zaikin V.G., TIPS RAS, Moscow, Russia
##OWNER=NIST Mass Spectrometry Data Center
Collection (C) 2014 copyright by the U.S. Secretary of Commerce
on behalf of the United States of America. All rights reserved.
##$NIST MASS SPEC NO=307929
##MOLFORM=C13 H20 O Si
##MW=220
##$NIST SOURCE=MSDC
##XUNITS=M/Z
##YUNITS=RELATIVE INTENSITY
##XFACTOR=1
##YFACTOR=1
##FIRSTX=59
##LASTX=222
##FIRSTY=120
##MAXX=222
##MINX=59
##MAXY=9999
##MINY=20
##NPOINTS=41
##PEAK TABLE=(XY..XY)
59,120 75,280 77,120 78,30
79,110 82,180 83,30 89,80
91,70 97,30 99,30 103,90
104,30 105,1682 106,140 109,40
119,100 123,40 135,30 145,40
149,410 150,60 151,50 159,30
161,50 162,20 163,621 164,160
165,60 175,40 177,270 178,100
179,9999 180,1641 181,450 182,30
205,220 206,30 220,2242 221,420
222,100
##END=
