##TITLE=3-Phenylpropionic acid, 3-methylphenyl ester
##JCAMP-DX=4.24
##DATA TYPE=MASS SPECTRUM
##ORIGIN=Zaikin V.G., TIPS RAS, Moscow, Russia
##OWNER=NIST Mass Spectrometry Data Center
Collection (C) 2014 copyright by the U.S. Secretary of Commerce
on behalf of the United States of America. All rights reserved.
##$NIST MASS SPEC NO=307780
##MOLFORM=C16 H16 O2
##MW=240
##$NIST SOURCE=MSDC
##XUNITS=M/Z
##YUNITS=RELATIVE INTENSITY
##XFACTOR=1
##YFACTOR=1
##FIRSTX=27
##LASTX=241
##FIRSTY=30
##MAXX=241
##MINX=27
##MAXY=9999
##MINY=20
##NPOINTS=27
##PEAK TABLE=(XY..XY)
27,30 28,20 39,50 51,70
65,220 77,470 78,150 79,400
80,60 89,30 90,60 91,3193
92,230 103,280 104,360 105,2963
106,230 107,460 108,9999 109,811
110,40 131,350 132,290 133,1111
134,100 240,821 241,130
##END=
