##TITLE=Octanoic acid, 3-methylphenyl ester
##JCAMP-DX=4.24
##DATA TYPE=MASS SPECTRUM
##ORIGIN=Zaikin V.G., TIPS RAS, Moscow, Russia
##OWNER=NIST Mass Spectrometry Data Center
Collection (C) 2014 copyright by the U.S. Secretary of Commerce
on behalf of the United States of America. All rights reserved.
##$NIST MASS SPEC NO=307694
##MOLFORM=C15 H22 O2
##MW=234
##$NIST SOURCE=MSDC
##XUNITS=M/Z
##YUNITS=RELATIVE INTENSITY
##XFACTOR=1
##YFACTOR=1
##FIRSTX=27
##LASTX=235
##FIRSTY=120
##MAXX=235
##MINX=27
##MAXY=9999
##MINY=20
##NPOINTS=39
##PEAK TABLE=(XY..XY)
27,120 28,90 29,220 39,120
41,460 42,90 43,671 51,30
53,60 55,380 56,40 57,2412
58,110 65,90 67,80 69,50
71,30 77,230 78,70 79,190
80,70 81,30 82,30 83,80
84,40 90,60 91,200 97,20
98,80 105,20 107,530 108,9999
109,1151 110,70 127,981 128,80
150,40 234,791 235,140
##END=
