##TITLE=p-Anisic acid, 4-cyanophenyl ester
##JCAMP-DX=4.24
##DATA TYPE=MASS SPECTRUM
##ORIGIN=Zaikin V.G., TIPS RAS, Moscow, Russia
##OWNER=NIST Mass Spectrometry Data Center
Collection (C) 2014 copyright by the U.S. Secretary of Commerce
on behalf of the United States of America. All rights reserved.
##$NIST MASS SPEC NO=307637
##MOLFORM=C15 H11 N O3
##MW=253
##$NIST SOURCE=MSDC
##XUNITS=M/Z
##YUNITS=RELATIVE INTENSITY
##XFACTOR=1
##YFACTOR=1
##FIRSTX=28
##LASTX=152
##FIRSTY=20
##MAXX=152
##MINX=28
##MAXY=9999
##MINY=20
##NPOINTS=16
##PEAK TABLE=(XY..XY)
28,20 63,70 64,180 76,50
77,701 78,40 79,40 92,500
93,30 104,30 107,601 108,40
135,9999 136,891 137,70 152,40
##END=
