##TITLE=Cyclopropanecarboxylic acid, morpholide
##JCAMP-DX=4.24
##DATA TYPE=MASS SPECTRUM
##ORIGIN=Zaikin V.G., TIPS RAS, Moscow, Russia
##OWNER=NIST Mass Spectrometry Data Center
Collection (C) 2014 copyright by the U.S. Secretary of Commerce
on behalf of the United States of America. All rights reserved.
##$NIST MASS SPEC NO=307183
##MOLFORM=C8 H13 N O2
##MW=155
##$NIST SOURCE=MSDC
##XUNITS=M/Z
##YUNITS=RELATIVE INTENSITY
##XFACTOR=1
##YFACTOR=1
##FIRSTX=26
##LASTX=156
##FIRSTY=160
##MAXX=156
##MINX=26
##MAXY=9999
##MINY=30
##NPOINTS=60
##PEAK TABLE=(XY..XY)
26,160 27,530 28,90 29,651
30,340 31,70 36,70 37,30
38,100 39,1581 40,320 41,4214
42,1241 43,230 44,120 45,120
52,40 53,60 54,290 55,911
56,3003 57,1962 58,190 59,50
67,90 68,420 69,9999 70,1231
71,130 72,320 81,30 82,200
83,240 84,180 85,270 86,4694
87,981 88,70 95,30 96,190
97,450 98,571 99,270 100,80
110,561 111,470 112,791 113,90
114,220 123,40 124,340 125,210
126,1241 127,310 138,30 140,2492
141,190 154,1251 155,1892 156,170
##END=
