##TITLE=4-Trifluoromethylbenzoic acid, 4-cyanophenyl ester
##JCAMP-DX=4.24
##DATA TYPE=MASS SPECTRUM
##ORIGIN=Zaikin V.G., TIPS RAS, Moscow, Russia
##OWNER=NIST Mass Spectrometry Data Center
Collection (C) 2014 copyright by the U.S. Secretary of Commerce
on behalf of the United States of America. All rights reserved.
##$NIST MASS SPEC NO=307737
##MOLFORM=C15 H8 F3 N O2
##MW=291
##$NIST SOURCE=MSDC
##XUNITS=M/Z
##YUNITS=RELATIVE INTENSITY
##XFACTOR=1
##YFACTOR=1
##FIRSTX=39
##LASTX=291
##FIRSTY=40
##MAXX=291
##MINX=39
##MAXY=9999
##MINY=30
##NPOINTS=24
##PEAK TABLE=(XY..XY)
39,40 50,70 51,40 63,60
64,70 75,150 76,50 90,100
91,50 95,290 118,30 119,110
125,190 126,120 144,60 145,2943
146,230 154,40 159,30 173,9999
174,761 175,40 272,150 291,50
##END=
