##TITLE=2-Fluorobenzoic acid, 3,4-dichlorophenyl ester
##JCAMP-DX=4.24
##DATA TYPE=MASS SPECTRUM
##ORIGIN=Zaikin V.G., TIPS RAS, Moscow, Russia
##OWNER=NIST Mass Spectrometry Data Center
Collection (C) 2014 copyright by the U.S. Secretary of Commerce
on behalf of the United States of America. All rights reserved.
##$NIST MASS SPEC NO=307690
##MOLFORM=C13 H7 Cl2 F O2
##MW=284
##$NIST SOURCE=MSDC
##XUNITS=M/Z
##YUNITS=RELATIVE INTENSITY
##XFACTOR=1
##YFACTOR=1
##FIRSTX=63
##LASTX=286
##FIRSTY=30
##MAXX=286
##MINX=63
##MAXY=9999
##MINY=30
##NPOINTS=13
##PEAK TABLE=(XY..XY)
63,30 75,300 94,60 95,1301
96,80 123,9999 124,791 125,40
133,60 135,30 284,280 285,30
286,210
##END=
