##TITLE=Cyclopentanecarboxylic acid, morpholide
##JCAMP-DX=4.24
##DATA TYPE=MASS SPECTRUM
##ORIGIN=Zaikin V.G., TIPS RAS, Moscow, Russia
##OWNER=NIST Mass Spectrometry Data Center
Collection (C) 2014 copyright by the U.S. Secretary of Commerce
on behalf of the United States of America. All rights reserved.
##$NIST MASS SPEC NO=307022
##MOLFORM=C10 H17 N O2
##MW=183
##$NIST SOURCE=MSDC
##XUNITS=M/Z
##YUNITS=RELATIVE INTENSITY
##XFACTOR=1
##YFACTOR=1
##FIRSTX=26
##LASTX=185
##FIRSTY=110
##MAXX=185
##MINX=26
##MAXY=9999
##MINY=30
##NPOINTS=76
##PEAK TABLE=(XY..XY)
26,110 27,470 28,120 29,310
30,220 31,50 36,30 38,30
39,641 40,210 41,2492 42,981
43,180 44,220 45,160 51,30
53,160 54,160 55,1011 56,1611
57,1892 58,230 59,40 60,30
65,130 66,90 67,721 68,510
69,9899 70,1712 71,90 72,300
73,30 81,40 82,40 83,30
84,60 85,90 86,2762 87,1912
88,1812 89,90 94,30 95,190
96,991 97,1531 98,210 99,30
110,170 111,130 112,380 113,40
114,1151 115,110 116,40 124,120
125,130 126,120 129,40 138,80
139,30 140,420 141,50 142,9999
143,801 144,60 152,170 153,50
154,160 155,561 156,50 168,70
182,230 183,5825 184,751 185,60
##END=
