##TITLE=Cyclobutanecarboxylic acid, 4-cyanophenyl ester
##JCAMP-DX=4.24
##DATA TYPE=MASS SPECTRUM
##ORIGIN=Zaikin V.G., TIPS RAS, Moscow, Russia
##OWNER=NIST Mass Spectrometry Data Center
Collection (C) 2014 copyright by the U.S. Secretary of Commerce
on behalf of the United States of America. All rights reserved.
##$NIST MASS SPEC NO=307440
##MOLFORM=C12 H11 N O2
##MW=201
##$NIST SOURCE=MSDC
##XUNITS=M/Z
##YUNITS=RELATIVE INTENSITY
##XFACTOR=1
##YFACTOR=1
##FIRSTX=26
##LASTX=202
##FIRSTY=90
##MAXX=202
##MINX=26
##MAXY=9999
##MINY=30
##NPOINTS=35
##PEAK TABLE=(XY..XY)
26,90 27,911 28,330 29,831
36,30 37,70 38,60 39,611
40,40 41,40 50,70 51,110
52,50 53,380 54,170 55,9999
56,410 62,50 63,210 64,310
65,40 75,90 76,60 82,50
83,5775 84,320 90,300 91,180
92,30 102,230 118,70 119,691
120,70 201,140 202,30
##END=
