##TITLE=Benzamide, N-(4-fluorophenyl)-4-chloro-
##JCAMP-DX=4.24
##DATA TYPE=MASS SPECTRUM
##ORIGIN=Zaikin V.G., TIPS RAS, Moscow, Russia
##OWNER=NIST Mass Spectrometry Data Center
Collection (C) 2014 copyright by the U.S. Secretary of Commerce
on behalf of the United States of America. All rights reserved.
##$NIST MASS SPEC NO=307395
##MOLFORM=C13 H9 Cl F N O
##MW=249
##$NIST SOURCE=MSDC
##XUNITS=M/Z
##YUNITS=RELATIVE INTENSITY
##XFACTOR=1
##YFACTOR=1
##FIRSTX=28
##LASTX=252
##FIRSTY=20
##MAXX=252
##MINX=28
##MAXY=9999
##MINY=20
##NPOINTS=50
##PEAK TABLE=(XY..XY)
28,20 36,60 38,30 39,50
44,40 50,360 51,210 52,40
57,290 61,40 62,40 63,120
64,40 73,40 74,230 75,1712
76,520 77,100 81,70 82,110
83,681 84,140 85,150 87,50
89,30 95,90 104,200 105,30
109,90 110,210 111,3904 112,330
113,1221 114,80 137,40 138,30
139,9999 140,751 141,3403 142,230
157,40 183,110 184,40 185,190
231,80 233,30 249,1762 250,250
251,581 252,70
##END=
