##TITLE=1-Naphthalenecarboxamide, N-(4-fluorophenyl)-
##JCAMP-DX=4.24
##DATA TYPE=MASS SPECTRUM
##ORIGIN=Zaikin V.G., TIPS RAS, Moscow, Russia
##OWNER=NIST Mass Spectrometry Data Center
Collection (C) 2014 copyright by the U.S. Secretary of Commerce
on behalf of the United States of America. All rights reserved.
##$NIST MASS SPEC NO=307404
##MOLFORM=C17 H12 F N O
##MW=265
##$NIST SOURCE=MSDC
##XUNITS=M/Z
##YUNITS=RELATIVE INTENSITY
##XFACTOR=1
##YFACTOR=1
##FIRSTX=28
##LASTX=267
##FIRSTY=20
##MAXX=267
##MINX=28
##MAXY=9999
##MINY=20
##NPOINTS=36
##PEAK TABLE=(XY..XY)
28,20 50,50 51,100 57,60
63,70 74,70 75,180 76,80
77,390 78,30 83,140 84,50
87,30 100,20 101,270 102,40
110,60 111,140 115,30 125,40
126,661 127,5175 128,691 129,40
153,60 154,50 155,9999 156,1151
157,80 234,30 235,80 236,30
264,60 265,2342 266,450 267,40
##END=
