##TITLE=Benzamide, N-(2,5-dimethoxyphenyl)-2-methoxy-
##JCAMP-DX=4.24
##DATA TYPE=MASS SPECTRUM
##ORIGIN=Zaikin V.G., TIPS RAS, Moscow, Russia
##OWNER=NIST Mass Spectrometry Data Center
Collection (C) 2014 copyright by the U.S. Secretary of Commerce
on behalf of the United States of America. All rights reserved.
##$NIST MASS SPEC NO=307062
##MOLFORM=C16 H17 N O4
##MW=287
##$NIST SOURCE=MSDC
##XUNITS=M/Z
##YUNITS=RELATIVE INTENSITY
##XFACTOR=1
##YFACTOR=1
##FIRSTX=28
##LASTX=289
##FIRSTY=40
##MAXX=289
##MINX=28
##MAXY=9999
##MINY=20
##NPOINTS=47
##PEAK TABLE=(XY..XY)
28,40 39,50 50,30 51,80
52,70 53,40 63,60 64,100
65,60 68,40 76,50 77,961
78,100 79,150 80,30 92,530
93,90 94,30 95,50 105,90
106,30 107,60 108,30 109,30
120,120 121,70 122,50 123,50
124,20 125,40 135,9999 136,781
137,80 138,120 139,30 150,20
151,50 152,50 153,70 154,30
241,30 256,380 257,80 272,110
287,4624 288,791 289,100
##END=
