##TITLE=3-Bromobenzoic acid, 2-naphthyl ester
##JCAMP-DX=4.24
##DATA TYPE=MASS SPECTRUM
##ORIGIN=Zaikin V.G., TIPS RAS, Moscow, Russia
##OWNER=NIST Mass Spectrometry Data Center
Collection (C) 2014 copyright by the U.S. Secretary of Commerce
on behalf of the United States of America. All rights reserved.
##$NIST MASS SPEC NO=307555
##MOLFORM=C17 H11 Br O2
##MW=326
##$NIST SOURCE=MSDC
##XUNITS=M/Z
##YUNITS=RELATIVE INTENSITY
##XFACTOR=1
##YFACTOR=1
##FIRSTX=38
##LASTX=330
##FIRSTY=40
##MAXX=330
##MINX=38
##MAXY=9999
##MINY=30
##NPOINTS=52
##PEAK TABLE=(XY..XY)
38,40 39,110 43,30 50,490
51,130 57,60 62,100 63,290
64,50 65,180 71,30 74,200
75,891 76,1411 77,230 80,50
81,30 82,60 87,60 88,110
89,400 101,30 103,30 104,460
105,150 113,130 114,150 115,2412
116,290 126,70 127,120 128,40
143,50 144,310 155,2572 156,220
157,2582 158,170 183,9999 184,801
185,9959 186,751 187,30 189,140
190,30 191,30 218,40 326,2282
327,430 328,2262 329,390 330,30
##END=
