##TITLE=Acetamide, N-(2-iodo-4-methylphenyl)-2-methoxy-
##JCAMP-DX=4.24
##DATA TYPE=MASS SPECTRUM
##ORIGIN=Zaikin V.G., TIPS RAS, Moscow, Russia
##OWNER=NIST Mass Spectrometry Data Center
Collection (C) 2014 copyright by the U.S. Secretary of Commerce
on behalf of the United States of America. All rights reserved.
##$NIST MASS SPEC NO=307263
##MOLFORM=C10 H12 I N O2
##MW=305
##$NIST SOURCE=MSDC
##XUNITS=M/Z
##YUNITS=RELATIVE INTENSITY
##XFACTOR=1
##YFACTOR=1
##FIRSTX=27
##LASTX=307
##FIRSTY=50
##MAXX=307
##MINX=27
##MAXY=9999
##MINY=30
##NPOINTS=71
##PEAK TABLE=(XY..XY)
27,50 28,70 29,170 31,60
38,40 39,140 42,40 43,40
45,3793 46,110 50,130 51,320
52,220 53,50 62,50 63,180
64,80 65,90 74,40 75,50
76,130 77,561 78,490 79,160
89,310 90,510 91,240 92,50
102,40 103,90 104,871 105,631
106,240 107,70 116,40 117,490
118,310 119,340 120,90 127,150
128,230 132,80 133,180 134,110
135,30 146,150 147,100 148,50
163,80 178,50 179,30 217,190
230,90 231,80 232,1932 233,1101
234,150 244,210 245,1181 246,3934
247,400 259,721 260,1061 261,100
275,1161 276,240 277,40 290,30
305,9999 306,1111 307,100
##END=
