##TITLE=Cyclopropanecarboxylic acid, 4-chlorophenyl ester
##JCAMP-DX=4.24
##DATA TYPE=MASS SPECTRUM
##ORIGIN=Zaikin V.G., TIPS RAS, Moscow, Russia
##OWNER=NIST Mass Spectrometry Data Center
Collection (C) 2014 copyright by the U.S. Secretary of Commerce
on behalf of the United States of America. All rights reserved.
##$NIST MASS SPEC NO=307522
##MOLFORM=C10 H9 Cl O2
##MW=196
##$NIST SOURCE=MSDC
##XUNITS=M/Z
##YUNITS=RELATIVE INTENSITY
##XFACTOR=1
##YFACTOR=1
##FIRSTX=26
##LASTX=198
##FIRSTY=40
##MAXX=198
##MINX=26
##MAXY=9999
##MINY=20
##NPOINTS=45
##PEAK TABLE=(XY..XY)
26,40 27,90 28,30 36,120
37,50 38,210 39,1151 40,160
41,3643 42,120 44,50 49,30
50,110 51,60 53,30 55,80
61,40 62,100 63,350 64,130
65,210 68,70 69,9999 70,410
73,340 74,70 75,250 76,30
77,30 79,30 99,470 100,80
101,150 102,20 111,130 113,40
127,110 128,520 129,60 130,160
162,100 164,60 196,741 197,70
198,250
##END=
