##TITLE=Cyclobutanecarboxylic acid, 3,5-dimethylphenyl ester
##JCAMP-DX=4.24
##DATA TYPE=MASS SPECTRUM
##ORIGIN=Zaikin V.G., TIPS RAS, Moscow, Russia
##OWNER=NIST Mass Spectrometry Data Center
Collection (C) 2014 copyright by the U.S. Secretary of Commerce
on behalf of the United States of America. All rights reserved.
##$NIST MASS SPEC NO=307438
##MOLFORM=C13 H16 O2
##MW=204
##$NIST SOURCE=MSDC
##XUNITS=M/Z
##YUNITS=RELATIVE INTENSITY
##XFACTOR=1
##YFACTOR=1
##FIRSTX=26
##LASTX=206
##FIRSTY=50
##MAXX=206
##MINX=26
##MAXY=9999
##MINY=30
##NPOINTS=48
##PEAK TABLE=(XY..XY)
26,50 27,581 28,190 29,480
36,30 39,390 40,40 41,90
50,40 51,140 52,80 53,380
54,220 55,7427 56,340 63,50
65,150 67,30 77,761 78,180
79,320 81,30 82,340 83,3563
84,190 91,510 92,70 93,120
94,170 103,120 104,60 105,440
106,40 107,1251 108,100 119,50
120,40 121,821 122,9999 123,941
124,50 133,120 135,210 148,130
176,90 204,4494 205,641 206,50
##END=
