##TITLE=Propanamide, N-(3-methylphenyl)-3-chloro-
##JCAMP-DX=4.24
##DATA TYPE=MASS SPECTRUM
##ORIGIN=Zaikin V.G., TIPS RAS, Moscow, Russia
##OWNER=NIST Mass Spectrometry Data Center
Collection (C) 2014 copyright by the U.S. Secretary of Commerce
on behalf of the United States of America. All rights reserved.
##$NIST MASS SPEC NO=307226
##MOLFORM=C10 H12 Cl N O
##MW=197
##$NIST SOURCE=MSDC
##XUNITS=M/Z
##YUNITS=RELATIVE INTENSITY
##XFACTOR=1
##YFACTOR=1
##FIRSTX=26
##LASTX=200
##FIRSTY=40
##MAXX=200
##MINX=26
##MAXY=9999
##MINY=30
##NPOINTS=43
##PEAK TABLE=(XY..XY)
26,40 27,320 28,30 36,70
39,140 41,40 50,40 51,120
52,90 53,70 55,200 63,581
64,60 65,290 66,30 77,500
78,210 79,280 80,70 89,70
90,60 91,430 92,50 93,50
104,120 105,40 106,1581 107,9999
108,801 109,30 111,220 120,30
132,70 133,80 134,120 161,70
162,70 171,50 173,50 197,2793
198,330 199,941 200,100
##END=
