##TITLE=3-Methylbut-2-enoic acid, 3-methylphenyl ester
##JCAMP-DX=4.24
##DATA TYPE=MASS SPECTRUM
##ORIGIN=Zaikin V.G., TIPS RAS, Moscow, Russia
##OWNER=NIST Mass Spectrometry Data Center
Collection (C) 2014 copyright by the U.S. Secretary of Commerce
on behalf of the United States of America. All rights reserved.
##$NIST MASS SPEC NO=307592
##MOLFORM=C12 H14 O2
##MW=190
##$NIST SOURCE=MSDC
##XUNITS=M/Z
##YUNITS=RELATIVE INTENSITY
##XFACTOR=1
##YFACTOR=1
##FIRSTX=27
##LASTX=191
##FIRSTY=180
##MAXX=191
##MINX=27
##MAXY=9999
##MINY=20
##NPOINTS=29
##PEAK TABLE=(XY..XY)
27,180 28,140 29,360 39,320
40,30 50,20 51,70 52,50
53,210 54,100 55,1431 56,60
63,30 65,70 67,40 77,230
78,80 79,130 82,490 83,9999
84,510 85,20 90,30 91,80
107,290 108,430 109,40 190,631
191,80
##END=
