##TITLE=1-Naphthoic acid, 4-methoxyphenyl ester
##JCAMP-DX=4.24
##DATA TYPE=MASS SPECTRUM
##ORIGIN=Zaikin V.G., TIPS RAS, Moscow, Russia
##OWNER=NIST Mass Spectrometry Data Center
Collection (C) 2014 copyright by the U.S. Secretary of Commerce
on behalf of the United States of America. All rights reserved.
##$NIST MASS SPEC NO=307826
##MOLFORM=C18 H14 O3
##MW=278
##$NIST SOURCE=MSDC
##XUNITS=M/Z
##YUNITS=RELATIVE INTENSITY
##XFACTOR=1
##YFACTOR=1
##FIRSTX=77
##LASTX=279
##FIRSTY=120
##MAXX=279
##MINX=77
##MAXY=9999
##MINY=30
##NPOINTS=13
##PEAK TABLE=(XY..XY)
77,120 95,30 101,80 123,90
126,220 127,3073 128,370 155,9999
156,1191 157,80 161,30 278,1031
279,200
##END=
