##TITLE=4-Benzyloxy-1-di(tert-butyl)silyloxybenzene
##JCAMP-DX=4.24
##DATA TYPE=MASS SPECTRUM
##ORIGIN=Zaikin V.G., TIPS RAS, Moscow, Russia
##OWNER=NIST Mass Spectrometry Data Center
Collection (C) 2014 copyright by the U.S. Secretary of Commerce
on behalf of the United States of America. All rights reserved.
##$NIST MASS SPEC NO=307947
##MOLFORM=C21 H30 O2 Si
##MW=342
##$NIST SOURCE=MSDC
##XUNITS=M/Z
##YUNITS=RELATIVE INTENSITY
##XFACTOR=1
##YFACTOR=1
##FIRSTX=28
##LASTX=345
##FIRSTY=10
##MAXX=345
##MINX=28
##MAXY=9999
##MINY=10
##NPOINTS=67
##PEAK TABLE=(XY..XY)
28,10 29,40 36,80 41,100
45,40 57,160 58,70 59,1141
60,40 65,230 73,9599 74,771
75,510 77,40 83,60 85,40
87,30 91,9999 92,761 93,50
96,40 99,30 101,891 102,60
109,40 110,30 119,100 121,30
123,50 124,80 135,90 136,40
137,60 138,50 151,150 152,60
153,80 165,90 166,90 167,420
168,40 179,120 191,80 193,130
194,40 195,320 196,50 200,30
207,190 209,410 227,200 228,50
235,30 243,50 251,9649 252,1992
253,510 257,761 258,120 285,130
286,460 287,90 327,30 342,9669
343,2702 344,671 345,80
##END=
