##TITLE=Benzamide, N-(3-nitrophenyl)-4-fluoro-
##JCAMP-DX=4.24
##DATA TYPE=MASS SPECTRUM
##ORIGIN=Zaikin V.G., TIPS RAS, Moscow, Russia
##OWNER=NIST Mass Spectrometry Data Center
Collection (C) 2014 copyright by the U.S. Secretary of Commerce
on behalf of the United States of America. All rights reserved.
##$NIST MASS SPEC NO=307107
##MOLFORM=C13 H9 F N2 O3
##MW=260
##$NIST SOURCE=MSDC
##XUNITS=M/Z
##YUNITS=RELATIVE INTENSITY
##XFACTOR=1
##YFACTOR=1
##FIRSTX=28
##LASTX=355
##FIRSTY=10
##MAXX=355
##MINX=28
##MAXY=9999
##MINY=10
##NPOINTS=32
##PEAK TABLE=(XY..XY)
28,10 38,30 39,50 50,80
51,60 52,40 62,30 63,120
64,100 65,60 69,60 74,50
75,561 76,80 91,60 92,40
94,130 95,2893 96,210 122,40
123,9999 124,721 125,40 138,30
184,30 185,30 213,40 230,190
231,30 260,971 261,150 355,50
##END=
