##TITLE=2-Chloropropionic acid, 4-methoxyphenyl ester
##JCAMP-DX=4.24
##DATA TYPE=MASS SPECTRUM
##ORIGIN=Zaikin V.G., TIPS RAS, Moscow, Russia
##OWNER=NIST Mass Spectrometry Data Center
Collection (C) 2014 copyright by the U.S. Secretary of Commerce
on behalf of the United States of America. All rights reserved.
##$NIST MASS SPEC NO=307754
##MOLFORM=C10 H11 Cl O3
##MW=214
##$NIST SOURCE=MSDC
##XUNITS=M/Z
##YUNITS=RELATIVE INTENSITY
##XFACTOR=1
##YFACTOR=1
##FIRSTX=27
##LASTX=217
##FIRSTY=110
##MAXX=217
##MINX=27
##MAXY=9999
##MINY=10
##NPOINTS=31
##PEAK TABLE=(XY..XY)
27,110 28,10 39,40 41,110
51,30 52,80 53,70 54,50
55,70 63,400 64,80 65,150
77,90 80,60 81,140 92,80
93,30 95,390 107,130 108,40
109,1922 110,130 123,1251 124,9999
125,841 126,60 151,30 214,1441
215,160 216,480 217,50
##END=
