##TITLE=Hexanamide, N-tetrahydrofurfuryl-
##JCAMP-DX=4.24
##DATA TYPE=MASS SPECTRUM
##ORIGIN=Zaikin V.G., TIPS RAS, Moscow, Russia
##OWNER=NIST Mass Spectrometry Data Center
Collection (C) 2014 copyright by the U.S. Secretary of Commerce
on behalf of the United States of America. All rights reserved.
##$NIST MASS SPEC NO=307285
##MOLFORM=C11 H21 N O2
##MW=199
##$NIST SOURCE=MSDC
##XUNITS=M/Z
##YUNITS=RELATIVE INTENSITY
##XFACTOR=1
##YFACTOR=1
##FIRSTX=26
##LASTX=170
##FIRSTY=60
##MAXX=170
##MINX=26
##MAXY=9999
##MINY=20
##NPOINTS=56
##PEAK TABLE=(XY..XY)
26,60 27,460 28,30 29,621
30,881 31,60 36,30 39,300
40,60 41,1151 42,350 43,3213
44,300 45,40 53,80 54,100
55,520 56,430 57,150 58,260
59,80 60,50 67,150 68,50
69,150 70,330 71,9999 72,591
73,1932 74,80 81,30 82,120
83,150 84,4164 85,430 86,1551
87,420 98,100 99,691 100,1301
101,140 102,190 112,30 113,20
114,40 116,1001 117,60 128,140
129,1992 130,641 131,40 140,30
143,170 155,70 156,120 170,80
##END=
