##TITLE=Propanamide, N-(4-fluorophenyl)-2-methyl-
##JCAMP-DX=4.24
##DATA TYPE=MASS SPECTRUM
##ORIGIN=Zaikin V.G., TIPS RAS, Moscow, Russia
##OWNER=NIST Mass Spectrometry Data Center
Collection (C) 2014 copyright by the U.S. Secretary of Commerce
on behalf of the United States of America. All rights reserved.
##$NIST MASS SPEC NO=307319
##MOLFORM=C10 H12 F N O
##MW=181
##$NIST SOURCE=MSDC
##XUNITS=M/Z
##YUNITS=RELATIVE INTENSITY
##XFACTOR=1
##YFACTOR=1
##FIRSTX=26
##LASTX=182
##FIRSTY=30
##MAXX=182
##MINX=26
##MAXY=9999
##MINY=30
##NPOINTS=53
##PEAK TABLE=(XY..XY)
26,30 27,340 28,70 38,40
39,240 40,40 41,711 42,130
43,3763 44,170 50,40 51,40
52,50 55,90 56,40 57,320
62,50 63,120 64,90 65,110
69,70 70,110 71,731 72,30
74,30 75,220 81,70 82,150
83,871 84,480 85,30 89,40
91,70 92,110 94,40 95,320
96,50 108,40 109,250 110,691
111,9999 112,731 122,60 124,30
136,30 137,190 138,530 139,40
152,50 164,30 166,30 181,2142
182,280
##END=
