##TITLE=Acetamide, N-(1-naphthyl)-2-acetoxy-
##JCAMP-DX=4.24
##DATA TYPE=MASS SPECTRUM
##ORIGIN=Zaikin V.G., TIPS RAS, Moscow, Russia
##OWNER=NIST Mass Spectrometry Data Center
Collection (C) 2014 copyright by the U.S. Secretary of Commerce
on behalf of the United States of America. All rights reserved.
##$NIST MASS SPEC NO=307098
##MOLFORM=C14 H13 N O3
##MW=243
##$NIST SOURCE=MSDC
##XUNITS=M/Z
##YUNITS=RELATIVE INTENSITY
##XFACTOR=1
##YFACTOR=1
##FIRSTX=28
##LASTX=245
##FIRSTY=10
##MAXX=245
##MINX=28
##MAXY=9999
##MINY=10
##NPOINTS=50
##PEAK TABLE=(XY..XY)
28,10 39,40 42,40 43,1471
44,40 50,30 51,40 62,30
63,90 65,50 73,320 74,80
75,50 76,30 77,70 87,30
88,50 89,130 101,260 102,30
113,90 114,180 115,1481 116,360
117,50 123,40 126,100 127,380
128,130 129,40 140,230 141,180
142,370 143,9999 144,1201 145,70
153,60 154,240 155,160 156,50
169,180 170,190 182,50 183,70
184,30 201,360 202,50 243,3763
244,601 245,60
##END=
