##TITLE=1-Diphenylmethylsilyloxy-3-methylbenzene
##JCAMP-DX=4.24
##DATA TYPE=MASS SPECTRUM
##ORIGIN=Zaikin V.G., TIPS RAS, Moscow, Russia
##OWNER=NIST Mass Spectrometry Data Center
Collection (C) 2014 copyright by the U.S. Secretary of Commerce
on behalf of the United States of America. All rights reserved.
##$NIST MASS SPEC NO=307872
##MOLFORM=C20 H20 O Si
##MW=304
##$NIST SOURCE=MSDC
##XUNITS=M/Z
##YUNITS=RELATIVE INTENSITY
##XFACTOR=1
##YFACTOR=1
##FIRSTX=28
##LASTX=307
##FIRSTY=10
##MAXX=307
##MINX=28
##MAXY=9999
##MINY=10
##NPOINTS=57
##PEAK TABLE=(XY..XY)
28,10 45,40 65,40 77,40
91,190 93,40 105,220 112,140
113,100 119,100 121,50 135,100
137,120 144,30 145,80 149,430
150,80 151,30 152,150 153,30
155,30 165,290 166,90 167,70
168,100 169,30 180,50 181,240
182,50 183,70 193,40 195,270
196,60 197,1571 198,290 199,130
209,30 210,70 211,1571 212,300
213,80 225,190 226,80 227,711
228,150 229,30 287,60 288,30
289,9999 290,2783 291,721 292,100
303,30 304,7427 305,2072 306,561
307,70
##END=
