##TITLE=Benzamide, N-tetrahydrofurfuryl-2-bromo-
##JCAMP-DX=4.24
##DATA TYPE=MASS SPECTRUM
##ORIGIN=Zaikin V.G., TIPS RAS, Moscow, Russia
##OWNER=NIST Mass Spectrometry Data Center
Collection (C) 2014 copyright by the U.S. Secretary of Commerce
on behalf of the United States of America. All rights reserved.
##$NIST MASS SPEC NO=307383
##MOLFORM=C12 H14 Br N O2
##MW=283
##$NIST SOURCE=MSDC
##XUNITS=M/Z
##YUNITS=RELATIVE INTENSITY
##XFACTOR=1
##YFACTOR=1
##FIRSTX=26
##LASTX=286
##FIRSTY=40
##MAXX=286
##MINX=26
##MAXY=9999
##MINY=20
##NPOINTS=85
##PEAK TABLE=(XY..XY)
26,40 27,310 28,50 29,230
30,80 36,30 39,200 40,50
41,761 42,260 43,2732 44,200
50,420 51,240 52,40 53,50
54,30 55,90 56,210 63,20
65,30 67,30 69,60 70,290
71,9999 72,450 73,30 74,150
75,771 76,1081 77,581 78,100
80,70 82,110 83,50 84,4534
85,270 89,40 90,40 91,90
102,70 103,80 104,260 105,450
106,40 111,90 116,60 117,30
132,60 133,120 134,520 135,60
155,1511 156,150 157,1521 158,130
182,70 183,4104 184,390 185,3984
186,310 195,60 200,1281 201,120
202,1261 203,100 204,70 212,3974
213,4484 214,4614 215,4434 216,751
217,50 224,60 225,20 226,70
239,120 240,80 241,110 242,60
243,30 283,50 284,80 285,50
286,60
##END=
