##TITLE=Benzamide, N-(4-bromophenyl)-2,6-difluoro-
##JCAMP-DX=4.24
##DATA TYPE=MASS SPECTRUM
##ORIGIN=Zaikin V.G., TIPS RAS, Moscow, Russia
##OWNER=NIST Mass Spectrometry Data Center
Collection (C) 2014 copyright by the U.S. Secretary of Commerce
on behalf of the United States of America. All rights reserved.
##$NIST MASS SPEC NO=307431
##MOLFORM=C13 H8 Br F2 N O
##MW=311
##$NIST SOURCE=MSDC
##XUNITS=M/Z
##YUNITS=RELATIVE INTENSITY
##XFACTOR=1
##YFACTOR=1
##FIRSTX=28
##LASTX=314
##FIRSTY=10
##MAXX=314
##MINX=28
##MAXY=9999
##MINY=10
##NPOINTS=34
##PEAK TABLE=(XY..XY)
28,10 38,30 39,40 50,40
62,60 63,440 64,130 65,60
74,30 75,40 76,30 90,60
91,190 92,40 93,60 94,30
112,70 113,1061 114,120 140,60
141,9999 142,621 143,100 145,70
170,30 171,80 172,80 173,70
174,50 231,30 311,1972 312,280
313,1922 314,270
##END=
