##TITLE=m-Toluic acid, 4-cyanophenyl ester
##JCAMP-DX=4.24
##DATA TYPE=MASS SPECTRUM
##ORIGIN=Zaikin V.G., TIPS RAS, Moscow, Russia
##OWNER=NIST Mass Spectrometry Data Center
Collection (C) 2014 copyright by the U.S. Secretary of Commerce
on behalf of the United States of America. All rights reserved.
##$NIST MASS SPEC NO=307569
##MOLFORM=C15 H11 N O2
##MW=237
##$NIST SOURCE=MSDC
##XUNITS=M/Z
##YUNITS=RELATIVE INTENSITY
##XFACTOR=1
##YFACTOR=1
##FIRSTX=28
##LASTX=121
##FIRSTY=40
##MAXX=121
##MINX=28
##MAXY=9999
##MINY=20
##NPOINTS=19
##PEAK TABLE=(XY..XY)
28,40 39,220 41,70 50,50
51,90 62,40 63,200 64,120
65,911 66,40 75,20 89,240
90,250 91,3263 92,260 118,80
119,9999 120,821 121,40
##END=
