##TITLE=4-Benzyloxy-1-tributylsilyloxybenzene
##JCAMP-DX=4.24
##DATA TYPE=MASS SPECTRUM
##ORIGIN=Zaikin V.G., TIPS RAS, Moscow, Russia
##OWNER=NIST Mass Spectrometry Data Center
Collection (C) 2014 copyright by the U.S. Secretary of Commerce
on behalf of the United States of America. All rights reserved.
##$NIST MASS SPEC NO=307839
##MOLFORM=C25 H38 O2 Si
##MW=398
##$NIST SOURCE=MSDC
##XUNITS=M/Z
##YUNITS=RELATIVE INTENSITY
##XFACTOR=1
##YFACTOR=1
##FIRSTX=45
##LASTX=401
##FIRSTY=70
##MAXX=401
##MINX=45
##MAXY=9999
##MINY=30
##NPOINTS=68
##PEAK TABLE=(XY..XY)
45,70 55,30 59,1001 60,60
65,60 73,260 85,120 87,871
88,70 89,30 91,3773 92,300
99,30 101,1101 102,110 103,40
110,140 113,30 115,50 121,40
133,70 137,80 138,70 139,60
141,40 143,7106 144,1041 145,300
151,40 152,40 165,651 166,130
167,40 179,40 193,130 194,140
195,360 196,50 199,8868 200,1682
201,450 202,30 207,310 208,50
221,100 227,30 229,110 250,80
251,1952 252,390 253,90 257,160
258,30 285,540 286,130 287,40
301,40 307,5405 308,1381 309,360
310,40 341,631 342,180 343,30
398,9999 399,3423 400,891 401,130
##END=
