##TITLE=4-Cyanophenol, TMS derivative
##JCAMP-DX=4.24
##DATA TYPE=MASS SPECTRUM
##ORIGIN=Zaikin V.G., TIPS RAS, Moscow, Russia
##OWNER=NIST Mass Spectrometry Data Center
Collection (C) 2014 copyright by the U.S. Secretary of Commerce
on behalf of the United States of America. All rights reserved.
##$NIST MASS SPEC NO=307966
##MOLFORM=C10 H13 N O Si
##MW=191
##$NIST SOURCE=MSDC
##XUNITS=M/Z
##YUNITS=RELATIVE INTENSITY
##XFACTOR=1
##YFACTOR=1
##FIRSTX=43
##LASTX=193
##FIRSTY=40
##MAXX=193
##MINX=43
##MAXY=9999
##MINY=30
##NPOINTS=24
##PEAK TABLE=(XY..XY)
43,40 45,50 73,440 74,30
75,160 88,140 89,40 102,210
116,170 120,80 121,90 146,220
148,30 160,280 161,40 162,60
174,60 176,9999 177,1621 178,520
179,40 191,2903 192,500 193,140
##END=
