##TITLE=1-Adamantanecarboxylic acid, 3,4-dichlorophenyl ester
##JCAMP-DX=4.24
##DATA TYPE=MASS SPECTRUM
##ORIGIN=Zaikin V.G., TIPS RAS, Moscow, Russia
##OWNER=NIST Mass Spectrometry Data Center
Collection (C) 2014 copyright by the U.S. Secretary of Commerce
on behalf of the United States of America. All rights reserved.
##$NIST MASS SPEC NO=307664
##MOLFORM=C17 H18 Cl2 O2
##MW=324
##$NIST SOURCE=MSDC
##XUNITS=M/Z
##YUNITS=RELATIVE INTENSITY
##XFACTOR=1
##YFACTOR=1
##FIRSTX=41
##LASTX=164
##FIRSTY=150
##MAXX=164
##MINX=41
##MAXY=9999
##MINY=30
##NPOINTS=24
##PEAK TABLE=(XY..XY)
41,150 53,60 55,160 65,40
67,330 69,80 77,220 78,60
79,961 80,70 81,260 91,290
92,90 93,931 94,70 105,70
107,450 108,30 133,80 135,9999
136,1071 137,40 163,831 164,80
##END=
