##TITLE=Acetoxyacetic acid, 4-chlorophenyl ester
##JCAMP-DX=4.24
##DATA TYPE=MASS SPECTRUM
##ORIGIN=Zaikin V.G., TIPS RAS, Moscow, Russia
##OWNER=NIST Mass Spectrometry Data Center
Collection (C) 2014 copyright by the U.S. Secretary of Commerce
on behalf of the United States of America. All rights reserved.
##$NIST MASS SPEC NO=307540
##MOLFORM=C10 H9 Cl O4
##MW=228
##$NIST SOURCE=MSDC
##XUNITS=M/Z
##YUNITS=RELATIVE INTENSITY
##XFACTOR=1
##YFACTOR=1
##FIRSTX=28
##LASTX=230
##FIRSTY=30
##MAXX=230
##MINX=28
##MAXY=9999
##MINY=30
##NPOINTS=42
##PEAK TABLE=(XY..XY)
28,30 29,70 30,30 36,50
38,90 39,190 42,260 43,7827
44,190 49,30 50,110 51,60
61,30 62,80 63,350 64,180
65,370 72,40 73,4064 74,190
75,350 76,40 77,30 92,40
93,70 99,811 100,330 101,9999
102,500 103,70 111,290 113,110
127,380 128,7367 129,661 130,2492
131,170 141,100 143,30 228,561
229,60 230,190
##END=
