##TITLE=2-Cyclohexyldimethylsilyloxybenzene
##JCAMP-DX=4.24
##DATA TYPE=MASS SPECTRUM
##ORIGIN=Zaikin V.G., TIPS RAS, Moscow, Russia
##OWNER=NIST Mass Spectrometry Data Center
Collection (C) 2014 copyright by the U.S. Secretary of Commerce
on behalf of the United States of America. All rights reserved.
##$NIST MASS SPEC NO=307887
##MOLFORM=C18 H24 O Si
##MW=284
##$NIST SOURCE=MSDC
##XUNITS=M/Z
##YUNITS=RELATIVE INTENSITY
##XFACTOR=1
##YFACTOR=1
##FIRSTX=36
##LASTX=287
##FIRSTY=30
##MAXX=287
##MINX=36
##MAXY=9999
##MINY=20
##NPOINTS=40
##PEAK TABLE=(XY..XY)
36,30 59,170 75,130 77,20
81,30 91,110 101,150 115,70
126,40 127,380 128,520 129,50
131,90 141,360 142,40 145,1101
146,150 147,40 159,150 169,50
171,120 173,260 174,30 183,60
185,791 186,130 187,931 188,150
199,60 200,100 201,9999 202,6916
203,1351 204,290 208,30 269,100
284,7857 285,1902 286,480 287,50
##END=
