##TITLE=Acetoxyacetic acid, 4-methoxyphenyl ester
##JCAMP-DX=4.24
##DATA TYPE=MASS SPECTRUM
##ORIGIN=Zaikin V.G., TIPS RAS, Moscow, Russia
##OWNER=NIST Mass Spectrometry Data Center
Collection (C) 2014 copyright by the U.S. Secretary of Commerce
on behalf of the United States of America. All rights reserved.
##$NIST MASS SPEC NO=307542
##MOLFORM=C11 H12 O5
##MW=224
##$NIST SOURCE=MSDC
##XUNITS=M/Z
##YUNITS=RELATIVE INTENSITY
##XFACTOR=1
##YFACTOR=1
##FIRSTX=26
##LASTX=225
##FIRSTY=30
##MAXX=225
##MINX=26
##MAXY=9999
##MINY=20
##NPOINTS=32
##PEAK TABLE=(XY..XY)
26,30 28,20 39,60 41,100
42,70 43,1802 44,40 51,40
52,90 53,60 54,60 63,60
64,60 65,90 73,581 77,70
80,60 81,180 82,30 92,60
95,200 101,591 107,40 108,30
109,1802 110,150 123,380 124,9999
125,701 126,50 224,460 225,50
##END=
