##TITLE=1-Adamantanecarboxamide, N-(4-methoxyphenyl)-
##JCAMP-DX=4.24
##DATA TYPE=MASS SPECTRUM
##ORIGIN=Zaikin V.G., TIPS RAS, Moscow, Russia
##OWNER=NIST Mass Spectrometry Data Center
Collection (C) 2014 copyright by the U.S. Secretary of Commerce
on behalf of the United States of America. All rights reserved.
##$NIST MASS SPEC NO=307468
##MOLFORM=C18 H23 N O2
##MW=285
##$NIST SOURCE=MSDC
##XUNITS=M/Z
##YUNITS=RELATIVE INTENSITY
##XFACTOR=1
##YFACTOR=1
##FIRSTX=27
##LASTX=287
##FIRSTY=30
##MAXX=287
##MINX=27
##MAXY=9999
##MINY=10
##NPOINTS=54
##PEAK TABLE=(XY..XY)
27,30 28,10 29,40 39,90
41,250 43,40 51,30 52,60
53,130 55,240 57,30 65,100
66,30 67,410 68,30 69,100
77,340 78,110 79,1051 80,170
81,330 91,360 92,140 93,971
94,90 95,120 105,100 106,50
107,490 108,410 109,90 119,30
121,30 122,400 123,250 124,110
133,40 134,110 135,9999 136,1051
137,50 149,240 150,30 163,90
200,1071 201,180 214,40 256,40
257,510 258,90 284,30 285,6666
286,1301 287,140
##END=
