##TITLE=Benzamide, N-(3-chlorophenyl)-4-methoxy-
##JCAMP-DX=4.24
##DATA TYPE=MASS SPECTRUM
##ORIGIN=Zaikin V.G., TIPS RAS, Moscow, Russia
##OWNER=NIST Mass Spectrometry Data Center
Collection (C) 2014 copyright by the U.S. Secretary of Commerce
on behalf of the United States of America. All rights reserved.
##$NIST MASS SPEC NO=307496
##MOLFORM=C14 H12 Cl N O2
##MW=261
##$NIST SOURCE=MSDC
##XUNITS=M/Z
##YUNITS=RELATIVE INTENSITY
##XFACTOR=1
##YFACTOR=1
##FIRSTX=28
##LASTX=264
##FIRSTY=10
##MAXX=264
##MINX=28
##MAXY=9999
##MINY=10
##NPOINTS=29
##PEAK TABLE=(XY..XY)
28,10 39,30 50,40 51,30
63,140 64,220 65,50 75,40
76,80 77,731 78,60 79,40
91,30 92,621 93,40 99,60
104,40 107,430 108,40 113,160
127,90 129,30 135,9999 136,771
137,60 261,1041 262,170 263,340
264,50
##END=
