##TITLE=Valeric acid, 4-benzyloxyphenyl ester
##JCAMP-DX=4.24
##DATA TYPE=MASS SPECTRUM
##ORIGIN=Zaikin V.G., TIPS RAS, Moscow, Russia
##OWNER=NIST Mass Spectrometry Data Center
Collection (C) 2014 copyright by the U.S. Secretary of Commerce
on behalf of the United States of America. All rights reserved.
##$NIST MASS SPEC NO=307991
##MOLFORM=C18 H20 O3
##MW=284
##$NIST SOURCE=MSDC
##XUNITS=M/Z
##YUNITS=RELATIVE INTENSITY
##XFACTOR=1
##YFACTOR=1
##FIRSTX=28
##LASTX=285
##FIRSTY=50
##MAXX=285
##MINX=28
##MAXY=9999
##MINY=10
##NPOINTS=22
##PEAK TABLE=(XY..XY)
28,50 29,130 36,210 38,30
39,40 41,170 44,190 55,30
57,761 65,230 73,20 85,430
91,9999 92,701 109,10 110,100
144,100 200,5905 201,801 202,20
284,290 285,10
##END=
