##TITLE=o-Toluic acid, 3-methylphenyl ester
##JCAMP-DX=4.24
##DATA TYPE=MASS SPECTRUM
##ORIGIN=Zaikin V.G., TIPS RAS, Moscow, Russia
##OWNER=NIST Mass Spectrometry Data Center
Collection (C) 2014 copyright by the U.S. Secretary of Commerce
on behalf of the United States of America. All rights reserved.
##$NIST MASS SPEC NO=307454
##MOLFORM=C15 H14 O2
##MW=226
##$NIST SOURCE=MSDC
##XUNITS=M/Z
##YUNITS=RELATIVE INTENSITY
##XFACTOR=1
##YFACTOR=1
##FIRSTX=39
##LASTX=227
##FIRSTY=130
##MAXX=227
##MINX=39
##MAXY=9999
##MINY=20
##NPOINTS=23
##PEAK TABLE=(XY..XY)
39,130 41,40 51,70 53,20
63,90 64,30 65,591 66,30
77,120 78,40 79,60 89,160
90,140 91,2332 92,200 107,100
108,80 118,40 119,9999 120,851
121,50 226,310 227,50
##END=
