##TITLE=4-Chloro-1-cyclohexyldimethylsilyloxybenzene
##JCAMP-DX=4.24
##DATA TYPE=MASS SPECTRUM
##ORIGIN=Zaikin V.G., TIPS RAS, Moscow, Russia
##OWNER=NIST Mass Spectrometry Data Center
Collection (C) 2014 copyright by the U.S. Secretary of Commerce
on behalf of the United States of America. All rights reserved.
##$NIST MASS SPEC NO=307881
##MOLFORM=C14 H21 Cl O Si
##MW=268
##$NIST SOURCE=MSDC
##XUNITS=M/Z
##YUNITS=RELATIVE INTENSITY
##XFACTOR=1
##YFACTOR=1
##FIRSTX=41
##LASTX=272
##FIRSTY=30
##MAXX=272
##MINX=41
##MAXY=9999
##MINY=30
##NPOINTS=46
##PEAK TABLE=(XY..XY)
41,30 55,30 59,230 75,130
77,40 79,300 80,30 81,220
91,150 93,320 95,140 111,80
112,90 113,30 115,50 117,50
121,80 125,90 129,40 135,220
136,30 141,60 149,210 150,100
151,70 155,150 157,80 169,90
171,991 172,120 173,340 174,30
185,9999 186,4934 187,4214 188,1812
189,300 190,50 253,220 254,30
255,70 268,3934 269,791 270,1451
271,270 272,50
##END=
