##TITLE=1-Naphthalenecarboxamide, N-(4-bromophenyl)-
##JCAMP-DX=4.24
##DATA TYPE=MASS SPECTRUM
##ORIGIN=Zaikin V.G., TIPS RAS, Moscow, Russia
##OWNER=NIST Mass Spectrometry Data Center
Collection (C) 2014 copyright by the U.S. Secretary of Commerce
on behalf of the United States of America. All rights reserved.
##$NIST MASS SPEC NO=307408
##MOLFORM=C17 H12 Br N O
##MW=325
##$NIST SOURCE=MSDC
##XUNITS=M/Z
##YUNITS=RELATIVE INTENSITY
##XFACTOR=1
##YFACTOR=1
##FIRSTX=39
##LASTX=328
##FIRSTY=40
##MAXX=328
##MINX=39
##MAXY=9999
##MINY=30
##NPOINTS=43
##PEAK TABLE=(XY..XY)
39,40 50,50 51,90 62,30
63,170 64,90 65,70 74,70
75,170 76,100 77,400 78,30
87,30 90,50 91,180 92,50
100,30 101,290 102,40 125,40
126,721 127,5045 128,631 129,30
143,40 145,40 153,30 154,40
155,9999 156,1161 157,80 161,30
170,40 171,80 173,70 216,40
217,80 245,60 246,30 325,1141
326,220 327,1111 328,210
##END=
