##TITLE=Acetamide, N-(4-bromophenyl)-2,2,2-trichloro-
##JCAMP-DX=4.24
##DATA TYPE=MASS SPECTRUM
##ORIGIN=Zaikin V.G., TIPS RAS, Moscow, Russia
##OWNER=NIST Mass Spectrometry Data Center
Collection (C) 2014 copyright by the U.S. Secretary of Commerce
on behalf of the United States of America. All rights reserved.
##$NIST MASS SPEC NO=307219
##MOLFORM=C8 H5 Br Cl3 N O
##MW=315
##$NIST SOURCE=MSDC
##XUNITS=M/Z
##YUNITS=RELATIVE INTENSITY
##XFACTOR=1
##YFACTOR=1
##FIRSTX=26
##LASTX=323
##FIRSTY=40
##MAXX=323
##MINX=26
##MAXY=9999
##MINY=10
##NPOINTS=117
##PEAK TABLE=(XY..XY)
26,40 27,50 28,10 35,140
36,741 37,150 38,530 39,310
40,60 41,80 44,60 46,70
47,120 48,30 49,90 50,500
51,230 52,170 61,100 62,300
63,1261 64,931 65,240 73,40
74,220 75,761 76,861 77,140
78,20 79,40 80,100 81,40
82,430 83,220 84,200 85,150
86,40 87,30 88,50 89,50
90,901 91,2172 92,200 102,220
103,90 110,250 111,50 112,150
117,490 118,60 119,691 120,30
121,80 123,30 132,50 136,30
137,50 138,170 139,40 140,30
143,621 144,40 145,611 146,40
155,1231 156,90 157,1231 158,80
161,50 165,110 166,1822 167,200
168,601 169,270 170,4654 171,651
172,4464 173,490 174,60 181,50
182,100 183,60 184,90 197,410
198,9999 199,1251 200,9669 201,1822
202,170 203,681 204,60 205,110
216,150 218,200 220,50 244,80
246,110 248,100 250,50 251,30
252,30 253,40 254,40 263,80
265,50 280,80 282,130 284,80
315,2292 316,210 317,4394 318,430
319,2863 320,270 321,781 322,70
323,70
##END=
