##TITLE=3,5-Dimethyl-1-diphenylmethylsilyloxybenzene
##JCAMP-DX=4.24
##DATA TYPE=MASS SPECTRUM
##ORIGIN=Zaikin V.G., TIPS RAS, Moscow, Russia
##OWNER=NIST Mass Spectrometry Data Center
Collection (C) 2014 copyright by the U.S. Secretary of Commerce
on behalf of the United States of America. All rights reserved.
##$NIST MASS SPEC NO=307874
##MOLFORM=C21 H22 O Si
##MW=318
##$NIST SOURCE=MSDC
##XUNITS=M/Z
##YUNITS=RELATIVE INTENSITY
##XFACTOR=1
##YFACTOR=1
##FIRSTX=28
##LASTX=321
##FIRSTY=20
##MAXX=321
##MINX=28
##MAXY=9999
##MINY=20
##NPOINTS=55
##PEAK TABLE=(XY..XY)
28,20 77,60 79,30 91,110
93,30 105,220 119,250 120,200
121,70 137,100 144,100 145,30
149,80 151,30 152,110 163,400
164,90 165,300 166,170 167,50
178,30 179,90 180,60 181,240
182,110 183,60 193,40 195,330
196,60 197,1331 198,260 199,140
210,60 211,70 223,40 224,50
225,1631 226,330 227,80 239,190
240,90 241,641 242,140 243,30
287,30 301,60 303,9999 304,2772
305,681 306,90 317,30 318,8307
319,2322 320,621 321,80
##END=
