##TITLE=3-Bromobenzoic acid, 4-nitrophenyl ester
##JCAMP-DX=4.24
##DATA TYPE=MASS SPECTRUM
##ORIGIN=Zaikin V.G., TIPS RAS, Moscow, Russia
##OWNER=NIST Mass Spectrometry Data Center
Collection (C) 2014 copyright by the U.S. Secretary of Commerce
on behalf of the United States of America. All rights reserved.
##$NIST MASS SPEC NO=307554
##MOLFORM=C13 H8 Br N O4
##MW=321
##$NIST SOURCE=MSDC
##XUNITS=M/Z
##YUNITS=RELATIVE INTENSITY
##XFACTOR=1
##YFACTOR=1
##FIRSTX=28
##LASTX=323
##FIRSTY=10
##MAXX=323
##MINX=28
##MAXY=9999
##MINY=10
##NPOINTS=46
##PEAK TABLE=(XY..XY)
28,10 30,40 36,70 38,50
39,30 44,80 50,390 51,80
52,40 53,50 62,30 63,180
64,110 65,50 74,190 75,841
76,1121 77,130 80,140 82,30
104,170 105,70 106,30 108,160
109,60 129,30 131,30 139,90
154,20 155,2692 156,210 157,2632
158,180 183,9999 184,821 185,9759
186,761 187,40 200,40 202,40
291,230 292,30 293,240 294,30
321,50 323,50
##END=
