##TITLE=Cyclopropanecarboxylic acid, 4-cyanophenyl ester
##JCAMP-DX=4.24
##DATA TYPE=MASS SPECTRUM
##ORIGIN=Zaikin V.G., TIPS RAS, Moscow, Russia
##OWNER=NIST Mass Spectrometry Data Center
Collection (C) 2014 copyright by the U.S. Secretary of Commerce
on behalf of the United States of America. All rights reserved.
##$NIST MASS SPEC NO=307525
##MOLFORM=C11 H9 N O2
##MW=187
##$NIST SOURCE=MSDC
##XUNITS=M/Z
##YUNITS=RELATIVE INTENSITY
##XFACTOR=1
##YFACTOR=1
##FIRSTX=26
##LASTX=188
##FIRSTY=30
##MAXX=188
##MINX=26
##MAXY=9999
##MINY=30
##NPOINTS=39
##PEAK TABLE=(XY..XY)
26,30 27,80 28,30 36,90
37,100 38,160 39,1161 40,170
41,2973 42,110 44,50 50,80
51,90 52,40 53,30 55,70
62,90 63,290 64,390 65,60
68,100 69,9999 70,460 74,30
75,130 76,80 88,30 90,350
91,170 92,30 102,190 103,30
115,80 118,60 119,470 120,40
144,170 187,270 188,30
##END=
