##TITLE=6-Bromohexanoic acid, 4-methoxyphenyl ester
##JCAMP-DX=4.24
##DATA TYPE=MASS SPECTRUM
##ORIGIN=Zaikin V.G., TIPS RAS, Moscow, Russia
##OWNER=NIST Mass Spectrometry Data Center
Collection (C) 2014 copyright by the U.S. Secretary of Commerce
on behalf of the United States of America. All rights reserved.
##$NIST MASS SPEC NO=307616
##MOLFORM=C13 H17 Br O3
##MW=300
##$NIST SOURCE=MSDC
##XUNITS=M/Z
##YUNITS=RELATIVE INTENSITY
##XFACTOR=1
##YFACTOR=1
##FIRSTX=28
##LASTX=302
##FIRSTY=90
##MAXX=302
##MINX=28
##MAXY=9999
##MINY=20
##NPOINTS=20
##PEAK TABLE=(XY..XY)
28,90 41,230 43,40 55,80
65,20 69,510 77,20 81,60
95,80 109,941 110,70 123,120
124,9999 125,881 126,70 166,30
177,50 179,50 300,170 302,170
##END=
