##TITLE=trans-3-Trifluoromethylcinnamic acid, morpholide
##JCAMP-DX=4.24
##DATA TYPE=MASS SPECTRUM
##ORIGIN=Zaikin V.G., TIPS RAS, Moscow, Russia
##OWNER=NIST Mass Spectrometry Data Center
Collection (C) 2014 copyright by the U.S. Secretary of Commerce
on behalf of the United States of America. All rights reserved.
##$NIST MASS SPEC NO=307366
##MOLFORM=C14 H14 F3 N O2
##MW=285
##$NIST SOURCE=MSDC
##XUNITS=M/Z
##YUNITS=RELATIVE INTENSITY
##XFACTOR=1
##YFACTOR=1
##FIRSTX=26
##LASTX=287
##FIRSTY=60
##MAXX=287
##MINX=26
##MAXY=9999
##MINY=20
##NPOINTS=112
##PEAK TABLE=(XY..XY)
26,60 27,140 28,30 29,290
30,140 39,50 41,80 42,380
43,50 44,40 45,30 50,100
51,140 52,30 54,110 55,260
56,3083 57,651 58,50 59,30
63,70 69,80 70,170 72,170
74,90 75,280 76,190 77,70
81,30 82,30 85,240 86,3843
87,530 88,30 90,60 95,220
96,40 98,100 99,80 100,50
101,230 102,931 103,130 107,30
110,90 114,30 115,50 119,50
120,200 121,50 125,220 126,591
127,70 129,30 130,30 131,200
132,30 133,80 139,40 140,841
141,60 143,30 144,30 145,550
146,70 149,20 150,30 151,4664
152,611 153,50 159,60 165,40
169,330 170,310 171,3713 172,500
173,50 178,30 180,90 181,30
183,30 184,80 185,100 186,110
197,50 198,120 199,9999 200,1251
201,80 212,230 213,80 214,30
226,190 227,400 228,120 240,711
241,110 242,70 243,70 253,200
254,130 255,591 256,220 257,70
266,871 267,130 270,741 271,100
284,390 285,3143 286,480 287,40
##END=
