##TITLE=Benzamide, N-(3-methylphenyl)-3-fluoro-
##JCAMP-DX=4.24
##DATA TYPE=MASS SPECTRUM
##ORIGIN=Zaikin V.G., TIPS RAS, Moscow, Russia
##OWNER=NIST Mass Spectrometry Data Center
Collection (C) 2014 copyright by the U.S. Secretary of Commerce
on behalf of the United States of America. All rights reserved.
##$NIST MASS SPEC NO=307164
##MOLFORM=C14 H12 F N O
##MW=229
##$NIST SOURCE=MSDC
##XUNITS=M/Z
##YUNITS=RELATIVE INTENSITY
##XFACTOR=1
##YFACTOR=1
##FIRSTX=27
##LASTX=231
##FIRSTY=30
##MAXX=231
##MINX=27
##MAXY=9999
##MINY=20
##NPOINTS=35
##PEAK TABLE=(XY..XY)
27,30 28,30 39,80 50,60
51,90 52,50 53,40 63,40
65,80 69,40 74,30 75,400
76,60 77,290 78,110 79,130
91,70 94,80 95,2933 96,230
104,40 106,150 107,220 108,140
122,40 123,9999 124,691 125,40
132,40 133,20 185,40 228,50
229,5395 230,811 231,70
##END=
