##TITLE=Acetoxyacetic acid, 3,4-dichlorophenyl ester
##JCAMP-DX=4.24
##DATA TYPE=MASS SPECTRUM
##ORIGIN=Zaikin V.G., TIPS RAS, Moscow, Russia
##OWNER=NIST Mass Spectrometry Data Center
Collection (C) 2014 copyright by the U.S. Secretary of Commerce
on behalf of the United States of America. All rights reserved.
##$NIST MASS SPEC NO=307544
##MOLFORM=C10 H8 Cl2 O4
##MW=262
##$NIST SOURCE=MSDC
##XUNITS=M/Z
##YUNITS=RELATIVE INTENSITY
##XFACTOR=1
##YFACTOR=1
##FIRSTX=28
##LASTX=264
##FIRSTY=30
##MAXX=264
##MINX=28
##MAXY=9999
##MINY=30
##NPOINTS=55
##PEAK TABLE=(XY..XY)
28,30 29,80 30,30 36,100
37,30 38,60 39,30 42,300
43,9549 44,230 49,30 50,40
61,60 62,170 63,581 64,40
72,100 73,5075 74,300 75,180
83,70 84,30 85,60 97,100
98,150 99,360 100,140 101,9999
102,460 103,60 107,90 109,220
110,40 111,80 126,120 127,50
128,70 133,681 134,90 135,430
136,50 137,60 145,180 147,130
161,250 162,4544 163,490 164,2933
165,230 166,490 167,30 175,90
177,60 262,230 264,150
##END=
