##TITLE=3-Bromobenzoic acid, 4-methoxyphenyl ester
##JCAMP-DX=4.24
##DATA TYPE=MASS SPECTRUM
##ORIGIN=Zaikin V.G., TIPS RAS, Moscow, Russia
##OWNER=NIST Mass Spectrometry Data Center
Collection (C) 2014 copyright by the U.S. Secretary of Commerce
on behalf of the United States of America. All rights reserved.
##$NIST MASS SPEC NO=307551
##MOLFORM=C14 H11 Br O3
##MW=306
##$NIST SOURCE=MSDC
##XUNITS=M/Z
##YUNITS=RELATIVE INTENSITY
##XFACTOR=1
##YFACTOR=1
##FIRSTX=26
##LASTX=309
##FIRSTY=90
##MAXX=309
##MINX=26
##MAXY=9999
##MINY=20
##NPOINTS=57
##PEAK TABLE=(XY..XY)
26,90 27,30 28,40 36,40
38,90 39,200 41,430 44,60
50,821 51,250 52,340 53,160
54,250 55,50 62,40 63,200
64,160 65,220 67,40 69,30
74,290 75,1261 76,2042 77,270
78,30 79,110 80,280 81,130
82,180 92,70 95,611 96,30
103,40 104,510 105,150 106,30
108,50 109,240 110,70 123,621
124,170 128,40 129,20 154,30
155,2662 156,220 157,2532 158,170
183,9999 184,791 185,9589 186,741
187,30 306,1722 307,250 308,1641
309,240
##END=
