##TITLE=Nicotinic acid, 3-methylphenyl ester
##JCAMP-DX=4.24
##DATA TYPE=MASS SPECTRUM
##ORIGIN=Zaikin V.G., TIPS RAS, Moscow, Russia
##OWNER=NIST Mass Spectrometry Data Center
Collection (C) 2014 copyright by the U.S. Secretary of Commerce
on behalf of the United States of America. All rights reserved.
##$NIST MASS SPEC NO=307948
##MOLFORM=C13 H11 N O2
##MW=213
##$NIST SOURCE=MSDC
##XUNITS=M/Z
##YUNITS=RELATIVE INTENSITY
##XFACTOR=1
##YFACTOR=1
##FIRSTX=28
##LASTX=214
##FIRSTY=20
##MAXX=214
##MINX=28
##MAXY=9999
##MINY=20
##NPOINTS=17
##PEAK TABLE=(XY..XY)
28,20 39,50 50,50 51,520
52,60 65,60 77,190 78,2803
79,270 91,40 105,30 106,9999
107,831 108,100 123,50 213,2702
214,380
##END=
