##TITLE=6-Bromohexanoic acid, 3-methylphenyl ester
##JCAMP-DX=4.24
##DATA TYPE=MASS SPECTRUM
##ORIGIN=Zaikin V.G., TIPS RAS, Moscow, Russia
##OWNER=NIST Mass Spectrometry Data Center
Collection (C) 2014 copyright by the U.S. Secretary of Commerce
on behalf of the United States of America. All rights reserved.
##$NIST MASS SPEC NO=307615
##MOLFORM=C13 H17 Br O2
##MW=284
##$NIST SOURCE=MSDC
##XUNITS=M/Z
##YUNITS=RELATIVE INTENSITY
##XFACTOR=1
##YFACTOR=1
##FIRSTX=27
##LASTX=286
##FIRSTY=70
##MAXX=286
##MINX=27
##MAXY=9999
##MINY=10
##NPOINTS=37
##PEAK TABLE=(XY..XY)
27,70 28,10 29,40 39,90
41,591 42,80 43,220 53,60
55,240 63,30 65,70 67,40
69,2542 70,130 77,260 78,60
79,220 80,80 90,70 91,160
97,80 105,30 107,641 108,9999
109,961 110,40 121,30 122,831
123,70 128,380 130,120 133,210
135,70 177,100 179,90 284,30
286,30
##END=
