##TITLE=5-Chlorovaleric acid, 3-methylphenyl ester
##JCAMP-DX=4.24
##DATA TYPE=MASS SPECTRUM
##ORIGIN=Zaikin V.G., TIPS RAS, Moscow, Russia
##OWNER=NIST Mass Spectrometry Data Center
Collection (C) 2014 copyright by the U.S. Secretary of Commerce
on behalf of the United States of America. All rights reserved.
##$NIST MASS SPEC NO=307974
##MOLFORM=C12 H15 Cl O2
##MW=226
##$NIST SOURCE=MSDC
##XUNITS=M/Z
##YUNITS=RELATIVE INTENSITY
##XFACTOR=1
##YFACTOR=1
##FIRSTX=27
##LASTX=228
##FIRSTY=230
##MAXX=228
##MINX=27
##MAXY=9999
##MINY=20
##NPOINTS=34
##PEAK TABLE=(XY..XY)
27,230 28,100 29,250 36,20
39,230 41,120 42,30 49,30
50,30 51,100 52,60 53,160
55,1772 56,80 63,130 65,170
77,410 78,130 79,280 80,130
83,40 89,40 90,120 91,1111
92,50 93,270 107,801 108,9999
109,851 110,40 119,470 121,150
226,220 228,70
##END=
