##TITLE=3-Trifluoromethylbenzoic acid, 2-naphthyl ester
##JCAMP-DX=4.24
##DATA TYPE=MASS SPECTRUM
##ORIGIN=Zaikin V.G., TIPS RAS, Moscow, Russia
##OWNER=NIST Mass Spectrometry Data Center
Collection (C) 2014 copyright by the U.S. Secretary of Commerce
on behalf of the United States of America. All rights reserved.
##$NIST MASS SPEC NO=307683
##MOLFORM=C18 H11 F3 O2
##MW=316
##$NIST SOURCE=MSDC
##XUNITS=M/Z
##YUNITS=RELATIVE INTENSITY
##XFACTOR=1
##YFACTOR=1
##FIRSTX=63
##LASTX=318
##FIRSTY=40
##MAXX=318
##MINX=63
##MAXY=9999
##MINY=40
##NPOINTS=18
##PEAK TABLE=(XY..XY)
63,40 75,60 89,60 95,170
115,450 116,40 125,100 126,140
144,60 145,3273 146,250 173,9999
174,841 175,40 297,210 316,2813
317,561 318,50
##END=
