##TITLE=4-Methoxy-1-tributylsilyloxybenzene
##JCAMP-DX=4.24
##DATA TYPE=MASS SPECTRUM
##ORIGIN=Zaikin V.G., TIPS RAS, Moscow, Russia
##OWNER=NIST Mass Spectrometry Data Center
Collection (C) 2014 copyright by the U.S. Secretary of Commerce
on behalf of the United States of America. All rights reserved.
##$NIST MASS SPEC NO=307834
##MOLFORM=C19 H34 O2 Si
##MW=322
##$NIST SOURCE=MSDC
##XUNITS=M/Z
##YUNITS=RELATIVE INTENSITY
##XFACTOR=1
##YFACTOR=1
##FIRSTX=59
##LASTX=325
##FIRSTY=170
##MAXX=325
##MINX=59
##MAXY=9999
##MINY=20
##NPOINTS=49
##PEAK TABLE=(XY..XY)
59,170 77,160 78,20 84,100
85,60 87,60 91,480 94,40
98,40 99,30 101,480 102,40
107,80 108,80 109,350 110,30
121,140 123,50 137,50 143,100
149,30 151,741 152,100 153,2993
154,390 155,120 165,80 167,951
168,130 169,40 179,200 180,30
181,240 182,30 199,40 205,40
207,811 208,210 209,9999 210,1812
211,540 212,50 265,3533 266,861
267,220 322,8297 323,2262 324,601
325,80
##END=
