##TITLE=Acetamide, N-(2,5-dimethoxyphenyl)-2,2,2-trichloro-
##JCAMP-DX=4.24
##DATA TYPE=MASS SPECTRUM
##ORIGIN=Zaikin V.G., TIPS RAS, Moscow, Russia
##OWNER=NIST Mass Spectrometry Data Center
Collection (C) 2014 copyright by the U.S. Secretary of Commerce
on behalf of the United States of America. All rights reserved.
##$NIST MASS SPEC NO=307220
##MOLFORM=C10 H10 Cl3 N O3
##MW=297
##$NIST SOURCE=MSDC
##XUNITS=M/Z
##YUNITS=RELATIVE INTENSITY
##XFACTOR=1
##YFACTOR=1
##FIRSTX=28
##LASTX=303
##FIRSTY=40
##MAXX=303
##MINX=28
##MAXY=9999
##MINY=20
##NPOINTS=154
##PEAK TABLE=(XY..XY)
28,40 35,110 36,641 37,30
38,200 39,90 41,40 44,180
50,60 51,140 52,200 53,100
54,40 55,30 62,30 63,110
64,70 65,150 66,90 67,40
68,170 69,60 75,40 76,90
77,170 78,120 79,430 80,160
81,50 82,190 83,70 84,50
85,40 90,90 91,80 92,210
93,210 94,100 95,180 105,30
106,150 107,360 108,190 109,350
110,200 111,50 112,30 117,190
119,190 120,130 121,150 122,400
123,200 124,220 125,250 126,30
129,40 133,60 134,140 135,70
136,250 137,150 138,250 139,120
141,40 148,110 149,180 150,1031
151,220 152,540 153,100 154,40
155,30 156,30 157,40 162,150
163,160 164,1021 165,9999 166,1041
167,200 168,100 169,90 170,50
171,40 176,150 177,60 178,30
179,280 180,1712 181,190 182,30
183,240 184,200 185,100 186,60
190,30 192,130 193,30 196,791
197,120 198,440 199,70 200,80
202,130 204,90 211,280 212,450
213,140 214,150 216,30 218,150
219,100 220,100 221,60 226,621
227,450 228,270 229,150 230,50
231,70 232,30 233,230 234,30
235,130 246,50 248,430 249,50
250,260 251,20 252,30 254,30
256,30 258,110 262,691 263,430
264,500 265,270 266,120 267,50
282,3243 283,340 284,3123 285,330
286,991 287,100 288,100 297,4764
298,571 299,4544 300,550 301,1451
302,160 303,160
##END=
