##TITLE=3,5-Dimethyl-1-diphenylvinylsilyloxybenzene
##JCAMP-DX=4.24
##DATA TYPE=MASS SPECTRUM
##ORIGIN=Zaikin V.G., TIPS RAS, Moscow, Russia
##OWNER=NIST Mass Spectrometry Data Center
Collection (C) 2014 copyright by the U.S. Secretary of Commerce
on behalf of the United States of America. All rights reserved.
##$NIST MASS SPEC NO=307856
##MOLFORM=C22 H22 O Si
##MW=330
##$NIST SOURCE=MSDC
##XUNITS=M/Z
##YUNITS=RELATIVE INTENSITY
##XFACTOR=1
##YFACTOR=1
##FIRSTX=45
##LASTX=333
##FIRSTY=50
##MAXX=333
##MINX=45
##MAXY=9999
##MINY=20
##NPOINTS=89
##PEAK TABLE=(XY..XY)
45,50 77,160 78,50 79,100
91,200 103,70 104,40 105,831
106,90 107,80 112,60 113,30
121,40 123,150 125,160 126,440
127,70 129,30 130,100 131,230
132,260 144,80 145,30 147,160
148,50 149,811 150,140 151,100
152,60 153,30 155,80 161,50
165,420 166,300 167,150 174,1041
175,510 176,130 178,120 179,200
180,160 181,781 182,310 183,2362
184,410 185,120 193,60 195,130
197,100 199,1862 200,340 201,70
205,30 206,50 208,430 209,2923
210,631 211,911 212,160 213,20
223,90 224,150 225,3423 226,1501
227,530 228,90 237,1702 238,360
239,180 251,2893 252,8998 253,3433
254,801 255,140 285,40 287,90
301,190 302,100 303,2873 304,771
305,180 315,2702 316,761 317,170
329,140 330,9999 331,2913 332,751
333,100
##END=
