##TITLE=o-Toluic acid, 4-chlorophenyl ester
##JCAMP-DX=4.24
##DATA TYPE=MASS SPECTRUM
##ORIGIN=Zaikin V.G., TIPS RAS, Moscow, Russia
##OWNER=NIST Mass Spectrometry Data Center
Collection (C) 2014 copyright by the U.S. Secretary of Commerce
on behalf of the United States of America. All rights reserved.
##$NIST MASS SPEC NO=307455
##MOLFORM=C14 H11 Cl O2
##MW=246
##$NIST SOURCE=MSDC
##XUNITS=M/Z
##YUNITS=RELATIVE INTENSITY
##XFACTOR=1
##YFACTOR=1
##FIRSTX=28
##LASTX=248
##FIRSTY=60
##MAXX=248
##MINX=28
##MAXY=9999
##MINY=30
##NPOINTS=28
##PEAK TABLE=(XY..XY)
28,60 39,160 41,50 50,30
51,70 62,30 63,160 64,60
65,741 66,30 73,60 75,50
89,200 90,160 91,2853 92,230
99,110 101,30 105,30 118,50
119,9999 120,791 121,40 127,50
128,100 130,30 246,70 248,30
##END=
