##TITLE=2,6-Difluorobenzoic acid, 4-benzyloxyphenyl ester
##JCAMP-DX=4.24
##DATA TYPE=MASS SPECTRUM
##ORIGIN=Zaikin V.G., TIPS RAS, Moscow, Russia
##OWNER=NIST Mass Spectrometry Data Center
Collection (C) 2014 copyright by the U.S. Secretary of Commerce
on behalf of the United States of America. All rights reserved.
##$NIST MASS SPEC NO=307564
##MOLFORM=C20 H14 F2 O3
##MW=340
##$NIST SOURCE=MSDC
##XUNITS=M/Z
##YUNITS=RELATIVE INTENSITY
##XFACTOR=1
##YFACTOR=1
##FIRSTX=28
##LASTX=342
##FIRSTY=80
##MAXX=342
##MINX=28
##MAXY=9999
##MINY=20
##NPOINTS=26
##PEAK TABLE=(XY..XY)
28,80 39,60 41,30 44,50
51,40 54,40 62,30 63,290
64,40 65,430 89,90 90,60
91,9999 92,751 93,60 110,40
112,40 113,851 114,100 140,20
141,6266 142,480 143,20 340,2522
341,581 342,70
##END=
