##TITLE=Pentanamide, N-(4-bromophenyl)-5-chloro-
##JCAMP-DX=4.24
##DATA TYPE=MASS SPECTRUM
##ORIGIN=Zaikin V.G., TIPS RAS, Moscow, Russia
##OWNER=NIST Mass Spectrometry Data Center
Collection (C) 2014 copyright by the U.S. Secretary of Commerce
on behalf of the United States of America. All rights reserved.
##$NIST MASS SPEC NO=307362
##MOLFORM=C11 H13 Br Cl N O
##MW=289
##$NIST SOURCE=MSDC
##XUNITS=M/Z
##YUNITS=RELATIVE INTENSITY
##XFACTOR=1
##YFACTOR=1
##FIRSTX=26
##LASTX=294
##FIRSTY=50
##MAXX=294
##MINX=26
##MAXY=9999
##MINY=30
##NPOINTS=91
##PEAK TABLE=(XY..XY)
26,50 27,350 28,180 29,470
36,120 38,120 39,350 40,40
41,250 42,60 43,30 44,30
49,70 50,140 51,100 52,70
53,160 54,40 55,2582 56,130
62,100 63,571 64,350 65,591
66,60 74,50 75,210 76,220
77,90 78,30 80,40 82,40
83,40 89,50 90,280 91,1672
92,921 93,530 94,30 104,60
105,50 115,40 117,110 118,50
119,480 120,70 121,140 123,50
127,120 128,80 129,60 130,30
133,50 143,210 144,40 145,200
146,30 154,70 155,180 156,120
157,170 167,30 168,110 169,140
170,320 171,9999 172,1021 173,9629
174,691 182,30 183,40 184,40
185,40 195,50 196,60 197,200
198,160 199,150 200,150 210,40
253,130 254,270 255,160 256,250
257,30 289,1291 290,170 291,1672
292,220 293,430 294,50
##END=
