##TITLE=2-Trihexylsilyloxynaphthalene
##JCAMP-DX=4.24
##DATA TYPE=MASS SPECTRUM
##ORIGIN=Zaikin V.G., TIPS RAS, Moscow, Russia
##OWNER=NIST Mass Spectrometry Data Center
Collection (C) 2014 copyright by the U.S. Secretary of Commerce
on behalf of the United States of America. All rights reserved.
##$NIST MASS SPEC NO=307894
##MOLFORM=C28 H46 O Si
##MW=426
##$NIST SOURCE=MSDC
##XUNITS=M/Z
##YUNITS=RELATIVE INTENSITY
##XFACTOR=1
##YFACTOR=1
##FIRSTX=59
##LASTX=429
##FIRSTY=50
##MAXX=429
##MINX=59
##MAXY=9999
##MINY=20
##NPOINTS=59
##PEAK TABLE=(XY..XY)
59,50 73,40 83,50 85,330
86,20 93,70 99,30 101,110
108,40 111,40 113,1581 114,180
115,150 127,180 128,180 129,921
130,80 131,40 141,60 145,40
171,410 172,60 173,2893 174,490
175,150 185,60 187,240 188,40
197,40 199,170 200,30 201,210
202,30 213,80 214,30 215,100
225,60 227,200 228,40 229,40
252,40 255,190 256,80 257,9969
258,2522 259,641 260,80 298,30
336,70 341,3823 342,4094 343,1181
344,270 345,30 369,70 426,9999
427,3683 428,1001 429,180
##END=
