##TITLE=5-Bromovaleric acid, 4-cyanophenyl ester
##JCAMP-DX=4.24
##DATA TYPE=MASS SPECTRUM
##ORIGIN=Zaikin V.G., TIPS RAS, Moscow, Russia
##OWNER=NIST Mass Spectrometry Data Center
Collection (C) 2014 copyright by the U.S. Secretary of Commerce
on behalf of the United States of America. All rights reserved.
##$NIST MASS SPEC NO=307645
##MOLFORM=C12 H12 Br N O2
##MW=281
##$NIST SOURCE=MSDC
##XUNITS=M/Z
##YUNITS=RELATIVE INTENSITY
##XFACTOR=1
##YFACTOR=1
##FIRSTX=27
##LASTX=283
##FIRSTY=420
##MAXX=283
##MINX=27
##MAXY=9999
##MINY=30
##NPOINTS=43
##PEAK TABLE=(XY..XY)
27,420 28,210 29,520 39,390
41,360 42,80 51,70 53,160
54,30 55,7317 56,340 63,210
64,290 65,40 75,120 76,50
83,460 90,530 91,210 93,30
95,30 101,60 102,500 103,30
107,300 109,300 118,70 119,1171
120,240 124,50 135,4994 136,210
137,4994 138,180 139,80 160,100
162,90 163,9989 164,631 165,9999
166,530 202,180 283,40
##END=
