##TITLE=Benzamide, N-(4-bromophenyl)-4-bromo-
##JCAMP-DX=4.24
##DATA TYPE=MASS SPECTRUM
##ORIGIN=Zaikin V.G., TIPS RAS, Moscow, Russia
##OWNER=NIST Mass Spectrometry Data Center
Collection (C) 2014 copyright by the U.S. Secretary of Commerce
on behalf of the United States of America. All rights reserved.
##$NIST MASS SPEC NO=307344
##MOLFORM=C13 H9 Br2 N O
##MW=353
##$NIST SOURCE=MSDC
##XUNITS=M/Z
##YUNITS=RELATIVE INTENSITY
##XFACTOR=1
##YFACTOR=1
##FIRSTX=27
##LASTX=358
##FIRSTY=30
##MAXX=358
##MINX=27
##MAXY=9999
##MINY=30
##NPOINTS=70
##PEAK TABLE=(XY..XY)
27,30 28,30 36,30 37,30
38,110 39,130 41,50 44,50
50,601 51,180 52,70 62,90
63,430 64,290 65,200 73,30
74,260 75,1161 76,1692 77,240
79,40 80,90 81,40 82,100
90,160 91,540 92,130 93,30
95,30 103,50 104,881 105,160
117,60 119,60 129,30 131,30
139,70 140,40 143,170 145,160
152,40 154,40 155,2492 156,230
157,2422 158,180 166,120 167,160
170,70 171,180 172,110 173,150
174,30 183,9999 184,801 185,9789
186,771 187,40 273,70 274,30
275,100 276,30 305,100 307,90
353,1732 354,260 355,3303 356,490
357,1672 358,230
##END=
