##TITLE=Butyric acid, 3,4-dichlorophenyl ester
##JCAMP-DX=4.24
##DATA TYPE=MASS SPECTRUM
##ORIGIN=Zaikin V.G., TIPS RAS, Moscow, Russia
##OWNER=NIST Mass Spectrometry Data Center
Collection (C) 2014 copyright by the U.S. Secretary of Commerce
on behalf of the United States of America. All rights reserved.
##$NIST MASS SPEC NO=307517
##MOLFORM=C10 H10 Cl2 O2
##MW=232
##$NIST SOURCE=MSDC
##XUNITS=M/Z
##YUNITS=RELATIVE INTENSITY
##XFACTOR=1
##YFACTOR=1
##FIRSTX=26
##LASTX=236
##FIRSTY=40
##MAXX=236
##MINX=26
##MAXY=9999
##MINY=20
##NPOINTS=70
##PEAK TABLE=(XY..XY)
26,40 27,661 28,20 29,50
36,90 37,20 38,40 39,290
40,30 41,1141 42,380 43,7146
44,220 49,30 50,40 55,490
61,50 62,170 63,601 64,40
69,70 70,300 71,9999 72,430
73,330 74,120 75,180 83,70
84,40 85,60 91,30 97,100
98,170 99,450 100,70 101,130
107,90 109,270 110,50 111,90
115,30 119,30 126,120 127,60
128,80 133,581 134,120 135,400
136,90 137,60 144,100 145,310
147,200 149,30 161,140 162,5485
163,460 164,3523 165,250 166,581
167,30 173,40 175,40 189,40
191,30 232,1121 233,110 234,721
235,60 236,120
##END=
