##TITLE=4-Butylbenzoic acid, 3-methylphenyl ester
##JCAMP-DX=4.24
##DATA TYPE=MASS SPECTRUM
##ORIGIN=Zaikin V.G., TIPS RAS, Moscow, Russia
##OWNER=NIST Mass Spectrometry Data Center
Collection (C) 2014 copyright by the U.S. Secretary of Commerce
on behalf of the United States of America. All rights reserved.
##$NIST MASS SPEC NO=307503
##MOLFORM=C18 H20 O2
##MW=268
##$NIST SOURCE=MSDC
##XUNITS=M/Z
##YUNITS=RELATIVE INTENSITY
##XFACTOR=1
##YFACTOR=1
##FIRSTX=27
##LASTX=269
##FIRSTY=30
##MAXX=269
##MINX=27
##MAXY=9999
##MINY=20
##NPOINTS=32
##PEAK TABLE=(XY..XY)
27,30 28,20 39,50 41,50
51,40 55,60 63,30 65,130
77,160 78,60 79,70 89,130
90,390 91,991 92,80 103,100
104,70 105,100 107,70 108,60
115,50 118,340 119,30 131,80
133,130 159,30 161,9999 162,1081
163,70 225,30 268,220 269,40
##END=
