##TITLE=4-Ethylbenzoic acid, 2-naphthyl ester
##JCAMP-DX=4.24
##DATA TYPE=MASS SPECTRUM
##ORIGIN=Zaikin V.G., TIPS RAS, Moscow, Russia
##OWNER=NIST Mass Spectrometry Data Center
Collection (C) 2014 copyright by the U.S. Secretary of Commerce
on behalf of the United States of America. All rights reserved.
##$NIST MASS SPEC NO=307128
##MOLFORM=C19 H16 O2
##MW=276
##$NIST SOURCE=MSDC
##XUNITS=M/Z
##YUNITS=RELATIVE INTENSITY
##XFACTOR=1
##YFACTOR=1
##FIRSTX=27
##LASTX=277
##FIRSTY=70
##MAXX=277
##MINX=27
##MAXY=9999
##MINY=30
##NPOINTS=39
##PEAK TABLE=(XY..XY)
27,70 28,210 36,30 39,90
40,40 44,80 50,50 51,110
53,40 62,30 63,120 65,100
75,40 76,50 77,651 78,130
79,771 80,50 89,200 90,130
91,80 102,40 103,480 104,190
105,1011 106,100 114,30 115,550
116,80 118,30 127,40 131,50
132,50 133,9999 134,941 135,80
144,150 276,951 277,190
##END=
