##TITLE=Butanamide, N-(4-bromophenyl)-2,2,3,3,4,4,4-heptafluoro-
##JCAMP-DX=4.24
##DATA TYPE=MASS SPECTRUM
##ORIGIN=Zaikin V.G., TIPS RAS, Moscow, Russia
##OWNER=NIST Mass Spectrometry Data Center
Collection (C) 2014 copyright by the U.S. Secretary of Commerce
on behalf of the United States of America. All rights reserved.
##$NIST MASS SPEC NO=307279
##MOLFORM=C10 H5 Br F7 N O
##MW=367
##$NIST SOURCE=MSDC
##XUNITS=M/Z
##YUNITS=RELATIVE INTENSITY
##XFACTOR=1
##YFACTOR=1
##FIRSTX=28
##LASTX=371
##FIRSTY=10
##MAXX=371
##MINX=28
##MAXY=9999
##MINY=10
##NPOINTS=78
##PEAK TABLE=(XY..XY)
28,10 31,40 36,40 37,30
38,120 39,140 40,30 41,50
46,220 50,230 51,70 52,80
61,40 62,140 63,611 64,500
65,190 69,581 74,100 75,360
76,550 77,60 80,40 81,40
82,40 89,30 90,520 91,1521
92,150 93,40 99,120 100,270
102,30 109,70 117,90 119,270
120,30 131,30 138,40 141,50
143,340 145,340 150,240 155,801
156,50 157,781 158,50 168,40
169,480 170,3243 171,430 172,3393
173,310 174,280 197,220 198,2472
199,440 200,2432 201,200 220,40
221,40 222,30 241,70 247,30
249,40 269,320 270,50 288,90
289,30 348,440 349,50 350,430
351,40 367,9999 368,1191 369,9719
370,1151 371,70
##END=
