##TITLE=Valeric acid, 4-chlorophenyl ester
##JCAMP-DX=4.24
##DATA TYPE=MASS SPECTRUM
##ORIGIN=Zaikin V.G., TIPS RAS, Moscow, Russia
##OWNER=NIST Mass Spectrometry Data Center
Collection (C) 2014 copyright by the U.S. Secretary of Commerce
on behalf of the United States of America. All rights reserved.
##$NIST MASS SPEC NO=307984
##MOLFORM=C11 H13 Cl O2
##MW=212
##$NIST SOURCE=MSDC
##XUNITS=M/Z
##YUNITS=RELATIVE INTENSITY
##XFACTOR=1
##YFACTOR=1
##FIRSTX=27
##LASTX=215
##FIRSTY=220
##MAXX=215
##MINX=27
##MAXY=9999
##MINY=10
##NPOINTS=61
##PEAK TABLE=(XY..XY)
27,220 28,460 29,1171 30,10
36,70 38,30 39,220 41,1601
42,100 43,80 44,30 50,30
51,20 52,10 53,20 55,771
56,160 57,6856 58,290 62,10
63,130 64,100 65,280 69,20
73,180 74,10 75,240 76,20
77,10 79,20 83,40 84,110
85,7717 86,410 87,10 91,20
92,20 93,70 99,440 100,150
101,130 102,40 108,20 111,360
112,10 113,100 125,140 127,190
128,9999 129,771 130,3393 131,220
141,30 155,40 169,10 170,10
183,20 212,1822 213,210 214,631
215,60
##END=
