##TITLE=4-Nitrobenzoic acid, morpholide
##JCAMP-DX=4.24
##DATA TYPE=MASS SPECTRUM
##ORIGIN=Zaikin V.G., TIPS RAS, Moscow, Russia
##OWNER=NIST Mass Spectrometry Data Center
Collection (C) 2014 copyright by the U.S. Secretary of Commerce
on behalf of the United States of America. All rights reserved.
##$NIST MASS SPEC NO=307348
##MOLFORM=C11 H12 N2 O4
##MW=236
##$NIST SOURCE=MSDC
##XUNITS=M/Z
##YUNITS=RELATIVE INTENSITY
##XFACTOR=1
##YFACTOR=1
##FIRSTX=26
##LASTX=238
##FIRSTY=70
##MAXX=238
##MINX=26
##MAXY=9999
##MINY=30
##NPOINTS=104
##PEAK TABLE=(XY..XY)
26,70 27,190 28,30 29,380
30,360 31,30 38,40 39,80
41,110 42,691 43,110 44,40
45,40 50,711 51,190 52,30
53,40 54,140 55,240 56,5575
57,340 58,40 59,40 63,140
64,230 65,110 69,90 70,210
72,490 73,30 74,210 75,761
76,2632 77,390 78,120 86,3553
87,180 89,50 90,70 91,60
92,1111 93,90 103,210 104,4174
105,460 106,180 107,30 118,40
119,40 120,1101 121,190 122,90
123,30 131,40 132,60 133,60
134,500 135,60 136,50 137,270
145,40 146,30 147,40 149,130
150,9999 151,1071 152,110 159,230
160,60 161,60 162,70 163,40
164,40 165,40 166,90 167,70
175,80 176,240 177,480 178,80
179,430 180,80 189,1051 190,200
191,310 192,60 193,761 194,200
195,30 205,1251 206,250 207,190
208,120 212,80 219,1071 220,160
221,4384 222,540 223,60 234,30
235,5075 236,3753 237,530 238,50
##END=
