##TITLE=2-Furancarboxamide, N-(4-bromophenyl)-
##JCAMP-DX=4.24
##DATA TYPE=MASS SPECTRUM
##ORIGIN=Zaikin V.G., TIPS RAS, Moscow, Russia
##OWNER=NIST Mass Spectrometry Data Center
Collection (C) 2014 copyright by the U.S. Secretary of Commerce
on behalf of the United States of America. All rights reserved.
##$NIST MASS SPEC NO=307039
##MOLFORM=C11 H8 Br N O2
##MW=265
##$NIST SOURCE=MSDC
##XUNITS=M/Z
##YUNITS=RELATIVE INTENSITY
##XFACTOR=1
##YFACTOR=1
##FIRSTX=28
##LASTX=269
##FIRSTY=40
##MAXX=269
##MINX=28
##MAXY=9999
##MINY=20
##NPOINTS=48
##PEAK TABLE=(XY..XY)
28,40 38,100 39,490 40,30
50,50 51,60 52,30 62,40
63,180 64,140 65,100 66,30
67,130 68,30 75,70 76,70
77,30 80,30 82,30 90,90
91,230 92,70 94,20 95,9999
96,470 97,40 102,30 117,30
119,30 129,50 130,30 143,90
145,80 155,40 157,50 170,50
171,150 172,170 173,130 174,120
185,100 208,30 210,30 265,3894
266,480 267,3873 268,460 269,40
##END=
