##TITLE=Benzamide, N-(4-bromophenyl)-4-fluoro-
##JCAMP-DX=4.24
##DATA TYPE=MASS SPECTRUM
##ORIGIN=Zaikin V.G., TIPS RAS, Moscow, Russia
##OWNER=NIST Mass Spectrometry Data Center
Collection (C) 2014 copyright by the U.S. Secretary of Commerce
on behalf of the United States of America. All rights reserved.
##$NIST MASS SPEC NO=307105
##MOLFORM=C13 H9 Br F N O
##MW=293
##$NIST SOURCE=MSDC
##XUNITS=M/Z
##YUNITS=RELATIVE INTENSITY
##XFACTOR=1
##YFACTOR=1
##FIRSTX=28
##LASTX=296
##FIRSTY=10
##MAXX=296
##MINX=28
##MAXY=9999
##MINY=10
##NPOINTS=35
##PEAK TABLE=(XY..XY)
28,10 38,30 39,50 50,70
51,40 62,30 63,150 64,110
65,80 69,50 74,50 75,430
76,70 90,60 91,210 92,60
94,110 95,2262 96,190 122,30
123,9999 124,691 125,40 143,70
145,70 170,30 171,120 172,50
173,100 185,50 213,90 293,1742
294,260 295,1702 296,250
##END=
