##TITLE=1-Cyclohexyldimethylsilyloxy-1-nitrobenzene
##JCAMP-DX=4.24
##DATA TYPE=MASS SPECTRUM
##ORIGIN=Zaikin V.G., TIPS RAS, Moscow, Russia
##OWNER=NIST Mass Spectrometry Data Center
Collection (C) 2014 copyright by the U.S. Secretary of Commerce
on behalf of the United States of America. All rights reserved.
##$NIST MASS SPEC NO=307886
##MOLFORM=C14 H21 N O3 Si
##MW=279
##$NIST SOURCE=MSDC
##XUNITS=M/Z
##YUNITS=RELATIVE INTENSITY
##XFACTOR=1
##YFACTOR=1
##FIRSTX=59
##LASTX=281
##FIRSTY=260
##MAXX=281
##MINX=59
##MAXY=9999
##MINY=20
##NPOINTS=38
##PEAK TABLE=(XY..XY)
59,260 65,60 67,110 75,60
77,30 79,20 81,270 82,260
91,320 93,30 109,20 121,220
133,50 135,931 136,250 139,30
149,170 150,1451 151,160 152,40
166,160 167,30 179,30 180,190
181,150 182,961 183,40 196,9999
197,5005 198,3563 199,771 200,140
249,70 263,90 264,190 279,1351
280,170 281,30
##END=
