##TITLE=3,4-Dichloro-1-tributylsilyloxybenzene
##JCAMP-DX=4.24
##DATA TYPE=MASS SPECTRUM
##ORIGIN=Zaikin V.G., TIPS RAS, Moscow, Russia
##OWNER=NIST Mass Spectrometry Data Center
Collection (C) 2014 copyright by the U.S. Secretary of Commerce
on behalf of the United States of America. All rights reserved.
##$NIST MASS SPEC NO=307836
##MOLFORM=C18 H30 Cl2 O Si
##MW=360
##$NIST SOURCE=MSDC
##XUNITS=M/Z
##YUNITS=RELATIVE INTENSITY
##XFACTOR=1
##YFACTOR=1
##FIRSTX=43
##LASTX=365
##FIRSTY=30
##MAXX=365
##MINX=43
##MAXY=9999
##MINY=30
##NPOINTS=85
##PEAK TABLE=(XY..XY)
43,30 45,30 55,110 57,40
59,230 65,70 73,30 77,40
83,60 85,581 86,40 87,120
91,40 101,110 109,100 110,60
111,150 112,50 113,50 137,40
139,30 143,280 144,30 145,100
146,50 147,220 148,50 149,110
155,250 156,80 157,110 162,80
169,40 170,40 171,30 183,140
185,40 189,811 190,100 191,2232
192,240 193,1221 194,130 195,190
199,160 203,50 204,210 205,2793
206,360 207,1992 208,310 209,420
210,30 213,40 217,200 218,70
219,681 220,110 221,380 222,50
223,50 245,591 246,110 247,9999
248,1672 249,6976 250,1131 251,1341
252,170 253,30 291,170 292,30
303,9549 304,2132 305,6606 306,1391
307,1341 308,230 309,40 360,3733
361,911 362,2622 363,631 364,490
365,90
##END=
