##TITLE=Benzamide, N-(4-methoxyphenyl)-2-methyl-
##JCAMP-DX=4.24
##DATA TYPE=MASS SPECTRUM
##ORIGIN=Zaikin V.G., TIPS RAS, Moscow, Russia
##OWNER=NIST Mass Spectrometry Data Center
Collection (C) 2014 copyright by the U.S. Secretary of Commerce
on behalf of the United States of America. All rights reserved.
##$NIST MASS SPEC NO=307005
##MOLFORM=C15 H15 N O2
##MW=241
##$NIST SOURCE=MSDC
##XUNITS=M/Z
##YUNITS=RELATIVE INTENSITY
##XFACTOR=1
##YFACTOR=1
##FIRSTX=26
##LASTX=243
##FIRSTY=40
##MAXX=243
##MINX=26
##MAXY=9999
##MINY=20
##NPOINTS=39
##PEAK TABLE=(XY..XY)
26,40 27,20 28,60 39,160
41,130 50,40 51,100 52,140
53,90 63,130 64,80 65,681
66,40 77,50 78,40 79,60
80,70 81,30 89,180 90,200
91,3173 92,280 95,160 107,80
108,90 109,30 118,90 119,9999
120,761 121,50 122,170 123,90
124,30 180,30 224,80 240,30
241,4004 242,641 243,60
##END=
