##TITLE=Benzamide, N-(2-iodo-4-methylphenyl)-2-methyl-
##JCAMP-DX=4.24
##DATA TYPE=MASS SPECTRUM
##ORIGIN=Zaikin V.G., TIPS RAS, Moscow, Russia
##OWNER=NIST Mass Spectrometry Data Center
Collection (C) 2014 copyright by the U.S. Secretary of Commerce
on behalf of the United States of America. All rights reserved.
##$NIST MASS SPEC NO=307009
##MOLFORM=C15 H14 I N O
##MW=351
##$NIST SOURCE=MSDC
##XUNITS=M/Z
##YUNITS=RELATIVE INTENSITY
##XFACTOR=1
##YFACTOR=1
##FIRSTX=26
##LASTX=353
##FIRSTY=30
##MAXX=353
##MINX=26
##MAXY=9999
##MINY=30
##NPOINTS=41
##PEAK TABLE=(XY..XY)
26,30 27,30 28,50 39,130
41,60 50,50 51,130 52,80
57,30 63,110 64,40 65,520
66,30 76,40 77,170 78,160
79,60 89,200 90,200 91,2362
92,200 103,30 104,260 105,180
106,50 118,60 119,9999 120,731
121,40 127,70 128,110 171,30
223,40 224,50 225,30 232,60
233,110 334,30 351,2913 352,480
353,40
##END=
