##TITLE=4-Fluorobenzoic acid, 4-benzyloxyphenyl ester
##JCAMP-DX=4.24
##DATA TYPE=MASS SPECTRUM
##ORIGIN=Zaikin V.G., TIPS RAS, Moscow, Russia
##OWNER=NIST Mass Spectrometry Data Center
Collection (C) 2014 copyright by the U.S. Secretary of Commerce
on behalf of the United States of America. All rights reserved.
##$NIST MASS SPEC NO=307453
##MOLFORM=C20 H15 F O3
##MW=322
##$NIST SOURCE=MSDC
##XUNITS=M/Z
##YUNITS=RELATIVE INTENSITY
##XFACTOR=1
##YFACTOR=1
##FIRSTX=39
##LASTX=324
##FIRSTY=90
##MAXX=324
##MINX=39
##MAXY=9999
##MINY=30
##NPOINTS=30
##PEAK TABLE=(XY..XY)
39,90 41,30 50,50 51,80
52,30 54,50 63,100 64,40
65,561 66,30 69,30 74,30
75,380 76,40 89,110 90,70
91,9769 92,791 93,30 94,90
95,2342 96,170 110,60 122,30
123,9999 124,781 125,30 322,2903
323,651 324,80
##END=
