##TITLE=Butanamide, N-(2-iodo-4-methylphenyl)-2,2,3,3,4,4,4-heptafluoro-
##JCAMP-DX=4.24
##DATA TYPE=MASS SPECTRUM
##ORIGIN=Zaikin V.G., TIPS RAS, Moscow, Russia
##OWNER=NIST Mass Spectrometry Data Center
Collection (C) 2014 copyright by the U.S. Secretary of Commerce
on behalf of the United States of America. All rights reserved.
##$NIST MASS SPEC NO=307282
##MOLFORM=C11 H7 F7 I N O
##MW=429
##$NIST SOURCE=MSDC
##XUNITS=M/Z
##YUNITS=RELATIVE INTENSITY
##XFACTOR=1
##YFACTOR=1
##FIRSTX=27
##LASTX=431
##FIRSTY=20
##MAXX=431
##MINX=27
##MAXY=9999
##MINY=20
##NPOINTS=65
##PEAK TABLE=(XY..XY)
27,20 28,30 39,80 50,90
51,190 52,120 62,40 63,120
64,40 65,50 69,230 75,40
76,90 77,370 78,370 79,110
89,310 90,581 91,70 100,50
103,50 104,671 105,621 106,70
107,110 109,30 116,60 119,40
127,70 128,90 130,40 132,80
133,1001 134,130 135,50 155,30
164,120 166,40 169,70 182,60
183,370 184,40 213,40 217,310
230,70 231,50 232,1651 233,190
234,140 242,30 255,30 259,110
260,1491 261,140 282,30 283,90
301,40 302,661 303,100 410,280
411,30 428,50 429,9999 430,1171
431,80
##END=
