##TITLE=Benzamide, N-(2,5-dimethoxyphenyl)-2-methyl-
##JCAMP-DX=4.24
##DATA TYPE=MASS SPECTRUM
##ORIGIN=Zaikin V.G., TIPS RAS, Moscow, Russia
##OWNER=NIST Mass Spectrometry Data Center
Collection (C) 2014 copyright by the U.S. Secretary of Commerce
on behalf of the United States of America. All rights reserved.
##$NIST MASS SPEC NO=307007
##MOLFORM=C16 H17 N O3
##MW=271
##$NIST SOURCE=MSDC
##XUNITS=M/Z
##YUNITS=RELATIVE INTENSITY
##XFACTOR=1
##YFACTOR=1
##FIRSTX=26
##LASTX=273
##FIRSTY=30
##MAXX=273
##MINX=26
##MAXY=9999
##MINY=30
##NPOINTS=50
##PEAK TABLE=(XY..XY)
26,30 28,50 39,120 41,60
50,30 51,80 52,90 53,40
63,70 64,30 65,510 66,40
68,40 77,40 79,80 80,40
89,140 90,180 91,2722 92,250
93,50 94,30 95,60 107,50
108,30 109,40 110,30 118,110
119,9999 120,721 121,50 122,40
123,40 124,30 125,40 138,90
139,40 151,40 153,100 154,40
164,30 223,60 224,30 225,30
240,200 241,60 256,70 271,4274
272,691 273,80
##END=
