##TITLE=2-Trifluoromethylbenzoic acid, 4-methoxyphenyl ester
##JCAMP-DX=4.24
##DATA TYPE=MASS SPECTRUM
##ORIGIN=Zaikin V.G., TIPS RAS, Moscow, Russia
##OWNER=NIST Mass Spectrometry Data Center
Collection (C) 2014 copyright by the U.S. Secretary of Commerce
on behalf of the United States of America. All rights reserved.
##$NIST MASS SPEC NO=307671
##MOLFORM=C15 H11 F3 O3
##MW=296
##$NIST SOURCE=MSDC
##XUNITS=M/Z
##YUNITS=RELATIVE INTENSITY
##XFACTOR=1
##YFACTOR=1
##FIRSTX=41
##LASTX=297
##FIRSTY=50
##MAXX=297
##MINX=41
##MAXY=9999
##MINY=40
##NPOINTS=15
##PEAK TABLE=(XY..XY)
41,50 75,40 95,250 123,190
125,90 126,60 144,40 145,2092
146,160 151,50 173,9999 174,911
175,50 296,1661 297,260
##END=
