##TITLE=Cyclobutanecarboxylic acid, 3-methylphenyl ester
##JCAMP-DX=4.24
##DATA TYPE=MASS SPECTRUM
##ORIGIN=Zaikin V.G., TIPS RAS, Moscow, Russia
##OWNER=NIST Mass Spectrometry Data Center
Collection (C) 2014 copyright by the U.S. Secretary of Commerce
on behalf of the United States of America. All rights reserved.
##$NIST MASS SPEC NO=307436
##MOLFORM=C12 H14 O2
##MW=190
##$NIST SOURCE=MSDC
##XUNITS=M/Z
##YUNITS=RELATIVE INTENSITY
##XFACTOR=1
##YFACTOR=1
##FIRSTX=26
##LASTX=192
##FIRSTY=60
##MAXX=192
##MINX=26
##MAXY=9999
##MINY=30
##NPOINTS=42
##PEAK TABLE=(XY..XY)
26,60 27,701 28,220 29,550
38,30 39,520 40,40 41,50
50,60 51,190 52,120 53,420
54,320 55,9999 56,400 63,80
64,30 65,230 77,651 78,220
79,440 80,180 81,40 82,701
83,6256 84,310 89,50 90,140
91,591 92,50 93,50 105,40
107,1191 108,3363 109,290 119,80
121,250 134,140 162,80 190,3493
191,450 192,30
##END=
