##TITLE=Benzamide, N-(4-fluorophenyl)-2-methyl-
##JCAMP-DX=4.24
##DATA TYPE=MASS SPECTRUM
##ORIGIN=Zaikin V.G., TIPS RAS, Moscow, Russia
##OWNER=NIST Mass Spectrometry Data Center
Collection (C) 2014 copyright by the U.S. Secretary of Commerce
on behalf of the United States of America. All rights reserved.
##$NIST MASS SPEC NO=307002
##MOLFORM=C14 H12 F N O
##MW=229
##$NIST SOURCE=MSDC
##XUNITS=M/Z
##YUNITS=RELATIVE INTENSITY
##XFACTOR=1
##YFACTOR=1
##FIRSTX=26
##LASTX=230
##FIRSTY=30
##MAXX=230
##MINX=26
##MAXY=9999
##MINY=30
##NPOINTS=36
##PEAK TABLE=(XY..XY)
26,30 27,30 28,80 39,220
41,80 50,50 51,110 52,30
57,100 62,40 63,190 64,70
65,871 66,50 75,60 77,30
82,30 83,240 84,60 89,270
90,210 91,3583 92,280 95,60
109,30 110,80 111,140 118,70
119,9999 120,721 121,40 198,40
212,100 228,30 229,1782 230,270
##END=
