##TITLE=3-Bromobenzoic acid, 3-methylphenyl ester
##JCAMP-DX=4.24
##DATA TYPE=MASS SPECTRUM
##ORIGIN=Zaikin V.G., TIPS RAS, Moscow, Russia
##OWNER=NIST Mass Spectrometry Data Center
Collection (C) 2014 copyright by the U.S. Secretary of Commerce
on behalf of the United States of America. All rights reserved.
##$NIST MASS SPEC NO=307548
##MOLFORM=C14 H11 Br O2
##MW=290
##$NIST SOURCE=MSDC
##XUNITS=M/Z
##YUNITS=RELATIVE INTENSITY
##XFACTOR=1
##YFACTOR=1
##FIRSTX=27
##LASTX=293
##FIRSTY=80
##MAXX=293
##MINX=27
##MAXY=9999
##MINY=30
##NPOINTS=40
##PEAK TABLE=(XY..XY)
27,80 28,30 36,30 38,50
39,230 44,30 50,571 51,240
52,120 53,120 63,90 64,40
65,170 74,160 75,881 76,1311
77,611 78,210 79,230 89,30
90,30 91,110 104,270 105,80
107,260 108,160 153,30 155,2232
156,190 157,2152 158,150 183,9999
184,821 185,9639 186,751 187,40
290,1722 291,270 292,1661 293,260
##END=
