##TITLE=2,6-Difluorobenzoic acid, 3,5-dimethylphenyl ester
##JCAMP-DX=4.24
##DATA TYPE=MASS SPECTRUM
##ORIGIN=Zaikin V.G., TIPS RAS, Moscow, Russia
##OWNER=NIST Mass Spectrometry Data Center
Collection (C) 2014 copyright by the U.S. Secretary of Commerce
on behalf of the United States of America. All rights reserved.
##$NIST MASS SPEC NO=307558
##MOLFORM=C15 H12 F2 O2
##MW=262
##$NIST SOURCE=MSDC
##XUNITS=M/Z
##YUNITS=RELATIVE INTENSITY
##XFACTOR=1
##YFACTOR=1
##FIRSTX=28
##LASTX=263
##FIRSTY=20
##MAXX=263
##MINX=28
##MAXY=9999
##MINY=20
##NPOINTS=22
##PEAK TABLE=(XY..XY)
28,20 39,50 51,40 53,40
63,230 65,40 77,140 78,40
91,110 93,50 107,30 112,40
113,861 114,70 121,60 122,40
140,30 141,9999 142,711 143,40
262,1712 263,270
##END=
