##TITLE=4-Bromobutyric acid, 4-benzyloxyphenyl ester
##JCAMP-DX=4.24
##DATA TYPE=MASS SPECTRUM
##ORIGIN=Zaikin V.G., TIPS RAS, Moscow, Russia
##OWNER=NIST Mass Spectrometry Data Center
Collection (C) 2014 copyright by the U.S. Secretary of Commerce
on behalf of the United States of America. All rights reserved.
##$NIST MASS SPEC NO=307614
##MOLFORM=C17 H17 Br O3
##MW=348
##$NIST SOURCE=MSDC
##XUNITS=M/Z
##YUNITS=RELATIVE INTENSITY
##XFACTOR=1
##YFACTOR=1
##FIRSTX=28
##LASTX=350
##FIRSTY=10
##MAXX=350
##MINX=28
##MAXY=9999
##MINY=10
##NPOINTS=32
##PEAK TABLE=(XY..XY)
28,10 36,240 38,40 39,60
41,380 44,110 52,30 55,30
65,300 77,60 79,120 80,230
82,180 91,9999 92,701 107,30
109,60 110,170 121,130 123,130
135,671 144,140 149,300 151,280
152,190 155,60 172,30 200,7507
201,991 202,60 348,120 350,100
##END=
