##TITLE=2-Fluorobenzoic acid, morpholide
##JCAMP-DX=4.24
##DATA TYPE=MASS SPECTRUM
##ORIGIN=Zaikin V.G., TIPS RAS, Moscow, Russia
##OWNER=NIST Mass Spectrometry Data Center
Collection (C) 2014 copyright by the U.S. Secretary of Commerce
on behalf of the United States of America. All rights reserved.
##$NIST MASS SPEC NO=307077
##MOLFORM=C11 H12 F N O2
##MW=209
##$NIST SOURCE=MSDC
##XUNITS=M/Z
##YUNITS=RELATIVE INTENSITY
##XFACTOR=1
##YFACTOR=1
##FIRSTX=26
##LASTX=210
##FIRSTY=40
##MAXX=210
##MINX=26
##MAXY=9999
##MINY=30
##NPOINTS=63
##PEAK TABLE=(XY..XY)
26,40 27,130 28,50 29,120
30,90 36,30 39,30 41,70
42,290 43,30 50,110 51,90
54,80 55,160 56,1551 57,130
68,60 69,140 70,90 72,170
74,80 75,801 76,80 77,40
86,1461 87,70 93,30 94,190
95,2132 96,220 109,90 110,30
118,100 119,50 122,110 123,9999
124,771 125,50 138,60 146,30
147,40 150,50 151,40 152,170
159,130 160,210 161,150 162,30
164,40 166,210 167,60 178,370
179,70 180,60 181,40 189,60
190,430 191,50 194,1431 195,170
208,2412 209,2252 210,300
##END=
