##TITLE=Acetamide, N-(2-iodo-4-methylphenyl)-2,2,2-trifluoro-
##JCAMP-DX=4.24
##DATA TYPE=MASS SPECTRUM
##ORIGIN=Zaikin V.G., TIPS RAS, Moscow, Russia
##OWNER=NIST Mass Spectrometry Data Center
Collection (C) 2014 copyright by the U.S. Secretary of Commerce
on behalf of the United States of America. All rights reserved.
##$NIST MASS SPEC NO=307315
##MOLFORM=C9 H7 F3 I N O
##MW=329
##$NIST SOURCE=MSDC
##XUNITS=M/Z
##YUNITS=RELATIVE INTENSITY
##XFACTOR=1
##YFACTOR=1
##FIRSTX=27
##LASTX=331
##FIRSTY=40
##MAXX=331
##MINX=27
##MAXY=9999
##MINY=30
##NPOINTS=59
##PEAK TABLE=(XY..XY)
27,40 28,70 38,40 39,130
44,30 50,140 51,290 52,210
53,40 62,60 63,200 64,60
65,70 69,210 74,50 75,60
76,130 77,581 78,470 79,140
89,420 90,490 91,60 102,30
103,80 104,891 105,871 106,80
107,120 116,120 124,30 127,160
128,130 130,30 132,170 133,1722
134,220 154,60 155,40 182,120
183,160 184,30 185,40 201,60
202,430 203,60 217,200 230,80
231,60 232,1111 233,130 234,90
258,30 259,160 260,1872 261,170
329,9999 330,1001 331,60
##END=
