##TITLE=Chloroacetic acid, 4-methoxyphenyl ester
##JCAMP-DX=4.24
##DATA TYPE=MASS SPECTRUM
##ORIGIN=Zaikin V.G., TIPS RAS, Moscow, Russia
##OWNER=NIST Mass Spectrometry Data Center
Collection (C) 2014 copyright by the U.S. Secretary of Commerce
on behalf of the United States of America. All rights reserved.
##$NIST MASS SPEC NO=307714
##MOLFORM=C9 H9 Cl O3
##MW=200
##$NIST SOURCE=MSDC
##XUNITS=M/Z
##YUNITS=RELATIVE INTENSITY
##XFACTOR=1
##YFACTOR=1
##FIRSTX=26
##LASTX=203
##FIRSTY=130
##MAXX=203
##MINX=26
##MAXY=9999
##MINY=30
##NPOINTS=46
##PEAK TABLE=(XY..XY)
26,130 27,50 28,40 36,130
38,130 39,200 41,350 42,70
44,70 49,350 50,110 51,320
52,330 53,200 54,260 55,40
62,70 63,280 64,210 65,250
66,30 67,40 76,30 77,540
79,160 80,180 81,370 82,110
92,160 93,80 95,701 96,40
107,170 108,100 109,3613 110,270
123,961 124,9999 125,791 126,50
128,120 130,30 200,1271 201,110
202,430 203,30
##END=
