##TITLE=3-Cyclopentylpropionic acid, 2-naphthyl ester
##JCAMP-DX=4.24
##DATA TYPE=MASS SPECTRUM
##ORIGIN=Zaikin V.G., TIPS RAS, Moscow, Russia
##OWNER=NIST Mass Spectrometry Data Center
Collection (C) 2014 copyright by the U.S. Secretary of Commerce
on behalf of the United States of America. All rights reserved.
##$NIST MASS SPEC NO=307137
##MOLFORM=C18 H20 O2
##MW=268
##$NIST SOURCE=MSDC
##XUNITS=M/Z
##YUNITS=RELATIVE INTENSITY
##XFACTOR=1
##YFACTOR=1
##FIRSTX=27
##LASTX=269
##FIRSTY=100
##MAXX=269
##MINX=27
##MAXY=9999
##MINY=20
##NPOINTS=47
##PEAK TABLE=(XY..XY)
27,100 28,40 29,100 36,50
39,160 41,490 42,30 43,90
44,70 51,30 53,70 54,40
55,861 56,40 57,70 63,70
65,70 67,150 68,30 69,220
71,50 77,60 79,170 80,50
81,200 83,40 85,30 89,100
91,40 95,60 97,80 107,140
113,20 114,40 115,981 116,250
117,30 125,70 126,50 127,190
128,30 143,50 144,9999 145,1161
146,70 268,390 269,70
##END=
