##TITLE=3-Bromobenzoic acid, 4-chlorophenyl ester
##JCAMP-DX=4.24
##DATA TYPE=MASS SPECTRUM
##ORIGIN=Zaikin V.G., TIPS RAS, Moscow, Russia
##OWNER=NIST Mass Spectrometry Data Center
Collection (C) 2014 copyright by the U.S. Secretary of Commerce
on behalf of the United States of America. All rights reserved.
##$NIST MASS SPEC NO=307549
##MOLFORM=C13 H8 Br Cl O2
##MW=310
##$NIST SOURCE=MSDC
##XUNITS=M/Z
##YUNITS=RELATIVE INTENSITY
##XFACTOR=1
##YFACTOR=1
##FIRSTX=28
##LASTX=314
##FIRSTY=40
##MAXX=314
##MINX=28
##MAXY=9999
##MINY=30
##NPOINTS=43
##PEAK TABLE=(XY..XY)
28,40 36,40 38,30 39,40
44,40 50,400 51,70 62,40
63,170 64,60 65,50 73,210
74,220 75,981 76,1191 77,120
99,320 100,40 101,100 104,220
105,90 111,40 127,100 128,200
129,80 130,60 131,30 139,90
140,30 155,2542 156,210 157,2532
158,180 183,9859 184,821 185,9999
186,791 187,40 310,621 311,90
312,801 313,110 314,190
##END=
