##TITLE=Trichloroacetic acid, 3-methylphenyl ester
##JCAMP-DX=4.24
##DATA TYPE=MASS SPECTRUM
##ORIGIN=Zaikin V.G., TIPS RAS, Moscow, Russia
##OWNER=NIST Mass Spectrometry Data Center
Collection (C) 2014 copyright by the U.S. Secretary of Commerce
on behalf of the United States of America. All rights reserved.
##$NIST MASS SPEC NO=307719
##MOLFORM=C9 H7 Cl3 O2
##MW=252
##$NIST SOURCE=MSDC
##XUNITS=M/Z
##YUNITS=RELATIVE INTENSITY
##XFACTOR=1
##YFACTOR=1
##FIRSTX=27
##LASTX=258
##FIRSTY=160
##MAXX=258
##MINX=27
##MAXY=9999
##MINY=30
##NPOINTS=72
##PEAK TABLE=(XY..XY)
27,160 28,60 36,150 38,110
39,561 40,40 41,60 44,40
47,70 50,150 51,390 52,260
53,270 62,50 63,370 64,90
65,881 66,50 76,30 77,1521
78,520 79,1131 80,70 82,200
84,130 89,130 90,70 91,9999
92,801 107,931 108,400 109,40
110,230 112,150 117,1521 119,1501
121,470 123,40 125,220 126,550
127,110 128,180 135,280 153,370
154,30 155,120 161,150 162,60
163,100 164,30 173,380 174,30
175,250 177,30 181,30 189,1241
190,110 191,781 192,60 193,150
195,30 217,100 218,60 219,70
220,30 252,2642 253,280 254,2592
255,250 256,841 257,70 258,90
##END=
