##TITLE=Benzamide, N-(2,5-dimethoxyphenyl)-4-methoxy-
##JCAMP-DX=4.24
##DATA TYPE=MASS SPECTRUM
##ORIGIN=Zaikin V.G., TIPS RAS, Moscow, Russia
##OWNER=NIST Mass Spectrometry Data Center
Collection (C) 2014 copyright by the U.S. Secretary of Commerce
on behalf of the United States of America. All rights reserved.
##$NIST MASS SPEC NO=307499
##MOLFORM=C16 H17 N O4
##MW=287
##$NIST SOURCE=MSDC
##XUNITS=M/Z
##YUNITS=RELATIVE INTENSITY
##XFACTOR=1
##YFACTOR=1
##FIRSTX=28
##LASTX=289
##FIRSTY=10
##MAXX=289
##MINX=28
##MAXY=9999
##MINY=10
##NPOINTS=42
##PEAK TABLE=(XY..XY)
28,10 39,40 50,30 51,40
52,50 53,30 63,70 64,150
65,50 68,30 76,70 77,761
78,70 79,90 80,30 92,561
93,80 95,40 104,50 107,500
108,60 109,30 122,30 123,30
125,30 130,60 135,9999 136,821
137,80 138,100 151,40 152,40
153,30 154,30 199,30 255,30
256,170 257,50 272,60 287,3954
288,701 289,90
##END=
