##TITLE=Cyclopropanecarboxylic acid, 3-methylphenyl ester
##JCAMP-DX=4.24
##DATA TYPE=MASS SPECTRUM
##ORIGIN=Zaikin V.G., TIPS RAS, Moscow, Russia
##OWNER=NIST Mass Spectrometry Data Center
Collection (C) 2014 copyright by the U.S. Secretary of Commerce
on behalf of the United States of America. All rights reserved.
##$NIST MASS SPEC NO=307521
##MOLFORM=C11 H12 O2
##MW=176
##$NIST SOURCE=MSDC
##XUNITS=M/Z
##YUNITS=RELATIVE INTENSITY
##XFACTOR=1
##YFACTOR=1
##FIRSTX=27
##LASTX=177
##FIRSTY=100
##MAXX=177
##MINX=27
##MAXY=9999
##MINY=20
##NPOINTS=36
##PEAK TABLE=(XY..XY)
27,100 28,20 36,40 38,50
39,771 40,110 41,2302 42,80
44,30 50,80 51,200 52,120
53,140 55,90 63,100 64,40
65,190 68,60 69,9999 70,450
77,611 78,190 79,340 80,70
89,50 90,80 91,290 92,30
105,30 107,701 108,901 109,70
133,60 148,130 176,2472 177,290
##END=
