##TITLE=2-Chloropropanoic acid, morpholide
##JCAMP-DX=4.24
##DATA TYPE=MASS SPECTRUM
##ORIGIN=Zaikin V.G., TIPS RAS, Moscow, Russia
##OWNER=NIST Mass Spectrometry Data Center
Collection (C) 2014 copyright by the U.S. Secretary of Commerce
on behalf of the United States of America. All rights reserved.
##$NIST MASS SPEC NO=307481
##MOLFORM=C7 H12 Cl N O2
##MW=177
##$NIST SOURCE=MSDC
##XUNITS=M/Z
##YUNITS=RELATIVE INTENSITY
##XFACTOR=1
##YFACTOR=1
##FIRSTX=26
##LASTX=180
##FIRSTY=270
##MAXX=180
##MINX=26
##MAXY=9999
##MINY=30
##NPOINTS=62
##PEAK TABLE=(XY..XY)
26,270 27,1431 29,911 30,400
31,100 36,120 38,40 39,50
41,350 42,1712 43,220 44,130
45,340 52,30 53,60 54,310
55,1301 56,3293 57,1311 58,430
59,40 61,50 62,90 63,1782
64,60 65,561 68,60 69,60
70,5225 71,180 72,150 84,170
85,170 86,2933 87,280 88,340
89,50 90,210 91,821 92,110
93,260 98,40 111,40 112,941
113,100 114,9999 115,601 116,40
120,70 124,30 133,30 139,70
141,70 142,3253 143,270 162,1091
163,60 164,350 177,1772 178,150
179,591 180,30
##END=
