##TITLE=Cyclopentanecarboxylic acid, 3,5-dimethylphenyl ester
##JCAMP-DX=4.24
##DATA TYPE=MASS SPECTRUM
##ORIGIN=Zaikin V.G., TIPS RAS, Moscow, Russia
##OWNER=NIST Mass Spectrometry Data Center
Collection (C) 2014 copyright by the U.S. Secretary of Commerce
on behalf of the United States of America. All rights reserved.
##$NIST MASS SPEC NO=307576
##MOLFORM=C14 H18 O2
##MW=218
##$NIST SOURCE=MSDC
##XUNITS=M/Z
##YUNITS=RELATIVE INTENSITY
##XFACTOR=1
##YFACTOR=1
##FIRSTX=26
##LASTX=220
##FIRSTY=30
##MAXX=220
##MINX=26
##MAXY=9999
##MINY=10
##NPOINTS=51
##PEAK TABLE=(XY..XY)
26,30 27,240 28,10 29,30
36,40 39,420 40,120 41,1501
42,70 43,30 44,30 50,30
51,110 52,70 53,220 54,30
55,480 63,50 65,190 66,60
67,400 68,390 69,8978 70,530
77,751 78,180 79,340 81,30
91,440 92,60 93,120 94,80
95,70 96,2762 97,2622 98,170
103,110 104,60 105,220 107,1561
108,140 119,30 120,40 121,871
122,9999 123,1211 124,70 177,40
218,3003 219,490 220,40
##END=
