##TITLE=1-Cyclohexyldimethylsilyloxy-3-methylbenzene
##JCAMP-DX=4.24
##DATA TYPE=MASS SPECTRUM
##ORIGIN=Zaikin V.G., TIPS RAS, Moscow, Russia
##OWNER=NIST Mass Spectrometry Data Center
Collection (C) 2014 copyright by the U.S. Secretary of Commerce
on behalf of the United States of America. All rights reserved.
##$NIST MASS SPEC NO=307880
##MOLFORM=C15 H24 O Si
##MW=248
##$NIST SOURCE=MSDC
##XUNITS=M/Z
##YUNITS=RELATIVE INTENSITY
##XFACTOR=1
##YFACTOR=1
##FIRSTX=59
##LASTX=250
##FIRSTY=170
##MAXX=250
##MINX=59
##MAXY=9999
##MINY=20
##NPOINTS=30
##PEAK TABLE=(XY..XY)
59,170 65,40 75,210 81,40
91,671 92,70 95,30 105,130
109,70 123,20 133,40 135,210
137,40 141,20 149,330 150,60
151,941 152,130 153,30 163,70
164,30 165,9999 166,3693 167,811
168,130 233,210 234,30 248,3553
249,771 250,190
##END=
