##TITLE=Propanamide, N-(3-chlorophenyl)-2-chloro-
##JCAMP-DX=4.24
##DATA TYPE=MASS SPECTRUM
##ORIGIN=Zaikin V.G., TIPS RAS, Moscow, Russia
##OWNER=NIST Mass Spectrometry Data Center
Collection (C) 2014 copyright by the U.S. Secretary of Commerce
on behalf of the United States of America. All rights reserved.
##$NIST MASS SPEC NO=307485
##MOLFORM=C9 H9 Cl2 N O
##MW=217
##$NIST SOURCE=MSDC
##XUNITS=M/Z
##YUNITS=RELATIVE INTENSITY
##XFACTOR=1
##YFACTOR=1
##FIRSTX=26
##LASTX=222
##FIRSTY=130
##MAXX=222
##MINX=26
##MAXY=9999
##MINY=10
##NPOINTS=90
##PEAK TABLE=(XY..XY)
26,130 27,931 28,10 29,120
35,40 36,260 37,60 38,270
39,290 40,90 41,80 42,30
43,30 44,160 46,60 49,50
50,230 51,190 52,160 53,30
55,450 56,180 57,80 60,40
61,130 62,290 63,3003 64,631
65,1151 66,60 73,350 74,150
75,851 76,300 77,130 78,30
85,80 87,40 88,40 89,110
90,561 91,731 92,440 93,120
98,40 99,991 100,280 101,350
102,140 104,30 107,40 111,1812
112,150 113,571 114,50 117,70
118,230 119,370 120,30 125,240
126,2342 127,9018 128,1521 129,2913
130,240 137,50 138,120 139,40
140,60 146,70 147,110 152,50
153,641 154,9999 155,991 156,3213
157,250 164,30 180,40 181,130
182,360 183,150 184,110 185,30
217,6546 218,691 219,4384 220,450
221,701 222,60
##END=
