##TITLE=2,6-Difluorobenzoic acid, 4-cyanophenyl ester
##JCAMP-DX=4.24
##DATA TYPE=MASS SPECTRUM
##ORIGIN=Zaikin V.G., TIPS RAS, Moscow, Russia
##OWNER=NIST Mass Spectrometry Data Center
Collection (C) 2014 copyright by the U.S. Secretary of Commerce
on behalf of the United States of America. All rights reserved.
##$NIST MASS SPEC NO=307560
##MOLFORM=C14 H7 F2 N O2
##MW=259
##$NIST SOURCE=MSDC
##XUNITS=M/Z
##YUNITS=RELATIVE INTENSITY
##XFACTOR=1
##YFACTOR=1
##FIRSTX=28
##LASTX=259
##FIRSTY=20
##MAXX=259
##MINX=28
##MAXY=9999
##MINY=20
##NPOINTS=20
##PEAK TABLE=(XY..XY)
28,20 37,30 39,50 50,20
62,60 63,520 64,110 75,30
90,100 93,70 94,30 112,70
113,1211 114,100 119,60 140,30
141,9999 142,711 143,40 259,40
##END=
