##TITLE=Valeric acid, 2-naphthyl ester
##JCAMP-DX=4.24
##DATA TYPE=MASS SPECTRUM
##ORIGIN=Zaikin V.G., TIPS RAS, Moscow, Russia
##OWNER=NIST Mass Spectrometry Data Center
Collection (C) 2014 copyright by the U.S. Secretary of Commerce
on behalf of the United States of America. All rights reserved.
##$NIST MASS SPEC NO=307990
##MOLFORM=C15 H16 O2
##MW=228
##$NIST SOURCE=MSDC
##XUNITS=M/Z
##YUNITS=RELATIVE INTENSITY
##XFACTOR=1
##YFACTOR=1
##FIRSTX=27
##LASTX=229
##FIRSTY=10
##MAXX=229
##MINX=27
##MAXY=9999
##MINY=10
##NPOINTS=29
##PEAK TABLE=(XY..XY)
27,10 28,50 29,140 36,50
39,10 41,170 44,30 55,40
57,500 63,10 65,20 77,10
85,210 89,40 110,30 114,20
115,811 116,230 117,10 119,10
126,20 127,170 128,10 143,40
144,9999 145,1191 146,70 228,821
229,110
##END=
