##TITLE=4-Cyano-1-dimethylisopropylsilyloxybenzene
##JCAMP-DX=4.24
##DATA TYPE=MASS SPECTRUM
##ORIGIN=Zaikin V.G., TIPS RAS, Moscow, Russia
##OWNER=NIST Mass Spectrometry Data Center
Collection (C) 2014 copyright by the U.S. Secretary of Commerce
on behalf of the United States of America. All rights reserved.
##$NIST MASS SPEC NO=307912
##MOLFORM=C12 H17 N O Si
##MW=219
##$NIST SOURCE=MSDC
##XUNITS=M/Z
##YUNITS=RELATIVE INTENSITY
##XFACTOR=1
##YFACTOR=1
##FIRSTX=28
##LASTX=221
##FIRSTY=20
##MAXX=221
##MINX=28
##MAXY=9999
##MINY=20
##NPOINTS=26
##PEAK TABLE=(XY..XY)
28,20 59,70 64,40 73,70
75,190 79,70 91,70 102,110
116,90 119,631 120,110 121,70
146,220 160,210 161,20 162,200
164,40 174,30 176,9999 177,1541
178,450 179,30 204,70 219,1241
220,190 221,40
##END=
