##TITLE=Acetamide, N-(3-nitrophenyl)-2-chloro-
##JCAMP-DX=4.24
##DATA TYPE=MASS SPECTRUM
##ORIGIN=Zaikin V.G., TIPS RAS, Moscow, Russia
##OWNER=NIST Mass Spectrometry Data Center
Collection (C) 2014 copyright by the U.S. Secretary of Commerce
on behalf of the United States of America. All rights reserved.
##$NIST MASS SPEC NO=307241
##MOLFORM=C8 H7 Cl N2 O3
##MW=214
##$NIST SOURCE=MSDC
##XUNITS=M/Z
##YUNITS=RELATIVE INTENSITY
##XFACTOR=1
##YFACTOR=1
##FIRSTX=26
##LASTX=217
##FIRSTY=50
##MAXX=217
##MINX=26
##MAXY=9999
##MINY=10
##NPOINTS=97
##PEAK TABLE=(XY..XY)
26,50 27,90 28,10 29,30
30,190 35,50 36,290 37,90
38,390 39,450 40,100 41,230
42,250 43,170 44,80 48,50
49,1131 50,410 51,811 52,500
53,180 54,130 55,40 57,50
61,70 62,240 63,1111 64,1261
65,1361 66,170 67,30 71,50
74,140 75,370 76,631 77,1992
78,260 79,601 80,781 81,150
89,50 90,410 91,1031 92,3293
93,410 94,30 95,30 99,30
102,50 103,40 104,410 105,510
106,140 107,130 108,781 109,120
110,60 118,90 119,120 120,80
121,70 122,180 123,50 127,40
132,200 133,370 134,110 135,180
137,701 138,9999 139,811 140,80
147,30 148,190 149,190 150,30
151,220 164,60 165,2612 166,200
167,60 168,280 169,50 170,90
171,50 179,130 184,550 185,70
186,170 197,30 198,80 199,30
200,60 214,5575 215,520 216,1872
217,160
##END=
