##TITLE=Heptafluorobutyric acid, 4-benzyloxyphenyl ester
##JCAMP-DX=4.24
##DATA TYPE=MASS SPECTRUM
##ORIGIN=Zaikin V.G., TIPS RAS, Moscow, Russia
##OWNER=NIST Mass Spectrometry Data Center
Collection (C) 2014 copyright by the U.S. Secretary of Commerce
on behalf of the United States of America. All rights reserved.
##$NIST MASS SPEC NO=307632
##MOLFORM=C17 H11 F7 O3
##MW=396
##$NIST SOURCE=MSDC
##XUNITS=M/Z
##YUNITS=RELATIVE INTENSITY
##XFACTOR=1
##YFACTOR=1
##FIRSTX=28
##LASTX=397
##FIRSTY=90
##MAXX=397
##MINX=28
##MAXY=9999
##MINY=30
##NPOINTS=21
##PEAK TABLE=(XY..XY)
28,90 36,30 39,70 44,40
63,30 65,490 69,160 89,50
90,50 91,9999 92,781 109,40
119,70 127,30 139,90 155,50
169,160 172,100 183,30 396,641
397,100
##END=
