##TITLE=3-Methylbut-2-enoic acid, 4-cyanophenyl ester
##JCAMP-DX=4.24
##DATA TYPE=MASS SPECTRUM
##ORIGIN=Zaikin V.G., TIPS RAS, Moscow, Russia
##OWNER=NIST Mass Spectrometry Data Center
Collection (C) 2014 copyright by the U.S. Secretary of Commerce
on behalf of the United States of America. All rights reserved.
##$NIST MASS SPEC NO=307596
##MOLFORM=C12 H11 N O2
##MW=201
##$NIST SOURCE=MSDC
##XUNITS=M/Z
##YUNITS=RELATIVE INTENSITY
##XFACTOR=1
##YFACTOR=1
##FIRSTX=27
##LASTX=119
##FIRSTY=310
##MAXX=119
##MINX=27
##MAXY=9999
##MINY=30
##NPOINTS=27
##PEAK TABLE=(XY..XY)
27,310 28,280 29,711 37,40
38,50 39,561 40,50 50,40
51,70 52,30 53,280 54,100
55,2332 56,100 63,110 64,150
67,60 75,40 82,130 83,9999
84,520 85,30 90,160 91,70
102,60 118,30 119,210
##END=
