##TITLE=Acetoxyacetic acid, 4-nitrophenyl ester
##JCAMP-DX=4.24
##DATA TYPE=MASS SPECTRUM
##ORIGIN=Zaikin V.G., TIPS RAS, Moscow, Russia
##OWNER=NIST Mass Spectrometry Data Center
Collection (C) 2014 copyright by the U.S. Secretary of Commerce
on behalf of the United States of America. All rights reserved.
##$NIST MASS SPEC NO=307545
##MOLFORM=C10 H9 N O6
##MW=239
##$NIST SOURCE=MSDC
##XUNITS=M/Z
##YUNITS=RELATIVE INTENSITY
##XFACTOR=1
##YFACTOR=1
##FIRSTX=26
##LASTX=152
##FIRSTY=30
##MAXX=152
##MINX=26
##MAXY=9999
##MINY=30
##NPOINTS=44
##PEAK TABLE=(XY..XY)
26,30 28,30 29,80 30,250
36,40 38,130 39,220 42,390
43,9999 44,240 50,150 51,70
52,60 53,70 54,40 62,90
63,440 64,340 65,390 66,30
73,4144 74,190 75,150 76,130
77,30 79,30 80,40 81,80
92,80 93,240 94,50 101,8348
102,370 103,50 106,50 108,40
109,661 110,60 122,80 123,230
134,60 139,561 140,70 152,70
##END=
