##TITLE=4-Ethylbenzoic acid, 4-chlorophenyl ester
##JCAMP-DX=4.24
##DATA TYPE=MASS SPECTRUM
##ORIGIN=Zaikin V.G., TIPS RAS, Moscow, Russia
##OWNER=NIST Mass Spectrometry Data Center
Collection (C) 2014 copyright by the U.S. Secretary of Commerce
on behalf of the United States of America. All rights reserved.
##$NIST MASS SPEC NO=307122
##MOLFORM=C15 H13 Cl O2
##MW=260
##$NIST SOURCE=MSDC
##XUNITS=M/Z
##YUNITS=RELATIVE INTENSITY
##XFACTOR=1
##YFACTOR=1
##FIRSTX=27
##LASTX=262
##FIRSTY=60
##MAXX=262
##MINX=27
##MAXY=9999
##MINY=30
##NPOINTS=34
##PEAK TABLE=(XY..XY)
27,60 28,40 39,70 50,40
51,90 53,30 63,90 64,40
65,70 73,40 75,40 76,40
77,550 78,110 79,591 80,30
89,120 90,120 91,30 99,80
101,30 102,40 103,390 104,160
105,891 106,80 127,40 128,90
132,40 133,9999 134,941 135,60
260,120 262,40
##END=
