##TITLE=2-Chlorobenzoic acid, 3,4-dichlorophenyl ester
##JCAMP-DX=4.24
##DATA TYPE=MASS SPECTRUM
##ORIGIN=Zaikin V.G., TIPS RAS, Moscow, Russia
##OWNER=NIST Mass Spectrometry Data Center
Collection (C) 2014 copyright by the U.S. Secretary of Commerce
on behalf of the United States of America. All rights reserved.
##$NIST MASS SPEC NO=307819
##MOLFORM=C13 H7 Cl3 O2
##MW=300
##$NIST SOURCE=MSDC
##XUNITS=M/Z
##YUNITS=RELATIVE INTENSITY
##XFACTOR=1
##YFACTOR=1
##FIRSTX=50
##LASTX=304
##FIRSTY=80
##MAXX=304
##MINX=50
##MAXY=9999
##MINY=30
##NPOINTS=24
##PEAK TABLE=(XY..XY)
50,80 51,50 63,70 73,30
74,40 75,611 76,150 85,60
104,40 110,40 111,1651 112,110
113,550 114,30 133,90 135,40
139,9999 140,811 141,3373 142,260
161,30 300,120 302,110 304,30
##END=
