##TITLE=4-Chloro-1-dimethyl(pentafluorophenyl)silyloxybenzene
##JCAMP-DX=4.24
##DATA TYPE=MASS SPECTRUM
##ORIGIN=Zaikin V.G., TIPS RAS, Moscow, Russia
##OWNER=NIST Mass Spectrometry Data Center
Collection (C) 2014 copyright by the U.S. Secretary of Commerce
on behalf of the United States of America. All rights reserved.
##$NIST MASS SPEC NO=307936
##MOLFORM=C14 H10 Cl F5 O Si
##MW=352
##$NIST SOURCE=MSDC
##XUNITS=M/Z
##YUNITS=RELATIVE INTENSITY
##XFACTOR=1
##YFACTOR=1
##FIRSTX=28
##LASTX=356
##FIRSTY=40
##MAXX=356
##MINX=28
##MAXY=9999
##MINY=30
##NPOINTS=56
##PEAK TABLE=(XY..XY)
28,40 36,100 39,50 65,110
75,90 77,400 79,80 81,200
93,40 99,30 109,60 111,60
119,130 125,310 139,390 144,120
155,50 159,80 165,40 174,50
185,90 187,30 188,40 189,60
193,831 194,70 209,791 210,70
211,230 219,40 221,230 225,70
237,230 239,40 251,30 259,631
260,80 273,220 274,30 287,260
293,30 301,50 302,3383 303,671
304,160 317,310 318,40 319,70
337,110 339,30 346,30 352,9999
353,2032 354,3783 355,751 356,180
##END=
