##TITLE=Benzamide, N-(3-methylphenyl)-4-trifluoromethyl-
##JCAMP-DX=4.24
##DATA TYPE=MASS SPECTRUM
##ORIGIN=Zaikin V.G., TIPS RAS, Moscow, Russia
##OWNER=NIST Mass Spectrometry Data Center
Collection (C) 2014 copyright by the U.S. Secretary of Commerce
on behalf of the United States of America. All rights reserved.
##$NIST MASS SPEC NO=307247
##MOLFORM=C15 H12 F3 N O
##MW=279
##$NIST SOURCE=MSDC
##XUNITS=M/Z
##YUNITS=RELATIVE INTENSITY
##XFACTOR=1
##YFACTOR=1
##FIRSTX=28
##LASTX=280
##FIRSTY=20
##MAXX=280
##MINX=28
##MAXY=9999
##MINY=20
##NPOINTS=35
##PEAK TABLE=(XY..XY)
28,20 39,60 50,60 51,80
52,40 53,30 63,30 65,70
75,100 76,50 77,260 78,90
79,130 91,60 95,260 104,30
106,130 107,200 108,160 119,30
125,180 126,180 144,50 145,3843
146,310 154,30 159,40 173,9999
174,791 175,40 260,300 261,40
278,60 279,4784 280,761
##END=
