##TITLE=Benzamide, N-(3-methylphenyl)-2-methoxy-
##JCAMP-DX=4.24
##DATA TYPE=MASS SPECTRUM
##ORIGIN=Zaikin V.G., TIPS RAS, Moscow, Russia
##OWNER=NIST Mass Spectrometry Data Center
Collection (C) 2014 copyright by the U.S. Secretary of Commerce
on behalf of the United States of America. All rights reserved.
##$NIST MASS SPEC NO=307058
##MOLFORM=C15 H15 N O2
##MW=241
##$NIST SOURCE=MSDC
##XUNITS=M/Z
##YUNITS=RELATIVE INTENSITY
##XFACTOR=1
##YFACTOR=1
##FIRSTX=28
##LASTX=243
##FIRSTY=10
##MAXX=243
##MINX=28
##MAXY=9999
##MINY=10
##NPOINTS=30
##PEAK TABLE=(XY..XY)
28,10 39,50 50,40 51,90
52,30 53,30 63,70 64,120
65,80 76,60 77,1081 78,140
79,140 91,70 92,561 93,50
104,30 105,100 106,150 107,240
120,190 121,110 133,30 135,9999
136,731 137,60 225,30 241,3053
242,460 243,40
##END=
