##TITLE=5-Bromovaleric acid, 4-nitrophenyl ester
##JCAMP-DX=4.24
##DATA TYPE=MASS SPECTRUM
##ORIGIN=Zaikin V.G., TIPS RAS, Moscow, Russia
##OWNER=NIST Mass Spectrometry Data Center
Collection (C) 2014 copyright by the U.S. Secretary of Commerce
on behalf of the United States of America. All rights reserved.
##$NIST MASS SPEC NO=307647
##MOLFORM=C11 H12 Br N O4
##MW=301
##$NIST SOURCE=MSDC
##XUNITS=M/Z
##YUNITS=RELATIVE INTENSITY
##XFACTOR=1
##YFACTOR=1
##FIRSTX=27
##LASTX=222
##FIRSTY=310
##MAXX=222
##MINX=27
##MAXY=9999
##MINY=30
##NPOINTS=42
##PEAK TABLE=(XY..XY)
27,310 28,190 29,490 30,80
39,330 41,290 42,70 50,80
53,150 54,30 55,7046 56,320
63,200 64,210 65,270 75,130
76,140 81,50 83,360 91,30
92,80 93,210 107,260 109,510
110,30 119,40 122,110 123,470
124,40 135,4584 136,180 137,4334
138,190 139,300 140,50 162,30
163,9919 164,591 165,9999 166,520
180,80 222,170
##END=
