##TITLE=3-Phenylpropionic acid, 3,4-dichlorophenyl ester
##JCAMP-DX=4.24
##DATA TYPE=MASS SPECTRUM
##ORIGIN=Zaikin V.G., TIPS RAS, Moscow, Russia
##OWNER=NIST Mass Spectrometry Data Center
Collection (C) 2014 copyright by the U.S. Secretary of Commerce
on behalf of the United States of America. All rights reserved.
##$NIST MASS SPEC NO=307785
##MOLFORM=C15 H12 Cl2 O2
##MW=294
##$NIST SOURCE=MSDC
##XUNITS=M/Z
##YUNITS=RELATIVE INTENSITY
##XFACTOR=1
##YFACTOR=1
##FIRSTX=27
##LASTX=298
##FIRSTY=50
##MAXX=298
##MINX=27
##MAXY=9999
##MINY=20
##NPOINTS=39
##PEAK TABLE=(XY..XY)
27,50 28,20 39,50 51,130
63,100 65,360 73,30 77,661
78,240 79,601 89,50 90,40
91,8007 92,611 99,30 102,30
103,591 104,781 105,9999 106,881
109,30 131,911 132,2002 133,9388
134,951 135,170 145,40 147,30
161,80 162,1261 163,120 164,841
165,50 166,120 294,601 295,80
296,400 297,50 298,60
##END=
