##TITLE=Acetamide, N-(4-fluorophenyl)-2-phenyl-
##JCAMP-DX=4.24
##DATA TYPE=MASS SPECTRUM
##ORIGIN=Zaikin V.G., TIPS RAS, Moscow, Russia
##OWNER=NIST Mass Spectrometry Data Center
Collection (C) 2014 copyright by the U.S. Secretary of Commerce
on behalf of the United States of America. All rights reserved.
##$NIST MASS SPEC NO=307141
##MOLFORM=C14 H12 F N O
##MW=229
##$NIST SOURCE=MSDC
##XUNITS=M/Z
##YUNITS=RELATIVE INTENSITY
##XFACTOR=1
##YFACTOR=1
##FIRSTX=26
##LASTX=231
##FIRSTY=40
##MAXX=231
##MINX=26
##MAXY=9999
##MINY=30
##NPOINTS=50
##PEAK TABLE=(XY..XY)
26,40 27,30 28,40 38,40
39,310 40,30 41,100 44,50
50,90 51,180 52,60 57,140
62,90 63,330 64,130 65,1171
66,60 74,30 75,130 76,30
77,50 81,30 82,80 83,500
84,200 89,601 90,841 91,8718
92,1371 93,70 95,270 96,30
109,200 110,711 111,9999 112,651
118,1712 119,611 120,40 122,40
124,40 136,170 137,571 138,290
198,40 200,50 211,40 229,4484
230,691 231,50
##END=
