##TITLE=Benzamide, N-(2,5-dimethoxyphenyl)-2,3,4-trifluoro-
##JCAMP-DX=4.24
##DATA TYPE=MASS SPECTRUM
##ORIGIN=Zaikin V.G., TIPS RAS, Moscow, Russia
##OWNER=NIST Mass Spectrometry Data Center
Collection (C) 2014 copyright by the U.S. Secretary of Commerce
on behalf of the United States of America. All rights reserved.
##$NIST MASS SPEC NO=307179
##MOLFORM=C15 H12 F3 N O3
##MW=311
##$NIST SOURCE=MSDC
##XUNITS=M/Z
##YUNITS=RELATIVE INTENSITY
##XFACTOR=1
##YFACTOR=1
##FIRSTX=28
##LASTX=313
##FIRSTY=20
##MAXX=313
##MINX=28
##MAXY=9999
##MINY=20
##NPOINTS=58
##PEAK TABLE=(XY..XY)
28,20 39,50 51,60 52,110
53,40 63,30 65,50 66,30
68,90 69,40 77,30 78,30
79,120 80,60 81,290 82,40
92,70 93,90 94,30 95,80
106,30 107,90 108,60 109,90
110,50 111,30 112,40 122,110
123,70 124,100 125,160 130,20
131,1161 132,110 136,50 138,170
139,350 140,40 150,50 151,30
152,50 154,50 158,30 159,9999
160,681 161,40 164,50 265,40
268,80 280,420 281,60 292,30
296,2232 297,370 298,40 311,6105
312,961 313,110
##END=
