##TITLE=Benzamide, N-(1-naphthyl)-2-methoxy-
##JCAMP-DX=4.24
##DATA TYPE=MASS SPECTRUM
##ORIGIN=Zaikin V.G., TIPS RAS, Moscow, Russia
##OWNER=NIST Mass Spectrometry Data Center
Collection (C) 2014 copyright by the U.S. Secretary of Commerce
on behalf of the United States of America. All rights reserved.
##$NIST MASS SPEC NO=307065
##MOLFORM=C18 H15 N O2
##MW=277
##$NIST SOURCE=MSDC
##XUNITS=M/Z
##YUNITS=RELATIVE INTENSITY
##XFACTOR=1
##YFACTOR=1
##FIRSTX=28
##LASTX=279
##FIRSTY=10
##MAXX=279
##MINX=28
##MAXY=9999
##MINY=10
##NPOINTS=36
##PEAK TABLE=(XY..XY)
28,10 39,30 51,60 63,90
64,120 65,60 75,30 76,60
77,1051 78,80 79,90 88,30
89,80 92,641 93,50 105,70
113,50 114,100 115,651 116,110
120,140 121,70 127,60 135,9999
136,771 137,60 140,110 141,60
142,60 143,320 144,80 169,40
217,30 277,3433 278,691 279,70
##END=
