##TITLE=4-Ethylbenzoic acid, 3-methylphenyl ester
##JCAMP-DX=4.24
##DATA TYPE=MASS SPECTRUM
##ORIGIN=Zaikin V.G., TIPS RAS, Moscow, Russia
##OWNER=NIST Mass Spectrometry Data Center
Collection (C) 2014 copyright by the U.S. Secretary of Commerce
on behalf of the United States of America. All rights reserved.
##$NIST MASS SPEC NO=307121
##MOLFORM=C16 H16 O2
##MW=240
##$NIST SOURCE=MSDC
##XUNITS=M/Z
##YUNITS=RELATIVE INTENSITY
##XFACTOR=1
##YFACTOR=1
##FIRSTX=27
##LASTX=241
##FIRSTY=80
##MAXX=241
##MINX=27
##MAXY=9999
##MINY=30
##NPOINTS=30
##PEAK TABLE=(XY..XY)
27,80 28,90 39,110 50,50
51,140 52,40 53,70 63,80
65,100 76,40 77,761 78,180
79,751 80,50 89,130 90,140
91,80 102,30 103,420 104,170
105,881 106,80 107,100 108,80
132,50 133,9999 134,961 135,60
240,400 241,70
##END=
