##TITLE=Benzamide, N-(3-methylphenyl)-2,3,4-trifluoro-
##JCAMP-DX=4.24
##DATA TYPE=MASS SPECTRUM
##ORIGIN=Zaikin V.G., TIPS RAS, Moscow, Russia
##OWNER=NIST Mass Spectrometry Data Center
Collection (C) 2014 copyright by the U.S. Secretary of Commerce
on behalf of the United States of America. All rights reserved.
##$NIST MASS SPEC NO=307175
##MOLFORM=C14 H10 F3 N O
##MW=265
##$NIST SOURCE=MSDC
##XUNITS=M/Z
##YUNITS=RELATIVE INTENSITY
##XFACTOR=1
##YFACTOR=1
##FIRSTX=28
##LASTX=267
##FIRSTY=20
##MAXX=267
##MINX=28
##MAXY=9999
##MINY=20
##NPOINTS=28
##PEAK TABLE=(XY..XY)
28,20 39,70 51,60 52,40
53,40 63,40 65,60 77,270
78,100 79,110 81,340 91,60
104,30 106,110 107,150 108,300
112,40 130,30 131,1511 132,170
158,30 159,9999 160,651 161,30
264,70 265,4534 266,691 267,60
##END=
