##TITLE=1-Adamantanecarboxylic acid, 4-methoxyphenyl ester
##JCAMP-DX=4.24
##DATA TYPE=MASS SPECTRUM
##ORIGIN=Zaikin V.G., TIPS RAS, Moscow, Russia
##OWNER=NIST Mass Spectrometry Data Center
Collection (C) 2014 copyright by the U.S. Secretary of Commerce
on behalf of the United States of America. All rights reserved.
##$NIST MASS SPEC NO=307662
##MOLFORM=C18 H22 O3
##MW=286
##$NIST SOURCE=MSDC
##XUNITS=M/Z
##YUNITS=RELATIVE INTENSITY
##XFACTOR=1
##YFACTOR=1
##FIRSTX=41
##LASTX=287
##FIRSTY=130
##MAXX=287
##MINX=41
##MAXY=9999
##MINY=40
##NPOINTS=29
##PEAK TABLE=(XY..XY)
41,130 53,40 55,120 65,40
67,260 69,50 77,170 79,791
80,60 81,210 91,270 92,70
93,781 94,50 95,50 105,60
107,410 109,190 123,130 124,440
133,40 135,9999 136,1061 137,40
163,250 258,370 259,60 286,520
287,90
##END=
