##TITLE=p-Anisic acid, 2-naphthyl ester
##JCAMP-DX=4.24
##DATA TYPE=MASS SPECTRUM
##ORIGIN=Zaikin V.G., TIPS RAS, Moscow, Russia
##OWNER=NIST Mass Spectrometry Data Center
Collection (C) 2014 copyright by the U.S. Secretary of Commerce
on behalf of the United States of America. All rights reserved.
##$NIST MASS SPEC NO=307640
##MOLFORM=C18 H14 O3
##MW=278
##$NIST SOURCE=MSDC
##XUNITS=M/Z
##YUNITS=RELATIVE INTENSITY
##XFACTOR=1
##YFACTOR=1
##FIRSTX=28
##LASTX=279
##FIRSTY=10
##MAXX=279
##MINX=28
##MAXY=9999
##MINY=10
##NPOINTS=18
##PEAK TABLE=(XY..XY)
28,10 63,30 64,60 77,470
78,30 79,20 92,300 107,490
108,40 115,170 127,30 135,9999
136,931 137,70 144,30 152,50
278,1261 279,250
##END=
