##TITLE=4-Fluorobenzoic acid, morpholide
##JCAMP-DX=4.24
##DATA TYPE=MASS SPECTRUM
##ORIGIN=Zaikin V.G., TIPS RAS, Moscow, Russia
##OWNER=NIST Mass Spectrometry Data Center
Collection (C) 2014 copyright by the U.S. Secretary of Commerce
on behalf of the United States of America. All rights reserved.
##$NIST MASS SPEC NO=307099
##MOLFORM=C11 H12 F N O2
##MW=209
##$NIST SOURCE=MSDC
##XUNITS=M/Z
##YUNITS=RELATIVE INTENSITY
##XFACTOR=1
##YFACTOR=1
##FIRSTX=26
##LASTX=210
##FIRSTY=40
##MAXX=210
##MINX=26
##MAXY=9999
##MINY=20
##NPOINTS=45
##PEAK TABLE=(XY..XY)
26,40 27,110 28,20 29,160
30,80 41,50 42,210 43,30
50,110 51,80 54,70 55,180
56,1371 57,120 68,50 69,180
70,90 72,320 74,80 75,821
76,80 86,1231 87,60 94,180
95,3173 96,280 109,70 110,120
122,90 123,9999 124,661 125,30
138,50 152,100 166,130 167,40
178,190 180,60 181,90 194,450
195,40 207,30 208,981 209,480
210,60
##END=
