##TITLE=3-Methylbut-2-enoic acid, 4-benzyloxyphenyl ester
##JCAMP-DX=4.24
##DATA TYPE=MASS SPECTRUM
##ORIGIN=Zaikin V.G., TIPS RAS, Moscow, Russia
##OWNER=NIST Mass Spectrometry Data Center
Collection (C) 2014 copyright by the U.S. Secretary of Commerce
on behalf of the United States of America. All rights reserved.
##$NIST MASS SPEC NO=307599
##MOLFORM=C18 H18 O3
##MW=282
##$NIST SOURCE=MSDC
##XUNITS=M/Z
##YUNITS=RELATIVE INTENSITY
##XFACTOR=1
##YFACTOR=1
##FIRSTX=26
##LASTX=283
##FIRSTY=40
##MAXX=283
##MINX=26
##MAXY=9999
##MINY=30
##NPOINTS=38
##PEAK TABLE=(XY..XY)
26,40 27,190 28,190 29,480
38,30 39,440 40,40 41,70
44,40 50,40 51,100 52,50
53,210 54,110 55,1732 56,70
63,130 64,50 65,721 66,30
67,30 77,30 81,30 82,140
83,9999 84,520 85,30 89,130
90,70 91,7216 92,591 109,30
110,50 200,4494 201,641 202,50
282,591 283,120
##END=
