##TITLE=1-Chloro-4-diphenylvinylsilyloxybenzene
##JCAMP-DX=4.24
##DATA TYPE=MASS SPECTRUM
##ORIGIN=Zaikin V.G., TIPS RAS, Moscow, Russia
##OWNER=NIST Mass Spectrometry Data Center
Collection (C) 2014 copyright by the U.S. Secretary of Commerce
on behalf of the United States of America. All rights reserved.
##$NIST MASS SPEC NO=307855
##MOLFORM=C20 H17 Cl O Si
##MW=336
##$NIST SOURCE=MSDC
##XUNITS=M/Z
##YUNITS=RELATIVE INTENSITY
##XFACTOR=1
##YFACTOR=1
##FIRSTX=45
##LASTX=340
##FIRSTY=30
##MAXX=340
##MINX=45
##MAXY=9999
##MINY=30
##NPOINTS=91
##PEAK TABLE=(XY..XY)
45,30 53,40 63,70 75,30
77,90 79,30 91,30 103,30
105,801 106,90 107,90 111,190
113,50 115,40 129,80 130,140
131,340 132,40 136,40 138,60
141,50 151,70 152,571 153,130
154,60 155,701 156,80 157,250
165,50 167,40 169,30 178,100
179,70 180,410 181,1051 182,290
183,4154 184,711 185,190 188,200
190,60 195,30 196,120 197,611
198,100 199,330 200,50 203,50
205,30 207,320 208,811 209,9999
210,2172 211,530 212,60 214,40
215,50 217,120 219,30 223,671
224,160 225,40 231,2132 232,1331
233,1281 234,520 235,200 245,50
257,571 258,2162 259,1441 260,931
261,440 262,70 273,110 301,731
302,200 303,40 307,130 308,50
309,2472 310,631 311,921 312,190
313,30 335,30 336,9168 337,2502
338,3493 339,881 340,200
##END=
