##TITLE=1-Adamantanecarboxamide, N-(2,5-dimethoxyphenyl)-
##JCAMP-DX=4.24
##DATA TYPE=MASS SPECTRUM
##ORIGIN=Zaikin V.G., TIPS RAS, Moscow, Russia
##OWNER=NIST Mass Spectrometry Data Center
Collection (C) 2014 copyright by the U.S. Secretary of Commerce
on behalf of the United States of America. All rights reserved.
##$NIST MASS SPEC NO=307470
##MOLFORM=C19 H25 N O3
##MW=315
##$NIST SOURCE=MSDC
##XUNITS=M/Z
##YUNITS=RELATIVE INTENSITY
##XFACTOR=1
##YFACTOR=1
##FIRSTX=27
##LASTX=317
##FIRSTY=40
##MAXX=317
##MINX=27
##MAXY=9999
##MINY=20
##NPOINTS=77
##PEAK TABLE=(XY..XY)
27,40 28,20 29,50 39,120
40,30 41,280 43,60 51,60
52,70 53,150 54,30 55,310
56,30 57,60 65,140 66,60
67,510 68,60 69,130 77,440
78,110 79,1241 80,150 81,410
82,40 91,520 92,190 93,1211
94,140 95,140 105,180 106,50
107,611 108,80 109,90 110,110
119,40 122,120 123,70 124,70
125,60 130,40 133,120 134,40
135,9579 136,1121 137,70 138,540
139,70 150,110 151,60 152,60
153,150 154,130 161,30 164,210
165,290 166,30 179,180 180,40
193,80 230,1251 231,210 244,50
272,691 273,130 283,40 284,520
285,110 286,50 287,260 288,40
300,180 301,40 315,9999 316,2162
317,280
##END=
