##TITLE=Acetoxyacetic acid, 4-cyanophenyl ester
##JCAMP-DX=4.24
##DATA TYPE=MASS SPECTRUM
##ORIGIN=Zaikin V.G., TIPS RAS, Moscow, Russia
##OWNER=NIST Mass Spectrometry Data Center
Collection (C) 2014 copyright by the U.S. Secretary of Commerce
on behalf of the United States of America. All rights reserved.
##$NIST MASS SPEC NO=307543
##MOLFORM=C11 H9 N O4
##MW=219
##$NIST SOURCE=MSDC
##XUNITS=M/Z
##YUNITS=RELATIVE INTENSITY
##XFACTOR=1
##YFACTOR=1
##FIRSTX=27
##LASTX=133
##FIRSTY=30
##MAXX=133
##MINX=27
##MAXY=9999
##MINY=20
##NPOINTS=39
##PEAK TABLE=(XY..XY)
27,30 28,30 29,80 30,30
36,30 37,110 38,80 39,230
41,30 42,400 43,9999 44,220
50,90 51,110 52,50 62,90
63,370 64,490 65,70 73,4064
74,160 75,160 76,90 77,30
88,30 89,20 90,671 91,260
92,50 101,6996 102,611 103,80
104,50 118,160 119,2552 120,280
124,50 132,190 133,50
##END=
