##TITLE=6-Chlorohexanoic acid, 3,4-dichlorophenyl ester
##JCAMP-DX=4.24
##DATA TYPE=MASS SPECTRUM
##ORIGIN=Zaikin V.G., TIPS RAS, Moscow, Russia
##OWNER=NIST Mass Spectrometry Data Center
Collection (C) 2014 copyright by the U.S. Secretary of Commerce
on behalf of the United States of America. All rights reserved.
##$NIST MASS SPEC NO=307624
##MOLFORM=C12 H13 Cl3 O2
##MW=294
##$NIST SOURCE=MSDC
##XUNITS=M/Z
##YUNITS=RELATIVE INTENSITY
##XFACTOR=1
##YFACTOR=1
##FIRSTX=27
##LASTX=298
##FIRSTY=170
##MAXX=298
##MINX=27
##MAXY=9999
##MINY=30
##NPOINTS=54
##PEAK TABLE=(XY..XY)
27,170 28,50 29,140 36,50
39,120 41,1962 42,240 43,1161
53,50 55,691 60,40 63,420
65,80 67,110 68,90 69,9999
70,540 73,70 75,70 77,40
79,30 88,50 97,350 98,50
99,130 101,30 105,320 107,90
108,40 109,110 124,340 125,30
126,30 127,50 128,30 132,60
133,8187 134,530 135,2722 136,140
145,110 147,70 155,60 161,50
162,3123 163,240 164,2012 165,120
166,320 172,100 177,30 294,180
296,170 298,40
##END=
