##TITLE=Benzamide, N-(1-naphthyl)-4-trifluoromethyl-
##JCAMP-DX=4.24
##DATA TYPE=MASS SPECTRUM
##ORIGIN=Zaikin V.G., TIPS RAS, Moscow, Russia
##OWNER=NIST Mass Spectrometry Data Center
Collection (C) 2014 copyright by the U.S. Secretary of Commerce
on behalf of the United States of America. All rights reserved.
##$NIST MASS SPEC NO=307253
##MOLFORM=C18 H12 F3 N O
##MW=315
##$NIST SOURCE=MSDC
##XUNITS=M/Z
##YUNITS=RELATIVE INTENSITY
##XFACTOR=1
##YFACTOR=1
##FIRSTX=28
##LASTX=317
##FIRSTY=10
##MAXX=317
##MINX=28
##MAXY=9999
##MINY=10
##NPOINTS=40
##PEAK TABLE=(XY..XY)
28,10 39,40 50,60 51,50
62,30 63,90 65,50 74,30
75,120 76,60 77,40 88,40
89,130 95,240 113,80 114,140
115,1381 116,210 125,160 126,200
127,80 140,150 141,80 142,160
143,320 144,1061 145,4034 146,330
154,40 169,30 172,30 173,9999
174,831 175,50 296,260 297,50
314,40 315,5615 316,1091 317,120
##END=
