##TITLE=Acetamide, N-(3-chlorophenyl)-2-methoxy-
##JCAMP-DX=4.24
##DATA TYPE=MASS SPECTRUM
##ORIGIN=Zaikin V.G., TIPS RAS, Moscow, Russia
##OWNER=NIST Mass Spectrometry Data Center
Collection (C) 2014 copyright by the U.S. Secretary of Commerce
on behalf of the United States of America. All rights reserved.
##$NIST MASS SPEC NO=307258
##MOLFORM=C9 H10 Cl N O2
##MW=199
##$NIST SOURCE=MSDC
##XUNITS=M/Z
##YUNITS=RELATIVE INTENSITY
##XFACTOR=1
##YFACTOR=1
##FIRSTX=26
##LASTX=202
##FIRSTY=30
##MAXX=202
##MINX=26
##MAXY=9999
##MINY=30
##NPOINTS=89
##PEAK TABLE=(XY..XY)
26,30 27,50 28,220 29,571
30,50 31,260 36,130 37,50
38,190 39,240 40,30 41,70
42,110 43,60 44,100 45,9999
46,350 49,40 50,200 51,180
52,120 61,60 62,180 63,671
64,440 65,320 66,40 72,30
73,300 74,120 75,701 76,230
77,310 78,80 79,40 85,70
87,30 88,30 89,80 90,430
91,591 92,170 93,100 98,30
99,941 100,160 101,320 102,110
104,180 105,160 106,70 107,50
111,1451 112,190 113,490 114,60
119,50 125,280 126,1822 127,1361
128,711 129,420 130,40 132,50
133,90 137,30 138,280 139,1261
140,7196 141,1061 142,2432 143,220
153,1702 154,1702 155,681 156,571
157,40 166,60 168,961 169,4894
170,1111 171,1651 172,260 173,30
184,80 199,6636 200,721 201,2232
202,220
##END=
