##TITLE=Benzamide, N-(2,5-dimethoxyphenyl)-4-chloro-
##JCAMP-DX=4.24
##DATA TYPE=MASS SPECTRUM
##ORIGIN=Zaikin V.G., TIPS RAS, Moscow, Russia
##OWNER=NIST Mass Spectrometry Data Center
Collection (C) 2014 copyright by the U.S. Secretary of Commerce
on behalf of the United States of America. All rights reserved.
##$NIST MASS SPEC NO=307400
##MOLFORM=C15 H14 Cl N O3
##MW=291
##$NIST SOURCE=MSDC
##XUNITS=M/Z
##YUNITS=RELATIVE INTENSITY
##XFACTOR=1
##YFACTOR=1
##FIRSTX=39
##LASTX=294
##FIRSTY=70
##MAXX=294
##MINX=39
##MAXY=9999
##MINY=20
##NPOINTS=63
##PEAK TABLE=(XY..XY)
39,70 50,100 51,130 52,150
53,60 65,60 66,40 67,30
68,90 69,30 74,40 75,450
76,210 77,60 78,30 79,140
80,60 85,30 92,50 93,80
94,40 95,80 104,170 107,90
108,60 109,70 110,80 111,2212
112,180 113,741 114,50 122,70
123,80 124,60 125,130 136,60
137,30 138,430 139,9999 140,761
141,3413 142,240 150,40 151,40
152,100 153,50 154,160 164,60
225,40 248,30 256,20 259,40
260,520 261,90 262,170 276,1141
277,200 278,400 279,50 291,5225
292,861 293,1822 294,280
##END=
