##TITLE=Acetamide, N-tetrahydrofurfuryl-2,2-dichloro-
##JCAMP-DX=4.24
##DATA TYPE=MASS SPECTRUM
##ORIGIN=Zaikin V.G., TIPS RAS, Moscow, Russia
##OWNER=NIST Mass Spectrometry Data Center
Collection (C) 2014 copyright by the U.S. Secretary of Commerce
on behalf of the United States of America. All rights reserved.
##$NIST MASS SPEC NO=307296
##MOLFORM=C7 H11 Cl2 N O2
##MW=211
##$NIST SOURCE=MSDC
##XUNITS=M/Z
##YUNITS=RELATIVE INTENSITY
##XFACTOR=1
##YFACTOR=1
##FIRSTX=26
##LASTX=211
##FIRSTY=30
##MAXX=211
##MINX=26
##MAXY=9999
##MINY=20
##NPOINTS=51
##PEAK TABLE=(XY..XY)
26,30 27,370 28,50 29,310
30,470 31,60 36,120 38,40
39,250 40,60 41,941 42,270
43,2352 44,180 48,70 49,40
53,70 54,110 55,220 56,170
57,60 58,30 67,150 68,30
69,50 70,160 71,9999 72,450
76,160 77,50 78,50 82,130
83,380 84,761 85,350 86,40
100,90 105,30 106,290 108,80
110,60 128,510 129,30 140,180
141,60 142,130 143,30 144,20
146,60 153,30 211,180
##END=
