##TITLE=2-Fluorobenzoic acid, 3-methylphenyl ester
##JCAMP-DX=4.24
##DATA TYPE=MASS SPECTRUM
##ORIGIN=Zaikin V.G., TIPS RAS, Moscow, Russia
##OWNER=NIST Mass Spectrometry Data Center
Collection (C) 2014 copyright by the U.S. Secretary of Commerce
on behalf of the United States of America. All rights reserved.
##$NIST MASS SPEC NO=307685
##MOLFORM=C14 H11 F O2
##MW=230
##$NIST SOURCE=MSDC
##XUNITS=M/Z
##YUNITS=RELATIVE INTENSITY
##XFACTOR=1
##YFACTOR=1
##FIRSTX=75
##LASTX=231
##FIRSTY=230
##MAXX=231
##MINX=75
##MAXY=9999
##MINY=40
##NPOINTS=12
##PEAK TABLE=(XY..XY)
75,230 77,90 79,50 94,40
95,1201 96,80 107,40 123,9999
124,751 125,40 230,1381 231,220
##END=
