##TITLE=1-Diphenyl(tert-butyl)silyloxy-4-nitrobenzene
##JCAMP-DX=4.24
##DATA TYPE=MASS SPECTRUM
##ORIGIN=Zaikin V.G., TIPS RAS, Moscow, Russia
##OWNER=NIST Mass Spectrometry Data Center
Collection (C) 2014 copyright by the U.S. Secretary of Commerce
on behalf of the United States of America. All rights reserved.
##$NIST MASS SPEC NO=307869
##MOLFORM=C22 H23 N O3 Si
##MW=377
##$NIST SOURCE=MSDC
##XUNITS=M/Z
##YUNITS=RELATIVE INTENSITY
##XFACTOR=1
##YFACTOR=1
##FIRSTX=105
##LASTX=323
##FIRSTY=70
##MAXX=323
##MINX=105
##MAXY=9999
##MINY=20
##NPOINTS=29
##PEAK TABLE=(XY..XY)
105,70 135,40 152,100 153,40
168,20 181,110 182,30 183,30
196,230 197,320 198,60 199,40
228,30 242,210 243,80 244,50
245,30 255,30 258,60 273,681
274,751 275,190 276,40 290,50
304,100 320,9999 321,2552 322,681
323,90
##END=
