##TITLE=3,5-Dimethyl-1-tripropylsilyloxybenzene
##JCAMP-DX=4.24
##DATA TYPE=MASS SPECTRUM
##ORIGIN=Zaikin V.G., TIPS RAS, Moscow, Russia
##OWNER=NIST Mass Spectrometry Data Center
Collection (C) 2014 copyright by the U.S. Secretary of Commerce
on behalf of the United States of America. All rights reserved.
##$NIST MASS SPEC NO=307842
##MOLFORM=C17 H30 O Si
##MW=278
##$NIST SOURCE=MSDC
##XUNITS=M/Z
##YUNITS=RELATIVE INTENSITY
##XFACTOR=1
##YFACTOR=1
##FIRSTX=45
##LASTX=280
##FIRSTY=40
##MAXX=280
##MINX=45
##MAXY=9999
##MINY=30
##NPOINTS=41
##PEAK TABLE=(XY..XY)
45,40 73,30 75,70 77,50
79,90 82,40 83,210 90,170
91,160 97,30 103,50 104,50
105,651 106,100 107,270 119,50
149,1171 150,230 151,5525 152,791
153,240 157,30 163,180 164,30
165,380 166,50 177,180 178,30
191,110 192,40 193,9999 194,1832
195,480 196,40 235,6856 236,1611
237,390 238,50 278,5345 279,1321
280,310
##END=
