##TITLE=2-Triisobutylsilyloxynaphthalene
##JCAMP-DX=4.24
##DATA TYPE=MASS SPECTRUM
##ORIGIN=Zaikin V.G., TIPS RAS, Moscow, Russia
##OWNER=NIST Mass Spectrometry Data Center
Collection (C) 2014 copyright by the U.S. Secretary of Commerce
on behalf of the United States of America. All rights reserved.
##$NIST MASS SPEC NO=307961
##MOLFORM=C22 H34 O Si
##MW=342
##$NIST SOURCE=MSDC
##XUNITS=M/Z
##YUNITS=RELATIVE INTENSITY
##XFACTOR=1
##YFACTOR=1
##FIRSTX=36
##LASTX=345
##FIRSTY=40
##MAXX=345
##MINX=36
##MAXY=9999
##MINY=20
##NPOINTS=54
##PEAK TABLE=(XY..XY)
36,40 59,100 85,40 86,30
91,90 94,370 101,601 115,80
122,30 126,20 127,550 128,510
129,1351 130,140 131,70 141,190
142,40 143,200 145,90 159,280
160,30 169,90 171,651 172,130
173,6736 174,1341 175,350 176,30
185,240 186,80 187,3183 188,540
189,140 199,50 200,40 201,70
213,160 227,110 228,70 229,9999
230,3463 231,831 232,120 243,120
244,30 285,3193 286,8458 287,2142
288,510 289,60 342,7977 343,2432
344,601 345,80
##END=
