##TITLE=Propanamide, N-(3-nitrophenyl)-2-chloro-
##JCAMP-DX=4.24
##DATA TYPE=MASS SPECTRUM
##ORIGIN=Zaikin V.G., TIPS RAS, Moscow, Russia
##OWNER=NIST Mass Spectrometry Data Center
Collection (C) 2014 copyright by the U.S. Secretary of Commerce
on behalf of the United States of America. All rights reserved.
##$NIST MASS SPEC NO=307489
##MOLFORM=C9 H9 Cl N2 O3
##MW=228
##$NIST SOURCE=MSDC
##XUNITS=M/Z
##YUNITS=RELATIVE INTENSITY
##XFACTOR=1
##YFACTOR=1
##FIRSTX=26
##LASTX=231
##FIRSTY=120
##MAXX=231
##MINX=26
##MAXY=9999
##MINY=20
##NPOINTS=97
##PEAK TABLE=(XY..XY)
26,120 27,1061 30,200 35,40
36,270 37,70 38,360 39,450
40,100 41,200 42,50 43,30
50,450 51,340 52,480 53,210
54,190 55,661 56,290 61,110
62,350 63,5905 64,1451 65,2622
66,190 67,30 74,150 75,591
76,1161 77,210 78,190 79,280
80,751 81,180 82,50 83,40
89,100 90,861 91,2172 92,2853
93,500 102,40 103,50 104,60
105,80 106,200 107,210 108,891
109,130 110,40 116,50 117,190
118,510 119,841 120,120 121,30
122,400 123,80 128,40 132,30
133,30 134,130 135,550 136,60
137,1782 138,9138 139,741 140,50
145,50 146,240 147,270 148,60
149,120 155,20 161,80 162,250
163,210 164,440 165,9999 166,821
167,90 171,90 172,40 173,80
182,260 183,40 184,70 193,190
198,601 199,50 200,180 212,90
214,30 228,5335 229,571 230,1792
231,160
##END=
