##TITLE=Benzamide, N-(3-nitrophenyl)-4-ethyl-
##JCAMP-DX=4.24
##DATA TYPE=MASS SPECTRUM
##ORIGIN=Zaikin V.G., TIPS RAS, Moscow, Russia
##OWNER=NIST Mass Spectrometry Data Center
Collection (C) 2014 copyright by the U.S. Secretary of Commerce
on behalf of the United States of America. All rights reserved.
##$NIST MASS SPEC NO=307019
##MOLFORM=C15 H14 N2 O3
##MW=270
##$NIST SOURCE=MSDC
##XUNITS=M/Z
##YUNITS=RELATIVE INTENSITY
##XFACTOR=1
##YFACTOR=1
##FIRSTX=27
##LASTX=271
##FIRSTY=80
##MAXX=271
##MINX=27
##MAXY=9999
##MINY=10
##NPOINTS=39
##PEAK TABLE=(XY..XY)
27,80 28,10 30,30 39,80
41,30 50,50 51,100 52,40
53,40 63,100 64,70 65,110
75,30 76,70 77,661 78,130
79,691 80,50 89,120 90,150
91,100 92,40 102,40 103,490
104,220 105,901 106,90 118,30
119,30 131,120 132,40 133,9999
134,911 135,80 138,30 223,30
240,80 270,691 271,120
##END=
