##TITLE=2-Fluorobenzoic acid, 4-nitrophenyl ester
##JCAMP-DX=4.24
##DATA TYPE=MASS SPECTRUM
##ORIGIN=Zaikin V.G., TIPS RAS, Moscow, Russia
##OWNER=NIST Mass Spectrometry Data Center
Collection (C) 2014 copyright by the U.S. Secretary of Commerce
on behalf of the United States of America. All rights reserved.
##$NIST MASS SPEC NO=307691
##MOLFORM=C13 H8 F N O4
##MW=261
##$NIST SOURCE=MSDC
##XUNITS=M/Z
##YUNITS=RELATIVE INTENSITY
##XFACTOR=1
##YFACTOR=1
##FIRSTX=75
##LASTX=125
##FIRSTY=280
##MAXX=125
##MINX=75
##MAXY=9999
##MINY=40
##NPOINTS=7
##PEAK TABLE=(XY..XY)
75,280 94,60 95,1301 96,80
123,9999 124,771 125,40
##END=
