##TITLE=4-Butylbenzoic acid, 3,5-dimethylphenyl ester
##JCAMP-DX=4.24
##DATA TYPE=MASS SPECTRUM
##ORIGIN=Zaikin V.G., TIPS RAS, Moscow, Russia
##OWNER=NIST Mass Spectrometry Data Center
Collection (C) 2014 copyright by the U.S. Secretary of Commerce
on behalf of the United States of America. All rights reserved.
##$NIST MASS SPEC NO=307505
##MOLFORM=C19 H22 O2
##MW=282
##$NIST SOURCE=MSDC
##XUNITS=M/Z
##YUNITS=RELATIVE INTENSITY
##XFACTOR=1
##YFACTOR=1
##FIRSTX=28
##LASTX=283
##FIRSTY=20
##MAXX=283
##MINX=28
##MAXY=9999
##MINY=20
##NPOINTS=35
##PEAK TABLE=(XY..XY)
28,20 39,40 41,40 51,30
53,30 55,50 63,30 65,120
77,210 78,60 79,60 89,150
90,440 91,1041 92,100 103,120
104,80 105,120 107,50 115,50
117,30 118,410 119,50 121,50
122,60 131,100 132,20 133,150
159,40 161,9999 162,1121 163,70
239,30 282,400 283,80
##END=
