##TITLE=1-Dimethyl(pentafluorophenyl)silyloxy-4-methoxybenzene
##JCAMP-DX=4.24
##DATA TYPE=MASS SPECTRUM
##ORIGIN=Zaikin V.G., TIPS RAS, Moscow, Russia
##OWNER=NIST Mass Spectrometry Data Center
Collection (C) 2014 copyright by the U.S. Secretary of Commerce
on behalf of the United States of America. All rights reserved.
##$NIST MASS SPEC NO=307938
##MOLFORM=C15 H13 F5 O2 Si
##MW=348
##$NIST SOURCE=MSDC
##XUNITS=M/Z
##YUNITS=RELATIVE INTENSITY
##XFACTOR=1
##YFACTOR=1
##FIRSTX=36
##LASTX=351
##FIRSTY=70
##MAXX=351
##MINX=36
##MAXY=9999
##MINY=20
##NPOINTS=33
##PEAK TABLE=(XY..XY)
36,70 65,60 75,40 77,280
81,50 109,40 119,90 125,520
133,40 139,210 144,40 159,190
181,40 185,30 193,80 225,751
226,110 259,60 289,90 290,190
302,160 303,20 313,60 317,40
318,721 319,140 333,741 334,140
335,30 348,9999 349,2192 350,611
351,70
##END=
