##TITLE=Benzamide, N-(3-nitrophenyl)-3-fluoro-
##JCAMP-DX=4.24
##DATA TYPE=MASS SPECTRUM
##ORIGIN=Zaikin V.G., TIPS RAS, Moscow, Russia
##OWNER=NIST Mass Spectrometry Data Center
Collection (C) 2014 copyright by the U.S. Secretary of Commerce
on behalf of the United States of America. All rights reserved.
##$NIST MASS SPEC NO=307169
##MOLFORM=C13 H9 F N2 O3
##MW=260
##$NIST SOURCE=MSDC
##XUNITS=M/Z
##YUNITS=RELATIVE INTENSITY
##XFACTOR=1
##YFACTOR=1
##FIRSTX=28
##LASTX=261
##FIRSTY=20
##MAXX=261
##MINX=28
##MAXY=9999
##MINY=20
##NPOINTS=36
##PEAK TABLE=(XY..XY)
28,20 38,30 39,60 44,30
50,90 51,70 52,50 62,30
63,130 64,120 65,80 68,30
69,70 74,60 75,621 76,100
80,30 90,30 91,70 92,40
93,30 94,130 95,3613 96,270
122,40 123,9999 124,711 125,40
138,30 184,30 185,40 213,50
230,280 231,40 260,1611 261,240
##END=
