##TITLE=Benzamide, N-(3-nitrophenyl)-2-methyl-
##JCAMP-DX=4.24
##DATA TYPE=MASS SPECTRUM
##ORIGIN=Zaikin V.G., TIPS RAS, Moscow, Russia
##OWNER=NIST Mass Spectrometry Data Center
Collection (C) 2014 copyright by the U.S. Secretary of Commerce
on behalf of the United States of America. All rights reserved.
##$NIST MASS SPEC NO=307008
##MOLFORM=C14 H12 N2 O3
##MW=256
##$NIST SOURCE=MSDC
##XUNITS=M/Z
##YUNITS=RELATIVE INTENSITY
##XFACTOR=1
##YFACTOR=1
##FIRSTX=26
##LASTX=257
##FIRSTY=30
##MAXX=257
##MINX=26
##MAXY=9999
##MINY=10
##NPOINTS=31
##PEAK TABLE=(XY..XY)
26,30 28,10 30,30 38,30
39,170 41,80 50,50 51,90
52,40 62,30 63,180 64,120
65,741 66,40 76,50 77,40
89,200 90,180 91,3173 92,280
118,60 119,9999 120,791 121,50
138,30 180,40 209,30 226,50
239,30 256,761 257,130
##END=
