##TITLE=p-Anisic acid, morpholide
##JCAMP-DX=4.24
##DATA TYPE=MASS SPECTRUM
##ORIGIN=Zaikin V.G., TIPS RAS, Moscow, Russia
##OWNER=NIST Mass Spectrometry Data Center
Collection (C) 2014 copyright by the U.S. Secretary of Commerce
on behalf of the United States of America. All rights reserved.
##$NIST MASS SPEC NO=307492
##MOLFORM=C12 H15 N O3
##MW=221
##$NIST SOURCE=MSDC
##XUNITS=M/Z
##YUNITS=RELATIVE INTENSITY
##XFACTOR=1
##YFACTOR=1
##FIRSTX=27
##LASTX=222
##FIRSTY=30
##MAXX=222
##MINX=27
##MAXY=9999
##MINY=10
##NPOINTS=31
##PEAK TABLE=(XY..XY)
27,30 28,10 42,40 50,40
51,30 56,100 63,90 64,190
65,40 69,40 76,80 77,671
78,60 79,30 86,100 92,571
93,40 104,60 107,400 108,50
121,30 122,60 135,9999 136,761
137,60 190,80 193,170 206,60
220,1511 221,1211 222,170
##END=
