##TITLE=Acetoxyacetic acid, 4-benzyloxyphenyl ester
##JCAMP-DX=4.24
##DATA TYPE=MASS SPECTRUM
##ORIGIN=Zaikin V.G., TIPS RAS, Moscow, Russia
##OWNER=NIST Mass Spectrometry Data Center
Collection (C) 2014 copyright by the U.S. Secretary of Commerce
on behalf of the United States of America. All rights reserved.
##$NIST MASS SPEC NO=307547
##MOLFORM=C17 H16 O5
##MW=300
##$NIST SOURCE=MSDC
##XUNITS=M/Z
##YUNITS=RELATIVE INTENSITY
##XFACTOR=1
##YFACTOR=1
##FIRSTX=28
##LASTX=301
##FIRSTY=10
##MAXX=301
##MINX=28
##MAXY=9999
##MINY=10
##NPOINTS=30
##PEAK TABLE=(XY..XY)
28,10 36,50 39,90 41,30
42,50 43,1231 44,60 51,50
52,30 54,30 63,80 64,40
65,540 73,430 81,50 82,30
89,110 90,70 91,9999 92,791
93,30 101,350 109,50 110,120
144,30 200,3433 201,500 202,50
300,350 301,60
##END=
