##TITLE=Benzamide, N-(3-chlorophenyl)-4-chloro-
##JCAMP-DX=4.24
##DATA TYPE=MASS SPECTRUM
##ORIGIN=Zaikin V.G., TIPS RAS, Moscow, Russia
##OWNER=NIST Mass Spectrometry Data Center
Collection (C) 2014 copyright by the U.S. Secretary of Commerce
on behalf of the United States of America. All rights reserved.
##$NIST MASS SPEC NO=307397
##MOLFORM=C13 H9 Cl2 N O
##MW=265
##$NIST SOURCE=MSDC
##XUNITS=M/Z
##YUNITS=RELATIVE INTENSITY
##XFACTOR=1
##YFACTOR=1
##FIRSTX=28
##LASTX=269
##FIRSTY=20
##MAXX=269
##MINX=28
##MAXY=9999
##MINY=20
##NPOINTS=47
##PEAK TABLE=(XY..XY)
28,20 36,50 38,40 39,60
50,210 51,120 61,30 62,40
63,150 64,90 65,70 73,80
74,120 75,931 76,290 77,60
85,90 87,30 90,50 91,80
92,30 99,180 100,30 101,60
104,110 110,50 111,2502 112,210
113,821 114,60 115,70 126,30
127,190 129,50 139,9999 140,741
141,3383 142,230 166,30 183,30
185,30 201,30 265,2152 266,310
267,1431 268,200 269,230
##END=
