##TITLE=Benzamide, N-(2-iodo-4-methylphenyl)-4-methoxy-
##JCAMP-DX=4.24
##DATA TYPE=MASS SPECTRUM
##ORIGIN=Zaikin V.G., TIPS RAS, Moscow, Russia
##OWNER=NIST Mass Spectrometry Data Center
Collection (C) 2014 copyright by the U.S. Secretary of Commerce
on behalf of the United States of America. All rights reserved.
##$NIST MASS SPEC NO=307501
##MOLFORM=C15 H14 I N O2
##MW=367
##$NIST SOURCE=MSDC
##XUNITS=M/Z
##YUNITS=RELATIVE INTENSITY
##XFACTOR=1
##YFACTOR=1
##FIRSTX=28
##LASTX=369
##FIRSTY=10
##MAXX=369
##MINX=28
##MAXY=9999
##MINY=10
##NPOINTS=32
##PEAK TABLE=(XY..XY)
28,10 39,40 50,40 51,80
52,40 63,90 64,160 65,30
76,100 77,791 78,150 79,80
92,540 93,40 104,210 105,140
106,50 107,450 108,40 127,30
128,50 135,9999 136,801 137,70
232,50 233,110 239,30 240,50
241,30 367,2322 368,380 369,30
##END=
