##TITLE=2-Furancarboxamide, N-(3-nitrophenyl)-
##JCAMP-DX=4.24
##DATA TYPE=MASS SPECTRUM
##ORIGIN=Zaikin V.G., TIPS RAS, Moscow, Russia
##OWNER=NIST Mass Spectrometry Data Center
Collection (C) 2014 copyright by the U.S. Secretary of Commerce
on behalf of the United States of America. All rights reserved.
##$NIST MASS SPEC NO=307041
##MOLFORM=C11 H8 N2 O4
##MW=232
##$NIST SOURCE=MSDC
##XUNITS=M/Z
##YUNITS=RELATIVE INTENSITY
##XFACTOR=1
##YFACTOR=1
##FIRSTX=28
##LASTX=234
##FIRSTY=10
##MAXX=234
##MINX=28
##MAXY=9999
##MINY=10
##NPOINTS=33
##PEAK TABLE=(XY..XY)
28,10 30,30 38,90 39,550
40,30 50,50 51,70 52,50
53,30 63,130 64,120 65,80
66,30 67,160 75,40 76,70
90,40 91,70 92,50 95,9999
96,490 97,40 129,30 138,30
141,30 173,20 185,30 186,50
187,40 202,70 232,3343 233,410
234,50
##END=
