##TITLE=2-Furancarboxylic acid, morpholide
##JCAMP-DX=4.24
##DATA TYPE=MASS SPECTRUM
##ORIGIN=Zaikin V.G., TIPS RAS, Moscow, Russia
##OWNER=NIST Mass Spectrometry Data Center
Collection (C) 2014 copyright by the U.S. Secretary of Commerce
on behalf of the United States of America. All rights reserved.
##$NIST MASS SPEC NO=307033
##MOLFORM=C9 H11 N O3
##MW=181
##$NIST SOURCE=MSDC
##XUNITS=M/Z
##YUNITS=RELATIVE INTENSITY
##XFACTOR=1
##YFACTOR=1
##FIRSTX=26
##LASTX=183
##FIRSTY=50
##MAXX=183
##MINX=26
##MAXY=9999
##MINY=20
##NPOINTS=66
##PEAK TABLE=(XY..XY)
26,50 27,180 28,40 29,240
30,110 36,40 37,40 38,170
39,981 40,70 41,120 42,601
43,60 44,30 45,50 51,70
52,30 53,80 54,140 55,250
56,1832 57,160 66,90 67,240
68,110 69,80 70,260 72,621
80,30 81,230 82,270 83,20
84,70 85,50 86,1441 87,70
94,130 95,9999 96,661 97,90
108,30 109,90 110,360 111,80
112,80 115,50 122,280 123,370
124,470 125,80 127,30 137,50
138,140 139,200 143,150 150,390
151,190 152,410 153,190 164,30
166,1942 167,170 180,230 181,2923
182,310 183,30
##END=
