##TITLE=Acetamide, N-(2-iodo-4-methylphenyl)-2,2,2-trichloro-
##JCAMP-DX=4.24
##DATA TYPE=MASS SPECTRUM
##ORIGIN=Zaikin V.G., TIPS RAS, Moscow, Russia
##OWNER=NIST Mass Spectrometry Data Center
Collection (C) 2014 copyright by the U.S. Secretary of Commerce
on behalf of the United States of America. All rights reserved.
##$NIST MASS SPEC NO=307221
##MOLFORM=C9 H7 Cl3 I N O
##MW=377
##$NIST SOURCE=MSDC
##XUNITS=M/Z
##YUNITS=RELATIVE INTENSITY
##XFACTOR=1
##YFACTOR=1
##FIRSTX=26
##LASTX=383
##FIRSTY=30
##MAXX=383
##MINX=26
##MAXY=9999
##MINY=20
##NPOINTS=103
##PEAK TABLE=(XY..XY)
26,30 27,70 28,20 35,130
36,681 37,40 38,300 39,250
40,30 41,40 44,80 47,60
50,290 51,651 52,430 53,70
54,40 61,40 62,140 63,440
64,170 65,150 74,100 75,150
76,270 77,1061 78,961 79,200
82,160 83,100 84,90 85,60
87,30 88,50 89,891 90,1692
91,200 102,90 103,140 104,1692
105,1331 106,160 107,30 110,60
112,30 115,50 116,220 117,350
118,40 119,140 121,40 125,40
127,190 128,230 130,30 132,180
133,591 134,130 145,40 146,100
150,40 151,170 152,100 153,70
154,30 165,30 179,100 180,1561
181,230 182,520 183,60 204,50
214,120 215,400 216,130 217,1131
218,110 219,40 230,170 231,120
232,5575 233,571 234,110 242,60
243,70 258,80 259,500 260,9999
261,931 262,50 271,60 278,60
292,30 306,40 307,20 313,40
377,5075 378,550 379,4954 380,510
381,1611 382,160 383,180
##END=
