##TITLE=Phenylthioacetic acid, 4-chlorophenyl ester
##JCAMP-DX=4.24
##DATA TYPE=MASS SPECTRUM
##ORIGIN=Zaikin V.G., TIPS RAS, Moscow, Russia
##OWNER=NIST Mass Spectrometry Data Center
Collection (C) 2014 copyright by the U.S. Secretary of Commerce
on behalf of the United States of America. All rights reserved.
##$NIST MASS SPEC NO=307774
##MOLFORM=C14 H11 Cl O2 S
##MW=278
##$NIST SOURCE=MSDC
##XUNITS=M/Z
##YUNITS=RELATIVE INTENSITY
##XFACTOR=1
##YFACTOR=1
##FIRSTX=28
##LASTX=282
##FIRSTY=50
##MAXX=282
##MINX=28
##MAXY=9999
##MINY=30
##NPOINTS=47
##PEAK TABLE=(XY..XY)
28,50 39,140 42,30 45,1591
46,30 47,60 50,50 51,300
63,120 64,40 65,490 66,30
69,130 73,110 75,70 77,611
78,170 79,290 91,90 99,380
100,30 101,110 105,1441 106,100
108,130 109,1171 110,140 111,100
121,631 122,881 123,8648 124,771
125,430 127,370 128,651 129,150
130,200 139,30 150,9999 151,1041
152,500 153,40 173,30 278,2112
279,310 280,791 282,30
##END=
