##TITLE=4-Butylbenzoic acid, 3,4-dichlorophenyl ester
##JCAMP-DX=4.24
##DATA TYPE=MASS SPECTRUM
##ORIGIN=Zaikin V.G., TIPS RAS, Moscow, Russia
##OWNER=NIST Mass Spectrometry Data Center
Collection (C) 2014 copyright by the U.S. Secretary of Commerce
on behalf of the United States of America. All rights reserved.
##$NIST MASS SPEC NO=307508
##MOLFORM=C17 H16 Cl2 O2
##MW=322
##$NIST SOURCE=MSDC
##XUNITS=M/Z
##YUNITS=RELATIVE INTENSITY
##XFACTOR=1
##YFACTOR=1
##FIRSTX=28
##LASTX=164
##FIRSTY=10
##MAXX=164
##MINX=28
##MAXY=9999
##MINY=10
##NPOINTS=29
##PEAK TABLE=(XY..XY)
28,10 39,30 41,50 51,30
55,50 63,70 65,100 77,110
78,40 79,30 89,150 90,380
91,921 92,80 103,90 104,60
105,90 115,40 117,30 118,330
119,30 131,80 133,210 135,30
159,50 161,9999 162,1071 163,70
164,40
##END=
