##TITLE=p-Anisic acid, 4-chlorophenyl ester
##JCAMP-DX=4.24
##DATA TYPE=MASS SPECTRUM
##ORIGIN=Zaikin V.G., TIPS RAS, Moscow, Russia
##OWNER=NIST Mass Spectrometry Data Center
Collection (C) 2014 copyright by the U.S. Secretary of Commerce
on behalf of the United States of America. All rights reserved.
##$NIST MASS SPEC NO=307634
##MOLFORM=C14 H11 Cl O3
##MW=262
##$NIST SOURCE=MSDC
##XUNITS=M/Z
##YUNITS=RELATIVE INTENSITY
##XFACTOR=1
##YFACTOR=1
##FIRSTX=28
##LASTX=262
##FIRSTY=30
##MAXX=262
##MINX=28
##MAXY=9999
##MINY=20
##NPOINTS=18
##PEAK TABLE=(XY..XY)
28,30 63,70 64,170 76,50
77,721 78,40 79,40 92,470
93,20 99,40 104,30 107,581
108,50 135,9999 136,901 137,60
152,120 262,70
##END=
