##TITLE=1-Di(tert-butyl)silyloxy-4-nitrobenzene
##JCAMP-DX=4.24
##DATA TYPE=MASS SPECTRUM
##ORIGIN=Zaikin V.G., TIPS RAS, Moscow, Russia
##OWNER=NIST Mass Spectrometry Data Center
Collection (C) 2014 copyright by the U.S. Secretary of Commerce
on behalf of the United States of America. All rights reserved.
##$NIST MASS SPEC NO=307945
##MOLFORM=C14 H23 N O3 Si
##MW=281
##$NIST SOURCE=MSDC
##XUNITS=M/Z
##YUNITS=RELATIVE INTENSITY
##XFACTOR=1
##YFACTOR=1
##FIRSTX=29
##LASTX=283
##FIRSTY=160
##MAXX=283
##MINX=29
##MAXY=9999
##MINY=20
##NPOINTS=69
##PEAK TABLE=(XY..XY)
29,160 41,270 45,30 56,200
57,2312 58,90 59,160 73,140
75,80 76,90 77,200 78,40
85,80 91,70 92,30 93,40
107,40 120,290 121,961 122,200
123,100 135,561 136,911 137,270
138,40 139,50 149,90 150,951
151,160 152,100 153,20 163,280
164,40 165,100 166,1822 167,320
168,100 169,1762 170,400 171,90
178,450 179,140 180,540 181,150
182,2762 183,400 184,120 193,520
194,80 195,50 196,9999 197,1451
198,480 199,40 207,30 208,561
209,160 210,60 223,1511 224,1682
225,6596 226,1441 227,370 228,30
265,90 266,30 281,1912 282,390
283,110
##END=
