##TITLE=Phenylacetic acid, 3,4-dichlorophenyl ester
##JCAMP-DX=4.24
##DATA TYPE=MASS SPECTRUM
##ORIGIN=Zaikin V.G., TIPS RAS, Moscow, Russia
##OWNER=NIST Mass Spectrometry Data Center
Collection (C) 2014 copyright by the U.S. Secretary of Commerce
on behalf of the United States of America. All rights reserved.
##$NIST MASS SPEC NO=307535
##MOLFORM=C14 H10 Cl2 O2
##MW=280
##$NIST SOURCE=MSDC
##XUNITS=M/Z
##YUNITS=RELATIVE INTENSITY
##XFACTOR=1
##YFACTOR=1
##FIRSTX=28
##LASTX=280
##FIRSTY=20
##MAXX=280
##MINX=28
##MAXY=9999
##MINY=20
##NPOINTS=37
##PEAK TABLE=(XY..XY)
28,20 36,50 38,30 39,250
41,80 50,60 51,130 52,30
61,20 62,100 63,410 64,80
65,1021 66,50 73,100 74,50
75,60 89,370 90,731 91,9999
92,791 97,30 98,40 99,90
107,30 109,50 118,8057 119,941
120,60 133,180 135,110 161,80
162,310 163,60 164,190 166,30
280,30
##END=
