##TITLE=4-Chloro-1-trihexylsilyloxybenzene
##JCAMP-DX=4.24
##DATA TYPE=MASS SPECTRUM
##ORIGIN=Zaikin V.G., TIPS RAS, Moscow, Russia
##OWNER=NIST Mass Spectrometry Data Center
Collection (C) 2014 copyright by the U.S. Secretary of Commerce
on behalf of the United States of America. All rights reserved.
##$NIST MASS SPEC NO=307890
##MOLFORM=C24 H43 Cl O Si
##MW=410
##$NIST SOURCE=MSDC
##XUNITS=M/Z
##YUNITS=RELATIVE INTENSITY
##XFACTOR=1
##YFACTOR=1
##FIRSTX=43
##LASTX=414
##FIRSTY=30
##MAXX=414
##MINX=43
##MAXY=9999
##MINY=30
##NPOINTS=61
##PEAK TABLE=(XY..XY)
43,30 55,70 59,100 71,60
73,50 77,60 83,320 85,731
86,60 87,30 111,110 113,6055
114,691 115,310 121,100 123,30
135,30 149,100 155,540 156,50
157,1281 158,140 159,380 160,30
169,30 171,571 172,60 173,180
183,200 184,30 185,380 186,50
187,100 197,270 199,400 200,30
201,80 209,40 211,400 212,70
213,200 215,30 225,40 239,130
240,30 241,7817 242,1471 243,2923
244,480 245,120 283,80 325,9999
326,2582 327,3994 328,921 329,200
410,3493 411,1081 412,1391 413,390
414,80
##END=
