##TITLE=Benzamide, N-(3-chlorophenyl)-2-methyl-
##JCAMP-DX=4.24
##DATA TYPE=MASS SPECTRUM
##ORIGIN=Zaikin V.G., TIPS RAS, Moscow, Russia
##OWNER=NIST Mass Spectrometry Data Center
Collection (C) 2014 copyright by the U.S. Secretary of Commerce
on behalf of the United States of America. All rights reserved.
##$NIST MASS SPEC NO=307004
##MOLFORM=C14 H12 Cl N O
##MW=245
##$NIST SOURCE=MSDC
##XUNITS=M/Z
##YUNITS=RELATIVE INTENSITY
##XFACTOR=1
##YFACTOR=1
##FIRSTX=26
##LASTX=248
##FIRSTY=30
##MAXX=248
##MINX=26
##MAXY=9999
##MINY=10
##NPOINTS=39
##PEAK TABLE=(XY..XY)
26,30 28,10 36,30 38,30
39,210 41,80 50,50 51,100
52,30 62,40 63,220 64,100
65,811 66,50 73,30 75,70
76,30 77,40 89,240 90,220
91,3133 92,270 99,100 101,30
104,50 105,30 111,40 118,60
119,9999 120,741 121,40 127,130
129,40 180,40 228,40 245,1441
246,230 247,460 248,70
##END=
