##TITLE=3-Bromobenzoic acid, 3,5-dimethylphenyl ester
##JCAMP-DX=4.24
##DATA TYPE=MASS SPECTRUM
##ORIGIN=Zaikin V.G., TIPS RAS, Moscow, Russia
##OWNER=NIST Mass Spectrometry Data Center
Collection (C) 2014 copyright by the U.S. Secretary of Commerce
on behalf of the United States of America. All rights reserved.
##$NIST MASS SPEC NO=307550
##MOLFORM=C15 H13 Br O2
##MW=304
##$NIST SOURCE=MSDC
##XUNITS=M/Z
##YUNITS=RELATIVE INTENSITY
##XFACTOR=1
##YFACTOR=1
##FIRSTX=27
##LASTX=307
##FIRSTY=70
##MAXX=307
##MINX=27
##MAXY=9999
##MINY=30
##NPOINTS=47
##PEAK TABLE=(XY..XY)
27,70 28,30 36,40 38,30
39,150 41,60 44,40 50,410
51,180 52,90 53,160 63,70
65,160 74,140 75,751 76,1181
77,731 78,180 79,100 80,30
82,30 91,470 92,70 93,110
103,80 104,350 105,120 107,170
121,200 122,150 152,40 153,50
154,60 155,2162 156,180 157,2162
158,140 181,30 183,9999 184,781
185,9599 186,751 187,30 304,1692
305,280 306,1641 307,260
##END=
