##TITLE=2-Furancarboxamide, N-tetrahydrofurfuryl-
##JCAMP-DX=4.24
##DATA TYPE=MASS SPECTRUM
##ORIGIN=Zaikin V.G., TIPS RAS, Moscow, Russia
##OWNER=NIST Mass Spectrometry Data Center
Collection (C) 2014 copyright by the U.S. Secretary of Commerce
on behalf of the United States of America. All rights reserved.
##$NIST MASS SPEC NO=307034
##MOLFORM=C10 H13 N O3
##MW=195
##$NIST SOURCE=MSDC
##XUNITS=M/Z
##YUNITS=RELATIVE INTENSITY
##XFACTOR=1
##YFACTOR=1
##FIRSTX=26
##LASTX=196
##FIRSTY=90
##MAXX=196
##MINX=26
##MAXY=9999
##MINY=30
##NPOINTS=60
##PEAK TABLE=(XY..XY)
26,90 27,611 28,110 29,470
30,721 31,70 36,60 37,70
38,300 39,2052 40,200 41,1441
42,390 43,4374 44,160 51,110
52,50 53,160 54,110 55,180
56,290 57,30 65,30 66,110
67,410 68,310 69,160 70,310
71,8528 72,380 79,30 80,90
81,420 82,550 83,90 84,3203
85,180 93,30 94,190 95,9248
96,681 97,110 107,60 108,110
109,80 110,30 111,110 112,1091
113,50 124,731 125,9999 126,1101
127,80 136,100 137,90 150,50
151,140 152,120 195,360 196,50
##END=
