##TITLE=4-Trifluoromethylbenzoic acid, 4-nitrophenyl ester
##JCAMP-DX=4.24
##DATA TYPE=MASS SPECTRUM
##ORIGIN=Zaikin V.G., TIPS RAS, Moscow, Russia
##OWNER=NIST Mass Spectrometry Data Center
Collection (C) 2014 copyright by the U.S. Secretary of Commerce
on behalf of the United States of America. All rights reserved.
##$NIST MASS SPEC NO=307739
##MOLFORM=C14 H8 F3 N O4
##MW=311
##$NIST SOURCE=MSDC
##XUNITS=M/Z
##YUNITS=RELATIVE INTENSITY
##XFACTOR=1
##YFACTOR=1
##FIRSTX=30
##LASTX=292
##FIRSTY=40
##MAXX=292
##MINX=30
##MAXY=9999
##MINY=40
##NPOINTS=17
##PEAK TABLE=(XY..XY)
30,40 50,50 63,70 64,40
75,100 76,40 95,200 125,130
126,130 144,60 145,2632 146,200
154,40 173,9999 174,821 175,50
292,160
##END=
