##TITLE=Acetamide, N-(3-chlorophenyl)-2-phenylthio-
##JCAMP-DX=4.24
##DATA TYPE=MASS SPECTRUM
##ORIGIN=Zaikin V.G., TIPS RAS, Moscow, Russia
##OWNER=NIST Mass Spectrometry Data Center
Collection (C) 2014 copyright by the U.S. Secretary of Commerce
on behalf of the United States of America. All rights reserved.
##$NIST MASS SPEC NO=307207
##MOLFORM=C14 H12 Cl N O S
##MW=277
##$NIST SOURCE=MSDC
##XUNITS=M/Z
##YUNITS=RELATIVE INTENSITY
##XFACTOR=1
##YFACTOR=1
##FIRSTX=26
##LASTX=280
##FIRSTY=40
##MAXX=280
##MINX=26
##MAXY=9999
##MINY=30
##NPOINTS=100
##PEAK TABLE=(XY..XY)
26,40 27,40 28,30 36,80
38,60 39,300 41,40 42,60
43,50 44,50 45,2022 46,100
47,110 50,190 51,581 52,120
58,40 62,70 63,320 64,190
65,651 66,180 69,200 71,30
73,120 74,80 75,290 76,140
77,1231 78,741 79,460 80,30
82,60 83,30 84,70 89,80
90,220 91,1111 92,210 93,400
94,70 97,60 99,581 100,100
101,180 102,50 104,120 105,1351
106,110 107,30 108,180 109,951
110,530 111,621 112,140 113,200
114,40 121,831 122,971 123,6226
124,3813 125,681 126,520 127,3944
128,410 129,1241 130,90 132,40
133,180 138,140 139,160 140,1101
141,120 142,330 143,30 150,2803
151,320 152,230 153,200 154,360
155,80 156,100 158,280 160,100
166,70 167,170 168,60 169,60
184,40 199,30 200,50 203,611
204,80 205,190 230,30 235,50
277,9999 278,1672 279,3663 280,601
##END=
