##TITLE=Benzamide, N-(2,5-dimethoxyphenyl)-3-methyl-
##JCAMP-DX=4.24
##DATA TYPE=MASS SPECTRUM
##ORIGIN=Zaikin V.G., TIPS RAS, Moscow, Russia
##OWNER=NIST Mass Spectrometry Data Center
Collection (C) 2014 copyright by the U.S. Secretary of Commerce
on behalf of the United States of America. All rights reserved.
##$NIST MASS SPEC NO=307117
##MOLFORM=C16 H17 N O3
##MW=271
##$NIST SOURCE=MSDC
##XUNITS=M/Z
##YUNITS=RELATIVE INTENSITY
##XFACTOR=1
##YFACTOR=1
##FIRSTX=28
##LASTX=273
##FIRSTY=20
##MAXX=273
##MINX=28
##MAXY=9999
##MINY=20
##NPOINTS=45
##PEAK TABLE=(XY..XY)
28,20 39,80 41,40 51,50
52,60 63,60 65,450 66,40
68,30 79,60 80,30 89,120
90,160 91,2722 92,240 93,50
95,50 107,50 108,30 109,30
118,60 119,9999 120,731 121,50
122,40 123,50 125,50 136,40
138,200 139,60 151,40 152,60
153,40 154,80 164,30 224,30
225,30 239,40 240,450 241,90
256,420 257,70 271,6166 272,921
273,100
##END=
