##TITLE=Benzamide, N-(4-fluorophenyl)-3-methyl-
##JCAMP-DX=4.24
##DATA TYPE=MASS SPECTRUM
##ORIGIN=Zaikin V.G., TIPS RAS, Moscow, Russia
##OWNER=NIST Mass Spectrometry Data Center
Collection (C) 2014 copyright by the U.S. Secretary of Commerce
on behalf of the United States of America. All rights reserved.
##$NIST MASS SPEC NO=307112
##MOLFORM=C14 H12 F N O
##MW=229
##$NIST SOURCE=MSDC
##XUNITS=M/Z
##YUNITS=RELATIVE INTENSITY
##XFACTOR=1
##YFACTOR=1
##FIRSTX=28
##LASTX=231
##FIRSTY=10
##MAXX=231
##MINX=28
##MAXY=9999
##MINY=10
##NPOINTS=34
##PEAK TABLE=(XY..XY)
28,10 39,150 41,60 50,40
51,70 57,70 62,30 63,150
64,60 65,781 66,40 75,40
82,30 83,210 84,70 89,230
90,190 91,3353 92,270 95,30
109,30 110,60 111,200 118,50
119,9999 120,711 121,40 185,50
198,30 211,30 228,60 229,3293
230,480 231,40
##END=
