##TITLE=Benzamide, N-(2,5-dimethoxyphenyl)-4-ethyl-
##JCAMP-DX=4.24
##DATA TYPE=MASS SPECTRUM
##ORIGIN=Zaikin V.G., TIPS RAS, Moscow, Russia
##OWNER=NIST Mass Spectrometry Data Center
Collection (C) 2014 copyright by the U.S. Secretary of Commerce
on behalf of the United States of America. All rights reserved.
##$NIST MASS SPEC NO=307018
##MOLFORM=C17 H19 N O3
##MW=285
##$NIST SOURCE=MSDC
##XUNITS=M/Z
##YUNITS=RELATIVE INTENSITY
##XFACTOR=1
##YFACTOR=1
##FIRSTX=27
##LASTX=287
##FIRSTY=50
##MAXX=287
##MINX=27
##MAXY=9999
##MINY=20
##NPOINTS=51
##PEAK TABLE=(XY..XY)
27,50 28,20 39,60 50,20
51,70 52,60 53,40 63,40
65,70 68,30 76,40 77,490
78,110 79,631 80,60 89,70
90,110 91,50 92,30 93,40
95,40 102,30 103,400 104,170
105,771 106,80 107,40 109,30
118,30 119,30 122,40 123,40
125,40 131,90 132,60 133,9999
134,861 135,70 138,150 139,30
151,30 152,40 153,30 154,60
254,310 255,70 270,170 271,30
285,4514 286,801 287,100
##END=
