##TITLE=Isonicotinamide, N-(2-iodo-4-methylphenyl)-
##JCAMP-DX=4.24
##DATA TYPE=MASS SPECTRUM
##ORIGIN=Zaikin V.G., TIPS RAS, Moscow, Russia
##OWNER=NIST Mass Spectrometry Data Center
Collection (C) 2014 copyright by the U.S. Secretary of Commerce
on behalf of the United States of America. All rights reserved.
##$NIST MASS SPEC NO=307417
##MOLFORM=C13 H11 I N2 O
##MW=338
##$NIST SOURCE=MSDC
##XUNITS=M/Z
##YUNITS=RELATIVE INTENSITY
##XFACTOR=1
##YFACTOR=1
##FIRSTX=26
##LASTX=340
##FIRSTY=50
##MAXX=340
##MINX=26
##MAXY=9999
##MINY=10
##NPOINTS=67
##PEAK TABLE=(XY..XY)
26,50 27,80 28,10 36,50
38,60 39,200 41,40 44,60
50,430 51,2022 52,540 53,90
54,30 62,70 63,240 64,90
65,100 74,50 75,110 76,230
77,841 78,5865 79,961 80,50
89,170 90,150 91,60 102,50
103,80 104,1311 105,1081 106,9999
107,841 108,60 111,40 126,40
128,220 132,30 133,30 139,170
140,30 141,60 154,40 167,30
168,30 181,70 182,40 183,30
194,30 210,100 211,210 212,110
228,30 230,40 232,1852 233,340
234,761 235,50 259,30 309,50
310,50 311,30 323,40 337,40
338,9509 339,1401 340,110
##END=
