##TITLE=Benzamide, N-(3-chlorophenyl)-4-fluoro-
##JCAMP-DX=4.24
##DATA TYPE=MASS SPECTRUM
##ORIGIN=Zaikin V.G., TIPS RAS, Moscow, Russia
##OWNER=NIST Mass Spectrometry Data Center
Collection (C) 2014 copyright by the U.S. Secretary of Commerce
on behalf of the United States of America. All rights reserved.
##$NIST MASS SPEC NO=307103
##MOLFORM=C13 H9 Cl F N O
##MW=249
##$NIST SOURCE=MSDC
##XUNITS=M/Z
##YUNITS=RELATIVE INTENSITY
##XFACTOR=1
##YFACTOR=1
##FIRSTX=28
##LASTX=252
##FIRSTY=10
##MAXX=252
##MINX=28
##MAXY=9999
##MINY=10
##NPOINTS=32
##PEAK TABLE=(XY..XY)
28,10 39,40 50,60 51,40
63,90 64,50 65,40 69,60
73,40 74,50 75,500 76,50
90,30 91,50 92,30 94,110
95,2402 96,200 99,120 101,40
111,30 122,30 123,9999 124,681
125,50 127,180 129,50 185,50
249,2312 250,340 251,741 252,110
##END=
