##TITLE=1-Diphenylvinylsilyloxy-4-methoxybenzene
##JCAMP-DX=4.24
##DATA TYPE=MASS SPECTRUM
##ORIGIN=Zaikin V.G., TIPS RAS, Moscow, Russia
##OWNER=NIST Mass Spectrometry Data Center
Collection (C) 2014 copyright by the U.S. Secretary of Commerce
on behalf of the United States of America. All rights reserved.
##$NIST MASS SPEC NO=307857
##MOLFORM=C21 H20 O2 Si
##MW=332
##$NIST SOURCE=MSDC
##XUNITS=M/Z
##YUNITS=RELATIVE INTENSITY
##XFACTOR=1
##YFACTOR=1
##FIRSTX=77
##LASTX=335
##FIRSTY=50
##MAXX=335
##MINX=77
##MAXY=9999
##MINY=30
##NPOINTS=58
##PEAK TABLE=(XY..XY)
77,50 105,360 106,50 107,90
108,60 123,30 130,40 131,160
134,721 135,60 147,30 151,160
152,70 153,80 155,40 168,30
176,30 177,50 178,50 180,60
181,490 182,100 183,2262 184,641
185,190 197,320 198,60 199,200
200,30 207,120 208,80 209,3113
210,671 211,170 212,40 213,150
223,60 225,30 227,881 228,510
229,210 230,30 239,60 253,190
254,260 255,470 256,90 289,50
303,60 305,1221 306,310 307,70
317,190 318,60 332,9999 333,2963
334,781 335,120
##END=
