##TITLE=Acetamide, N-(4-bromophenyl)-2,2-dichloro-
##JCAMP-DX=4.24
##DATA TYPE=MASS SPECTRUM
##ORIGIN=Zaikin V.G., TIPS RAS, Moscow, Russia
##OWNER=NIST Mass Spectrometry Data Center
Collection (C) 2014 copyright by the U.S. Secretary of Commerce
on behalf of the United States of America. All rights reserved.
##$NIST MASS SPEC NO=307301
##MOLFORM=C8 H6 Br Cl2 N O
##MW=281
##$NIST SOURCE=MSDC
##XUNITS=M/Z
##YUNITS=RELATIVE INTENSITY
##XFACTOR=1
##YFACTOR=1
##FIRSTX=26
##LASTX=288
##FIRSTY=40
##MAXX=288
##MINX=26
##MAXY=9999
##MINY=20
##NPOINTS=106
##PEAK TABLE=(XY..XY)
26,40 27,60 28,20 35,50
36,380 37,90 38,420 39,320
40,60 41,110 44,30 46,90
47,50 48,180 49,70 50,520
51,270 52,200 61,110 62,320
63,1411 64,1101 65,470 66,30
73,30 74,210 75,701 76,891
77,240 78,150 79,50 80,110
81,40 82,130 83,490 85,320
87,50 88,50 89,80 90,791
91,2472 92,510 93,40 102,180
103,100 104,200 106,70 107,671
108,70 111,40 112,30 117,260
119,460 120,40 122,50 132,1041
133,110 138,80 139,80 140,30
143,741 144,50 145,701 146,40
149,70 155,1271 156,100 157,1221
158,80 166,90 167,731 168,100
169,370 170,4614 171,1361 172,4694
173,1211 174,220 181,40 182,190
183,70 184,190 197,260 198,9929
199,1101 200,9999 201,811 202,50
205,210 206,30 210,30 212,40
218,110 220,130 222,30 233,30
247,70 249,70 281,4204 282,420
283,6906 284,691 285,3113 286,310
287,440 288,30
##END=
