##TITLE=Benzamide, N-(4-methoxyphenyl)-2,6-difluoro-
##JCAMP-DX=4.24
##DATA TYPE=MASS SPECTRUM
##ORIGIN=Zaikin V.G., TIPS RAS, Moscow, Russia
##OWNER=NIST Mass Spectrometry Data Center
Collection (C) 2014 copyright by the U.S. Secretary of Commerce
on behalf of the United States of America. All rights reserved.
##$NIST MASS SPEC NO=307430
##MOLFORM=C14 H11 F2 N O2
##MW=263
##$NIST SOURCE=MSDC
##XUNITS=M/Z
##YUNITS=RELATIVE INTENSITY
##XFACTOR=1
##YFACTOR=1
##FIRSTX=28
##LASTX=265
##FIRSTY=10
##MAXX=265
##MINX=28
##MAXY=9999
##MINY=10
##NPOINTS=41
##PEAK TABLE=(XY..XY)
28,10 39,40 41,90 50,30
51,50 52,160 53,90 62,30
63,300 64,70 65,70 67,30
77,30 78,50 79,80 80,90
81,40 92,30 93,50 94,30
95,340 106,40 107,70 108,40
109,80 112,50 113,921 114,120
122,1251 123,160 124,681 125,50
134,30 140,70 141,9999 142,651
143,40 262,30 263,6085 264,871
265,80
##END=
