##TITLE=1-Cyclohexyldimethylsilyloxy-4-methoxybenzene
##JCAMP-DX=4.24
##DATA TYPE=MASS SPECTRUM
##ORIGIN=Zaikin V.G., TIPS RAS, Moscow, Russia
##OWNER=NIST Mass Spectrometry Data Center
Collection (C) 2014 copyright by the U.S. Secretary of Commerce
on behalf of the United States of America. All rights reserved.
##$NIST MASS SPEC NO=307883
##MOLFORM=C15 H24 O2 Si
##MW=264
##$NIST SOURCE=MSDC
##XUNITS=M/Z
##YUNITS=RELATIVE INTENSITY
##XFACTOR=1
##YFACTOR=1
##FIRSTX=59
##LASTX=267
##FIRSTY=240
##MAXX=267
##MINX=59
##MAXY=9999
##MINY=30
##NPOINTS=39
##PEAK TABLE=(XY..XY)
59,240 75,130 77,50 81,70
89,80 91,80 92,30 95,40
107,30 108,100 109,40 110,30
121,130 123,100 135,80 137,130
138,80 139,40 141,40 149,70
150,60 151,210 152,30 153,60
165,80 166,150 167,851 168,120
169,30 179,30 181,9999 182,3423
183,761 184,120 249,130 264,6686
265,1561 266,420 267,50
##END=
