##TITLE=4-Bromobutyric acid, 4-cyanophenyl ester
##JCAMP-DX=4.24
##DATA TYPE=MASS SPECTRUM
##ORIGIN=Zaikin V.G., TIPS RAS, Moscow, Russia
##OWNER=NIST Mass Spectrometry Data Center
Collection (C) 2014 copyright by the U.S. Secretary of Commerce
on behalf of the United States of America. All rights reserved.
##$NIST MASS SPEC NO=307610
##MOLFORM=C11 H10 Br N O2
##MW=267
##$NIST SOURCE=MSDC
##XUNITS=M/Z
##YUNITS=RELATIVE INTENSITY
##XFACTOR=1
##YFACTOR=1
##FIRSTX=27
##LASTX=269
##FIRSTY=70
##MAXX=269
##MINX=27
##MAXY=9999
##MINY=10
##NPOINTS=44
##PEAK TABLE=(XY..XY)
27,70 28,10 36,40 39,230
41,2132 42,350 51,50 52,30
55,470 63,150 64,180 68,150
69,220 75,80 76,40 79,50
80,50 82,40 90,320 91,130
93,50 95,50 102,400 107,60
109,50 116,50 117,70 118,60
119,1081 120,220 121,2142 122,50
123,2092 124,140 135,70 146,250
148,90 149,9909 150,550 151,9999
152,460 161,130 267,70 269,60
##END=
