##TITLE=4-Ethylbenzoic acid, 3,5-dimethylphenyl ester
##JCAMP-DX=4.24
##DATA TYPE=MASS SPECTRUM
##ORIGIN=Zaikin V.G., TIPS RAS, Moscow, Russia
##OWNER=NIST Mass Spectrometry Data Center
Collection (C) 2014 copyright by the U.S. Secretary of Commerce
on behalf of the United States of America. All rights reserved.
##$NIST MASS SPEC NO=307123
##MOLFORM=C17 H18 O2
##MW=254
##$NIST SOURCE=MSDC
##XUNITS=M/Z
##YUNITS=RELATIVE INTENSITY
##XFACTOR=1
##YFACTOR=1
##FIRSTX=27
##LASTX=255
##FIRSTY=80
##MAXX=255
##MINX=27
##MAXY=9999
##MINY=30
##NPOINTS=32
##PEAK TABLE=(XY..XY)
27,80 28,70 39,90 50,30
51,100 52,30 53,70 63,50
65,90 76,30 77,701 78,150
79,671 80,40 89,90 90,100
91,130 102,30 103,370 104,160
105,751 106,70 107,70 121,70
122,90 131,40 132,50 133,9999
134,941 135,60 254,791 255,140
##END=
