##TITLE=4-Bromobutyric acid, 2-naphthyl ester
##JCAMP-DX=4.24
##DATA TYPE=MASS SPECTRUM
##ORIGIN=Zaikin V.G., TIPS RAS, Moscow, Russia
##OWNER=NIST Mass Spectrometry Data Center
Collection (C) 2014 copyright by the U.S. Secretary of Commerce
on behalf of the United States of America. All rights reserved.
##$NIST MASS SPEC NO=307613
##MOLFORM=C14 H13 Br O2
##MW=292
##$NIST SOURCE=MSDC
##XUNITS=M/Z
##YUNITS=RELATIVE INTENSITY
##XFACTOR=1
##YFACTOR=1
##FIRSTX=28
##LASTX=295
##FIRSTY=10
##MAXX=295
##MINX=28
##MAXY=9999
##MINY=10
##NPOINTS=28
##PEAK TABLE=(XY..XY)
28,10 36,40 39,30 41,280
77,30 79,30 80,40 82,40
89,50 91,80 115,781 116,210
121,100 123,100 127,140 135,90
143,30 144,9999 145,1181 146,70
149,160 151,150 152,30 200,30
292,350 293,30 294,340 295,30
##END=
