##TITLE=Propanamide, N-(2,5-dimethoxyphenyl)-2-methyl-
##JCAMP-DX=4.24
##DATA TYPE=MASS SPECTRUM
##ORIGIN=Zaikin V.G., TIPS RAS, Moscow, Russia
##OWNER=NIST Mass Spectrometry Data Center
Collection (C) 2014 copyright by the U.S. Secretary of Commerce
on behalf of the United States of America. All rights reserved.
##$NIST MASS SPEC NO=307324
##MOLFORM=C12 H17 N O3
##MW=223
##$NIST SOURCE=MSDC
##XUNITS=M/Z
##YUNITS=RELATIVE INTENSITY
##XFACTOR=1
##YFACTOR=1
##FIRSTX=27
##LASTX=225
##FIRSTY=180
##MAXX=225
##MINX=27
##MAXY=9999
##MINY=30
##NPOINTS=71
##PEAK TABLE=(XY..XY)
27,180 28,40 39,160 40,30
41,420 42,60 43,1802 44,50
51,100 52,180 53,80 54,40
55,90 63,40 65,110 66,50
67,90 68,120 69,100 70,40
71,290 77,80 78,60 79,240
80,100 81,40 82,50 90,40
92,120 93,130 94,60 95,290
96,30 106,60 107,180 108,100
109,140 110,430 111,70 121,30
122,210 123,170 124,120 125,150
135,40 136,100 137,30 138,9999
139,901 140,70 150,300 151,90
152,140 153,6886 154,731 155,60
162,30 164,290 165,691 166,90
176,30 177,30 179,110 180,230
192,250 193,90 194,30 208,210
223,7617 224,1051 225,110
##END=
