##TITLE=Cyclopentanecarboxamide, N-(3-chlorophenyl)-
##JCAMP-DX=4.24
##DATA TYPE=MASS SPECTRUM
##ORIGIN=Zaikin V.G., TIPS RAS, Moscow, Russia
##OWNER=NIST Mass Spectrometry Data Center
Collection (C) 2014 copyright by the U.S. Secretary of Commerce
on behalf of the United States of America. All rights reserved.
##$NIST MASS SPEC NO=307026
##MOLFORM=C12 H14 Cl N O
##MW=223
##$NIST SOURCE=MSDC
##XUNITS=M/Z
##YUNITS=RELATIVE INTENSITY
##XFACTOR=1
##YFACTOR=1
##FIRSTX=26
##LASTX=226
##FIRSTY=40
##MAXX=226
##MINX=26
##MAXY=9999
##MINY=10
##NPOINTS=69
##PEAK TABLE=(XY..XY)
26,40 27,190 28,10 29,30
36,70 38,60 39,470 40,140
41,2122 42,110 43,30 50,60
51,70 52,40 53,110 54,30
55,430 62,50 63,200 64,150
65,320 66,80 67,450 68,290
69,8057 70,440 73,120 74,30
75,230 76,50 77,40 89,30
90,130 91,170 92,250 93,120
95,60 96,681 97,1391 98,90
99,280 100,130 101,100 102,50
111,370 112,30 113,110 125,70
126,200 127,9999 128,781 129,2873
130,280 131,40 138,30 140,40
153,150 154,160 155,50 156,50
166,50 182,300 183,30 184,90
222,50 223,2212 224,340 225,711
226,100
##END=
