##TITLE=1-Naphthalenecarboxamide, N-(3-chlorophenyl)-
##JCAMP-DX=4.24
##DATA TYPE=MASS SPECTRUM
##ORIGIN=Zaikin V.G., TIPS RAS, Moscow, Russia
##OWNER=NIST Mass Spectrometry Data Center
Collection (C) 2014 copyright by the U.S. Secretary of Commerce
on behalf of the United States of America. All rights reserved.
##$NIST MASS SPEC NO=307406
##MOLFORM=C17 H12 Cl N O
##MW=281
##$NIST SOURCE=MSDC
##XUNITS=M/Z
##YUNITS=RELATIVE INTENSITY
##XFACTOR=1
##YFACTOR=1
##FIRSTX=28
##LASTX=284
##FIRSTY=10
##MAXX=284
##MINX=28
##MAXY=9999
##MINY=10
##NPOINTS=43
##PEAK TABLE=(XY..XY)
28,10 39,40 50,50 51,100
62,30 63,110 64,50 65,40
74,70 75,190 76,80 77,380
78,30 87,30 91,40 99,100
100,50 101,290 102,40 111,30
114,30 115,30 123,280 124,40
125,40 126,621 127,4834 128,631
129,70 139,80 141,70 153,40
154,40 155,9999 156,1131 157,80
216,30 217,60 280,30 281,1702
282,340 283,571 284,100
##END=
