##TITLE=Benzamide, N-(2-iodo-4-methylphenyl)-2-methoxy-
##JCAMP-DX=4.24
##DATA TYPE=MASS SPECTRUM
##ORIGIN=Zaikin V.G., TIPS RAS, Moscow, Russia
##OWNER=NIST Mass Spectrometry Data Center
Collection (C) 2014 copyright by the U.S. Secretary of Commerce
on behalf of the United States of America. All rights reserved.
##$NIST MASS SPEC NO=307064
##MOLFORM=C15 H14 I N O2
##MW=367
##$NIST SOURCE=MSDC
##XUNITS=M/Z
##YUNITS=RELATIVE INTENSITY
##XFACTOR=1
##YFACTOR=1
##FIRSTX=28
##LASTX=369
##FIRSTY=30
##MAXX=369
##MINX=28
##MAXY=9999
##MINY=30
##NPOINTS=33
##PEAK TABLE=(XY..XY)
28,30 39,50 50,50 51,120
52,50 63,80 64,100 65,50
76,80 77,1011 78,180 79,110
90,30 92,440 93,50 104,170
105,210 106,60 120,110 121,70
127,50 128,90 135,9999 136,731
137,60 225,40 232,70 233,170
240,60 241,60 367,3693 368,571
369,60
##END=
