##TITLE=Benzamide, N-(3-methylphenyl)-3-methyl-
##JCAMP-DX=4.24
##DATA TYPE=MASS SPECTRUM
##ORIGIN=Zaikin V.G., TIPS RAS, Moscow, Russia
##OWNER=NIST Mass Spectrometry Data Center
Collection (C) 2014 copyright by the U.S. Secretary of Commerce
on behalf of the United States of America. All rights reserved.
##$NIST MASS SPEC NO=307113
##MOLFORM=C15 H15 N O
##MW=225
##$NIST SOURCE=MSDC
##XUNITS=M/Z
##YUNITS=RELATIVE INTENSITY
##XFACTOR=1
##YFACTOR=1
##FIRSTX=28
##LASTX=227
##FIRSTY=10
##MAXX=227
##MINX=28
##MAXY=9999
##MINY=10
##NPOINTS=33
##PEAK TABLE=(XY..XY)
28,10 39,120 41,50 50,30
51,80 52,30 63,100 64,40
65,631 66,40 77,190 78,80
79,90 89,170 90,160 91,2793
92,230 104,20 105,60 106,160
107,210 108,30 111,40 118,40
119,9999 120,721 121,40 132,40
180,40 224,30 225,4134 226,651
227,60
##END=
