##TITLE=Acetamide, N-(3-nitrophenyl)-2,2,2-trifluoro-
##JCAMP-DX=4.24
##DATA TYPE=MASS SPECTRUM
##ORIGIN=Zaikin V.G., TIPS RAS, Moscow, Russia
##OWNER=NIST Mass Spectrometry Data Center
Collection (C) 2014 copyright by the U.S. Secretary of Commerce
on behalf of the United States of America. All rights reserved.
##$NIST MASS SPEC NO=307314
##MOLFORM=C8 H5 F3 N2 O3
##MW=234
##$NIST SOURCE=MSDC
##XUNITS=M/Z
##YUNITS=RELATIVE INTENSITY
##XFACTOR=1
##YFACTOR=1
##FIRSTX=27
##LASTX=236
##FIRSTY=60
##MAXX=236
##MINX=27
##MAXY=9999
##MINY=20
##NPOINTS=82
##PEAK TABLE=(XY..XY)
27,60 28,20 30,60 37,30
38,110 39,250 40,30 41,50
50,280 51,430 52,350 53,90
54,50 61,30 62,140 63,561
64,591 65,490 66,40 69,781
74,100 75,330 76,530 77,540
78,440 79,230 81,90 83,50
88,30 89,260 90,581 91,1291
92,330 93,150 95,220 96,100
97,30 102,1041 103,110 104,310
105,300 106,100 107,80 110,140
113,80 116,30 117,50 118,180
119,290 120,120 122,230 127,60
128,170 132,30 133,340 134,60
135,40 137,841 138,120 139,90
140,450 141,190 148,70 160,140
164,40 165,3183 166,260 167,40
168,1111 169,130 176,210 187,510
188,1381 189,150 195,30 204,80
217,621 218,140 232,50 234,9999
235,961 236,90
##END=
