##TITLE=Cyclopentanecarboxamide, N-(3-nitrophenyl)-
##JCAMP-DX=4.24
##DATA TYPE=MASS SPECTRUM
##ORIGIN=Zaikin V.G., TIPS RAS, Moscow, Russia
##OWNER=NIST Mass Spectrometry Data Center
Collection (C) 2014 copyright by the U.S. Secretary of Commerce
on behalf of the United States of America. All rights reserved.
##$NIST MASS SPEC NO=307030
##MOLFORM=C12 H14 N2 O3
##MW=234
##$NIST SOURCE=MSDC
##XUNITS=M/Z
##YUNITS=RELATIVE INTENSITY
##XFACTOR=1
##YFACTOR=1
##FIRSTX=26
##LASTX=235
##FIRSTY=30
##MAXX=235
##MINX=26
##MAXY=9999
##MINY=10
##NPOINTS=63
##PEAK TABLE=(XY..XY)
26,30 27,120 28,10 30,40
38,50 39,410 40,100 41,2062
42,100 43,30 44,30 50,100
51,80 52,90 53,120 54,50
55,470 62,30 63,210 64,260
65,470 66,110 67,500 68,300
69,9999 70,540 75,110 76,250
77,60 78,30 79,50 80,80
81,30 90,130 91,320 92,571
93,160 95,110 96,3373 97,4024
98,270 106,40 107,20 108,220
109,40 117,30 118,40 119,50
122,90 124,30 130,40 131,20
137,100 138,731 139,80 165,120
177,30 193,320 194,30 204,70
233,30 234,1251 235,200
##END=
