##TITLE=Benzamide, N-(4-bromophenyl)-3-fluoro-
##JCAMP-DX=4.24
##DATA TYPE=MASS SPECTRUM
##ORIGIN=Zaikin V.G., TIPS RAS, Moscow, Russia
##OWNER=NIST Mass Spectrometry Data Center
Collection (C) 2014 copyright by the U.S. Secretary of Commerce
on behalf of the United States of America. All rights reserved.
##$NIST MASS SPEC NO=307167
##MOLFORM=C13 H9 Br F N O
##MW=293
##$NIST SOURCE=MSDC
##XUNITS=M/Z
##YUNITS=RELATIVE INTENSITY
##XFACTOR=1
##YFACTOR=1
##FIRSTX=28
##LASTX=296
##FIRSTY=10
##MAXX=296
##MINX=28
##MAXY=9999
##MINY=10
##NPOINTS=41
##PEAK TABLE=(XY..XY)
28,10 38,30 39,60 50,80
51,50 62,40 63,180 64,130
65,100 69,60 74,50 75,520
76,90 90,80 91,280 92,70
93,30 94,110 95,2903 96,240
117,30 119,30 122,40 123,9999
124,681 125,30 143,100 145,100
157,30 170,50 171,140 172,90
173,130 174,30 184,30 185,60
213,100 293,2492 294,370 295,2472
296,350
##END=
