##TITLE=2,2-Dimethylpropionic acid, morpholide
##JCAMP-DX=4.24
##DATA TYPE=MASS SPECTRUM
##ORIGIN=Zaikin V.G., TIPS RAS, Moscow, Russia
##OWNER=NIST Mass Spectrometry Data Center
Collection (C) 2014 copyright by the U.S. Secretary of Commerce
on behalf of the United States of America. All rights reserved.
##$NIST MASS SPEC NO=307192
##MOLFORM=C9 H17 N O2
##MW=171
##$NIST SOURCE=MSDC
##XUNITS=M/Z
##YUNITS=RELATIVE INTENSITY
##XFACTOR=1
##YFACTOR=1
##FIRSTX=26
##LASTX=173
##FIRSTY=100
##MAXX=173
##MINX=26
##MAXY=9999
##MINY=30
##NPOINTS=52
##PEAK TABLE=(XY..XY)
26,100 27,550 28,561 29,1401
30,330 31,70 36,120 38,90
39,631 40,190 41,2372 42,1401
43,300 44,340 45,260 53,70
54,140 55,490 56,1702 57,9999
58,520 59,60 65,80 68,40
69,510 70,3253 71,160 72,120
83,50 84,90 85,340 86,1722
87,581 88,240 92,70 98,30
99,60 100,180 112,40 114,5465
115,671 116,911 117,40 126,60
128,500 129,1111 130,60 156,540
157,40 171,1952 172,200 173,170
##END=
