##TITLE=Cyclohexanecarboxylic acid, 4-nitrophenyl ester
##JCAMP-DX=4.24
##DATA TYPE=MASS SPECTRUM
##ORIGIN=Zaikin V.G., TIPS RAS, Moscow, Russia
##OWNER=NIST Mass Spectrometry Data Center
Collection (C) 2014 copyright by the U.S. Secretary of Commerce
on behalf of the United States of America. All rights reserved.
##$NIST MASS SPEC NO=307708
##MOLFORM=C13 H15 N O4
##MW=249
##$NIST SOURCE=MSDC
##XUNITS=M/Z
##YUNITS=RELATIVE INTENSITY
##XFACTOR=1
##YFACTOR=1
##FIRSTX=26
##LASTX=140
##FIRSTY=50
##MAXX=140
##MINX=26
##MAXY=9999
##MINY=30
##NPOINTS=49
##PEAK TABLE=(XY..XY)
26,50 27,320 28,120 29,310
30,200 36,50 38,60 39,561
40,70 41,1581 42,80 43,120
44,30 50,90 51,70 52,60
53,270 54,370 55,4034 56,180
62,30 63,200 64,160 65,230
66,40 67,771 68,90 69,30
75,60 76,70 77,70 79,160
80,60 81,460 82,180 83,9999
84,641 91,30 92,40 93,80
108,30 109,550 110,100 111,3443
112,260 123,90 124,70 139,110
140,60
##END=
