##TITLE=4-Benzyloxy-1-dimethyldodecylsilyloxybenzene
##JCAMP-DX=4.24
##DATA TYPE=MASS SPECTRUM
##ORIGIN=Zaikin V.G., TIPS RAS, Moscow, Russia
##OWNER=NIST Mass Spectrometry Data Center
Collection (C) 2014 copyright by the U.S. Secretary of Commerce
on behalf of the United States of America. All rights reserved.
##$NIST MASS SPEC NO=307903
##MOLFORM=C27 H42 O2 Si
##MW=426
##$NIST SOURCE=MSDC
##XUNITS=M/Z
##YUNITS=RELATIVE INTENSITY
##XFACTOR=1
##YFACTOR=1
##FIRSTX=43
##LASTX=429
##FIRSTY=30
##MAXX=429
##MINX=43
##MAXY=9999
##MINY=20
##NPOINTS=59
##PEAK TABLE=(XY..XY)
43,30 55,40 57,110 59,2222
60,80 65,20 69,50 71,40
73,611 75,80 83,110 85,80
87,591 91,5325 92,370 97,120
99,681 100,20 101,280 110,60
111,200 113,170 115,190 123,70
125,50 127,420 129,170 135,70
138,170 141,50 143,160 151,100
153,50 157,150 165,50 166,230
167,5155 168,691 169,240 171,30
191,30 221,50 225,200 227,6296
228,1271 229,330 243,40 257,851
258,130 334,100 335,5285 336,1571
337,420 338,30 411,100 426,9999
427,3513 428,941 429,140
##END=
