##TITLE=1-Adamantanecarboxamide, N-(2-iodo-4-methylphenyl)-
##JCAMP-DX=4.24
##DATA TYPE=MASS SPECTRUM
##ORIGIN=Zaikin V.G., TIPS RAS, Moscow, Russia
##OWNER=NIST Mass Spectrometry Data Center
Collection (C) 2014 copyright by the U.S. Secretary of Commerce
on behalf of the United States of America. All rights reserved.
##$NIST MASS SPEC NO=307472
##MOLFORM=C18 H22 I N O
##MW=395
##$NIST SOURCE=MSDC
##XUNITS=M/Z
##YUNITS=RELATIVE INTENSITY
##XFACTOR=1
##YFACTOR=1
##FIRSTX=27
##LASTX=397
##FIRSTY=30
##MAXX=397
##MINX=27
##MAXY=9999
##MINY=10
##NPOINTS=54
##PEAK TABLE=(XY..XY)
27,30 28,10 29,30 39,80
41,200 43,30 51,70 52,50
53,90 55,190 57,30 63,30
65,80 66,30 67,330 69,80
77,410 78,200 79,931 80,80
81,260 89,60 90,100 91,340
92,90 93,801 94,70 103,30
104,230 105,310 106,120 107,430
108,40 119,30 127,30 128,50
133,40 135,9999 136,1051 137,50
163,110 183,40 232,150 233,190
234,30 259,70 268,120 269,60
310,230 311,30 367,100 395,3733
396,741 397,70
##END=
