##TITLE=3,4-Dichloro-1-dimethyldodecylsilyloxybenzene
##JCAMP-DX=4.24
##DATA TYPE=MASS SPECTRUM
##ORIGIN=Zaikin V.G., TIPS RAS, Moscow, Russia
##OWNER=NIST Mass Spectrometry Data Center
Collection (C) 2014 copyright by the U.S. Secretary of Commerce
on behalf of the United States of America. All rights reserved.
##$NIST MASS SPEC NO=307901
##MOLFORM=C20 H34 Cl2 O Si
##MW=388
##$NIST SOURCE=MSDC
##XUNITS=M/Z
##YUNITS=RELATIVE INTENSITY
##XFACTOR=1
##YFACTOR=1
##FIRSTX=28
##LASTX=394
##FIRSTY=10
##MAXX=394
##MINX=28
##MAXY=9999
##MINY=10
##NPOINTS=73
##PEAK TABLE=(XY..XY)
28,10 36,40 43,50 57,100
59,300 71,50 73,70 75,40
79,30 85,40 87,50 91,50
93,260 95,90 97,50 99,300
111,70 113,400 115,90 125,30
127,250 141,120 149,40 155,40
169,100 170,30 171,40 176,190
177,30 183,60 184,100 185,400
186,90 187,120 189,40 191,70
205,1161 206,140 207,841 208,120
209,140 211,821 212,140 219,9999
220,1712 221,6886 222,1161 223,1301
224,210 225,40 227,260 228,30
231,40 233,80 235,30 245,150
247,170 249,50 261,50 273,50
275,50 373,621 374,140 375,430
376,90 377,70 388,7767 389,2082
390,5455 391,1391 392,1091 393,250
394,40
##END=
