##TITLE=4-Chloro-1-tributylsilyloxybenzene
##JCAMP-DX=4.24
##DATA TYPE=MASS SPECTRUM
##ORIGIN=Zaikin V.G., TIPS RAS, Moscow, Russia
##OWNER=NIST Mass Spectrometry Data Center
Collection (C) 2014 copyright by the U.S. Secretary of Commerce
on behalf of the United States of America. All rights reserved.
##$NIST MASS SPEC NO=307832
##MOLFORM=C18 H31 Cl O Si
##MW=326
##$NIST SOURCE=MSDC
##XUNITS=M/Z
##YUNITS=RELATIVE INTENSITY
##XFACTOR=1
##YFACTOR=1
##FIRSTX=45
##LASTX=330
##FIRSTY=30
##MAXX=330
##MINX=45
##MAXY=9999
##MINY=30
##NPOINTS=56
##PEAK TABLE=(XY..XY)
45,30 55,70 57,30 59,140
63,40 77,170 78,30 83,40
85,290 86,30 87,50 93,70
101,50 111,120 112,30 113,150
115,40 121,180 122,30 135,50
143,110 149,150 155,811 156,100
157,1982 158,220 159,611 160,50
169,40 171,2332 172,290 173,851
174,90 183,220 184,60 185,601
186,90 187,180 199,110 211,550
212,110 213,9999 214,1651 215,3593
216,561 217,130 269,8528 270,1822
271,3273 272,621 273,140 326,3833
327,941 328,1481 329,340 330,70
##END=
