##TITLE=2-Bromobenzoic acid, 3-methylphenyl ester
##JCAMP-DX=4.24
##DATA TYPE=MASS SPECTRUM
##ORIGIN=Zaikin V.G., TIPS RAS, Moscow, Russia
##OWNER=NIST Mass Spectrometry Data Center
Collection (C) 2014 copyright by the U.S. Secretary of Commerce
on behalf of the United States of America. All rights reserved.
##$NIST MASS SPEC NO=307742
##MOLFORM=C14 H11 Br O2
##MW=290
##$NIST SOURCE=MSDC
##XUNITS=M/Z
##YUNITS=RELATIVE INTENSITY
##XFACTOR=1
##YFACTOR=1
##FIRSTX=27
##LASTX=293
##FIRSTY=40
##MAXX=293
##MINX=27
##MAXY=9999
##MINY=30
##NPOINTS=42
##PEAK TABLE=(XY..XY)
27,40 28,50 39,140 50,320
51,150 52,70 53,80 63,70
64,30 65,120 74,100 75,641
76,911 77,480 78,170 79,180
89,30 91,80 104,260 105,40
107,200 108,130 139,50 152,40
153,40 155,1521 156,130 157,1461
158,110 168,70 181,50 182,30
183,9999 184,751 185,9589 186,731
187,40 210,30 290,631 291,100
292,601 293,90
##END=
