##TITLE=Acetamide, N-(2-iodo-4-methylphenyl)-2-bromo-
##JCAMP-DX=4.24
##DATA TYPE=MASS SPECTRUM
##ORIGIN=Zaikin V.G., TIPS RAS, Moscow, Russia
##OWNER=NIST Mass Spectrometry Data Center
Collection (C) 2014 copyright by the U.S. Secretary of Commerce
on behalf of the United States of America. All rights reserved.
##$NIST MASS SPEC NO=307423
##MOLFORM=C9 H9 Br I N O
##MW=353
##$NIST SOURCE=MSDC
##XUNITS=M/Z
##YUNITS=RELATIVE INTENSITY
##XFACTOR=1
##YFACTOR=1
##FIRSTX=26
##LASTX=357
##FIRSTY=90
##MAXX=357
##MINX=26
##MAXY=9999
##MINY=20
##NPOINTS=112
##PEAK TABLE=(XY..XY)
26,90 27,230 28,20 30,60
36,170 37,60 38,220 39,651
40,100 41,150 42,350 43,250
44,160 49,40 50,701 51,1581
52,1161 53,240 54,130 55,40
61,70 62,260 63,731 64,300
65,400 66,100 67,30 73,30
74,210 75,280 76,550 77,2522
78,2182 79,1361 80,450 81,150
82,300 86,40 87,50 88,60
89,641 90,661 91,390 92,220
93,430 94,40 95,340 102,140
103,220 104,3243 105,2622 106,2903
107,360 108,80 115,70 116,60
117,230 118,450 119,851 120,140
121,480 122,50 123,490 126,30
127,571 128,480 129,130 130,80
132,180 133,470 134,60 138,320
139,30 143,90 144,30 146,460
147,1782 148,210 149,40 165,30
171,30 173,30 195,90 204,40
216,40 217,130 226,110 227,30
228,130 229,40 230,160 231,90
232,2592 233,9999 234,1892 235,100
245,50 246,190 256,80 257,60
258,90 259,250 260,2232 261,190
273,110 274,1021 275,350 353,6696
354,691 355,6626 356,681 357,30
##END=
