##TITLE=4-Ethylbenzoic acid, 4-nitrophenyl ester
##JCAMP-DX=4.24
##DATA TYPE=MASS SPECTRUM
##ORIGIN=Zaikin V.G., TIPS RAS, Moscow, Russia
##OWNER=NIST Mass Spectrometry Data Center
Collection (C) 2014 copyright by the U.S. Secretary of Commerce
on behalf of the United States of America. All rights reserved.
##$NIST MASS SPEC NO=307127
##MOLFORM=C15 H13 N O4
##MW=271
##$NIST SOURCE=MSDC
##XUNITS=M/Z
##YUNITS=RELATIVE INTENSITY
##XFACTOR=1
##YFACTOR=1
##FIRSTX=27
##LASTX=241
##FIRSTY=70
##MAXX=241
##MINX=27
##MAXY=9999
##MINY=20
##NPOINTS=30
##PEAK TABLE=(XY..XY)
27,70 28,20 30,70 39,60
50,40 51,80 53,30 63,90
64,50 65,60 76,40 77,540
78,110 79,621 80,40 89,110
90,130 91,30 102,30 103,400
104,160 105,921 106,80 118,20
131,30 132,40 133,9999 134,911
135,60 241,30
##END=
