##TITLE=Cyclopropanecarboxamide, N-(1-naphthyl)-
##JCAMP-DX=4.24
##DATA TYPE=MASS SPECTRUM
##ORIGIN=Zaikin V.G., TIPS RAS, Moscow, Russia
##OWNER=NIST Mass Spectrometry Data Center
Collection (C) 2014 copyright by the U.S. Secretary of Commerce
on behalf of the United States of America. All rights reserved.
##$NIST MASS SPEC NO=307191
##MOLFORM=C14 H13 N O
##MW=211
##$NIST SOURCE=MSDC
##XUNITS=M/Z
##YUNITS=RELATIVE INTENSITY
##XFACTOR=1
##YFACTOR=1
##FIRSTX=27
##LASTX=212
##FIRSTY=30
##MAXX=212
##MINX=27
##MAXY=9999
##MINY=30
##NPOINTS=44
##PEAK TABLE=(XY..XY)
27,30 28,100 39,260 40,40
41,871 42,30 50,30 51,40
62,30 63,100 65,60 68,30
69,1501 70,60 71,30 75,50
76,30 77,70 87,30 88,50
89,160 90,30 101,40 113,90
114,160 115,1451 116,350 117,50
126,80 127,190 128,80 129,50
140,200 141,120 142,170 143,9999
144,1051 145,60 154,40 156,60
169,60 170,30 211,2302 212,350
##END=
