##TITLE=Benzamide, N-(4-methoxyphenyl)-4-bromo-
##JCAMP-DX=4.24
##DATA TYPE=MASS SPECTRUM
##ORIGIN=Zaikin V.G., TIPS RAS, Moscow, Russia
##OWNER=NIST Mass Spectrometry Data Center
Collection (C) 2014 copyright by the U.S. Secretary of Commerce
on behalf of the United States of America. All rights reserved.
##$NIST MASS SPEC NO=307343
##MOLFORM=C14 H12 Br N O2
##MW=305
##$NIST SOURCE=MSDC
##XUNITS=M/Z
##YUNITS=RELATIVE INTENSITY
##XFACTOR=1
##YFACTOR=1
##FIRSTX=26
##LASTX=309
##FIRSTY=30
##MAXX=309
##MINX=26
##MAXY=9999
##MINY=10
##NPOINTS=60
##PEAK TABLE=(XY..XY)
26,30 28,10 38,30 39,70
41,160 50,290 51,160 52,260
53,170 63,90 64,80 65,120
67,50 74,120 75,621 76,1051
77,220 78,100 79,130 80,220
81,50 82,50 91,40 92,40
95,490 96,30 103,50 104,781
105,130 106,80 107,90 108,150
109,110 122,801 123,200 124,611
125,50 134,60 149,30 154,80
155,2082 156,200 157,2052 158,150
167,70 182,50 183,9999 184,791
185,9869 186,751 187,40 225,30
226,70 227,40 277,30 305,6246
306,1061 307,6266 308,981 309,100
##END=
