##TITLE=Cyclopentanecarboxylic acid, 3,4-dichlorophenyl ester
##JCAMP-DX=4.24
##DATA TYPE=MASS SPECTRUM
##ORIGIN=Zaikin V.G., TIPS RAS, Moscow, Russia
##OWNER=NIST Mass Spectrometry Data Center
Collection (C) 2014 copyright by the U.S. Secretary of Commerce
on behalf of the United States of America. All rights reserved.
##$NIST MASS SPEC NO=307579
##MOLFORM=C12 H12 Cl2 O2
##MW=258
##$NIST SOURCE=MSDC
##XUNITS=M/Z
##YUNITS=RELATIVE INTENSITY
##XFACTOR=1
##YFACTOR=1
##FIRSTX=27
##LASTX=262
##FIRSTY=130
##MAXX=262
##MINX=27
##MAXY=9999
##MINY=10
##NPOINTS=47
##PEAK TABLE=(XY..XY)
27,130 28,10 36,30 39,290
40,90 41,1491 42,70 53,70
55,460 62,40 63,200 65,50
66,30 67,410 68,210 69,9999
70,530 73,110 74,30 75,50
95,30 96,360 97,5215 98,340
99,180 101,50 107,30 109,90
111,30 126,40 133,210 134,40
135,140 145,80 147,50 161,60
162,1401 163,140 164,911 165,70
166,140 217,40 258,380 259,60
260,240 261,30 262,40
##END=
