##TITLE=Acetamide, N-(4-bromophenyl)-2-phenylthio-
##JCAMP-DX=4.24
##DATA TYPE=MASS SPECTRUM
##ORIGIN=Zaikin V.G., TIPS RAS, Moscow, Russia
##OWNER=NIST Mass Spectrometry Data Center
Collection (C) 2014 copyright by the U.S. Secretary of Commerce
on behalf of the United States of America. All rights reserved.
##$NIST MASS SPEC NO=307209
##MOLFORM=C14 H12 Br N O S
##MW=321
##$NIST SOURCE=MSDC
##XUNITS=M/Z
##YUNITS=RELATIVE INTENSITY
##XFACTOR=1
##YFACTOR=1
##FIRSTX=26
##LASTX=326
##FIRSTY=70
##MAXX=326
##MINX=26
##MAXY=9999
##MINY=20
##NPOINTS=132
##PEAK TABLE=(XY..XY)
26,70 27,70 28,20 36,50
37,40 38,140 39,490 40,40
41,90 42,110 43,100 44,80
45,2803 46,130 47,160 50,340
51,811 52,180 53,30 55,30
57,80 58,50 61,40 62,120
63,701 64,500 65,1091 66,290
69,290 71,110 74,110 75,260
76,360 77,1531 78,981 79,661
80,160 81,50 82,130 83,40
84,100 85,30 89,100 90,470
91,2352 92,671 93,701 94,120
95,50 97,70 102,30 104,420
105,1531 106,130 107,40 108,280
109,1121 110,721 111,120 112,30
117,100 119,100 120,40 121,1041
122,831 123,7517 124,3994 125,611
126,180 127,30 132,90 133,751
134,90 136,50 143,450 144,30
145,420 146,30 149,30 150,1471
151,170 152,80 155,290 156,30
157,290 158,30 161,90 162,90
165,20 167,50 169,120 170,661
171,8828 172,1321 173,8748 174,621
182,110 183,80 184,1001 185,140
186,861 187,60 196,30 197,240
198,220 199,250 200,220 201,40
202,270 203,30 204,260 210,40
211,100 212,60 213,110 227,30
228,40 229,40 230,40 243,50
247,510 248,60 249,510 250,60
277,30 279,30 321,9679 322,1661
323,9999 324,1672 325,571 326,70
##END=
