##TITLE=Benzamide, N-(3-chlorophenyl)-4-trifluoromethyl-
##JCAMP-DX=4.24
##DATA TYPE=MASS SPECTRUM
##ORIGIN=Zaikin V.G., TIPS RAS, Moscow, Russia
##OWNER=NIST Mass Spectrometry Data Center
Collection (C) 2014 copyright by the U.S. Secretary of Commerce
on behalf of the United States of America. All rights reserved.
##$NIST MASS SPEC NO=307248
##MOLFORM=C14 H9 Cl F3 N O
##MW=299
##$NIST SOURCE=MSDC
##XUNITS=M/Z
##YUNITS=RELATIVE INTENSITY
##XFACTOR=1
##YFACTOR=1
##FIRSTX=28
##LASTX=302
##FIRSTY=10
##MAXX=302
##MINX=28
##MAXY=9999
##MINY=10
##NPOINTS=37
##PEAK TABLE=(XY..XY)
28,10 39,30 50,70 51,40
63,90 64,50 65,40 73,40
74,30 75,180 76,50 90,40
91,50 95,330 99,170 100,30
101,50 111,30 119,30 125,230
126,200 127,180 128,30 129,50
144,60 145,4014 146,330 154,40
173,9999 174,811 175,40 280,220
282,70 299,2682 300,430 301,901
302,140
##END=
