##TITLE=4-Ethylbenzoic acid, 4-methoxyphenyl ester
##JCAMP-DX=4.24
##DATA TYPE=MASS SPECTRUM
##ORIGIN=Zaikin V.G., TIPS RAS, Moscow, Russia
##OWNER=NIST Mass Spectrometry Data Center
Collection (C) 2014 copyright by the U.S. Secretary of Commerce
on behalf of the United States of America. All rights reserved.
##$NIST MASS SPEC NO=307124
##MOLFORM=C16 H16 O3
##MW=256
##$NIST SOURCE=MSDC
##XUNITS=M/Z
##YUNITS=RELATIVE INTENSITY
##XFACTOR=1
##YFACTOR=1
##FIRSTX=27
##LASTX=257
##FIRSTY=70
##MAXX=257
##MINX=27
##MAXY=9999
##MINY=20
##NPOINTS=35
##PEAK TABLE=(XY..XY)
27,70 28,60 39,70 41,60
50,30 51,70 52,40 53,40
63,50 64,30 65,60 76,30
77,470 78,90 79,550 80,50
89,80 90,100 91,30 95,70
102,20 103,350 104,150 105,851
106,80 109,60 123,110 124,70
131,30 132,50 133,9999 134,951
135,60 256,921 257,160
##END=
