##TITLE=Propanamide, N-(1-naphthyl)-2-bromo-
##JCAMP-DX=4.24
##DATA TYPE=MASS SPECTRUM
##ORIGIN=Zaikin V.G., TIPS RAS, Moscow, Russia
##OWNER=NIST Mass Spectrometry Data Center
Collection (C) 2014 copyright by the U.S. Secretary of Commerce
on behalf of the United States of America. All rights reserved.
##$NIST MASS SPEC NO=307480
##MOLFORM=C13 H12 Br N O
##MW=277
##$NIST SOURCE=MSDC
##XUNITS=M/Z
##YUNITS=RELATIVE INTENSITY
##XFACTOR=1
##YFACTOR=1
##FIRSTX=26
##LASTX=280
##FIRSTY=70
##MAXX=280
##MINX=26
##MAXY=9999
##MINY=30
##NPOINTS=76
##PEAK TABLE=(XY..XY)
26,70 27,370 29,40 39,140
42,50 50,90 51,120 52,40
55,240 56,90 57,50 58,80
62,120 63,350 64,80 65,180
71,150 74,100 75,150 76,120
77,170 79,40 80,90 81,50
82,90 86,50 87,110 88,200
89,490 90,70 100,30 101,110
102,50 107,350 109,340 113,330
114,601 115,5015 116,801 117,70
126,230 127,711 128,240 129,80
135,50 137,40 139,50 140,671
141,340 142,1521 143,9999 144,2432
145,200 152,60 153,250 154,350
155,450 156,60 166,50 167,70
168,130 169,430 170,791 171,110
180,50 181,30 182,190 183,60
196,50 197,350 198,611 199,170
277,2873 278,410 279,2853 280,390
##END=
