##TITLE=o-Anisic acid, 4-benzyloxyphenyl ester
##JCAMP-DX=4.24
##DATA TYPE=MASS SPECTRUM
##ORIGIN=Zaikin V.G., TIPS RAS, Moscow, Russia
##OWNER=NIST Mass Spectrometry Data Center
Collection (C) 2014 copyright by the U.S. Secretary of Commerce
on behalf of the United States of America. All rights reserved.
##$NIST MASS SPEC NO=307797
##MOLFORM=C21 H18 O4
##MW=334
##$NIST SOURCE=MSDC
##XUNITS=M/Z
##YUNITS=RELATIVE INTENSITY
##XFACTOR=1
##YFACTOR=1
##FIRSTX=28
##LASTX=335
##FIRSTY=10
##MAXX=335
##MINX=28
##MAXY=9999
##MINY=10
##NPOINTS=17
##PEAK TABLE=(XY..XY)
28,10 51,30 64,40 65,100
77,721 78,40 79,60 91,801
92,330 105,50 119,190 120,90
135,9999 136,891 137,60 334,390
335,80
##END=
