##TITLE=5-Chlorovaleric acid, 3,5-dimethylphenyl ester
##JCAMP-DX=4.24
##DATA TYPE=MASS SPECTRUM
##ORIGIN=Zaikin V.G., TIPS RAS, Moscow, Russia
##OWNER=NIST Mass Spectrometry Data Center
Collection (C) 2014 copyright by the U.S. Secretary of Commerce
on behalf of the United States of America. All rights reserved.
##$NIST MASS SPEC NO=307976
##MOLFORM=C13 H17 Cl O2
##MW=240
##$NIST SOURCE=MSDC
##XUNITS=M/Z
##YUNITS=RELATIVE INTENSITY
##XFACTOR=1
##YFACTOR=1
##FIRSTX=27
##LASTX=242
##FIRSTY=250
##MAXX=242
##MINX=27
##MAXY=9999
##MINY=20
##NPOINTS=43
##PEAK TABLE=(XY..XY)
27,250 28,100 29,270 36,40
39,240 40,30 41,180 42,30
43,20 49,30 50,30 51,110
52,70 53,230 55,1641 56,70
62,20 63,140 65,180 67,30
75,30 77,781 78,180 79,310
83,30 89,30 91,1131 92,80
93,310 94,60 103,100 104,50
105,160 107,1241 108,140 119,340
120,40 121,601 122,9999 123,971
124,60 240,200 242,60
##END=
