##TITLE=4-Chlorobenzoic acid, 3-methylphenyl ester
##JCAMP-DX=4.24
##DATA TYPE=MASS SPECTRUM
##ORIGIN=Zaikin V.G., TIPS RAS, Moscow, Russia
##OWNER=NIST Mass Spectrometry Data Center
Collection (C) 2014 copyright by the U.S. Secretary of Commerce
on behalf of the United States of America. All rights reserved.
##$NIST MASS SPEC NO=307756
##MOLFORM=C14 H11 Cl O2
##MW=246
##$NIST SOURCE=MSDC
##XUNITS=M/Z
##YUNITS=RELATIVE INTENSITY
##XFACTOR=1
##YFACTOR=1
##FIRSTX=39
##LASTX=249
##FIRSTY=30
##MAXX=249
##MINX=39
##MAXY=9999
##MINY=30
##NPOINTS=23
##PEAK TABLE=(XY..XY)
39,30 50,40 51,50 65,30
75,320 76,110 77,120 78,30
79,70 104,60 107,70 111,1491
112,110 113,480 114,30 139,9999
140,791 141,3403 142,250 246,1191
247,180 248,390 249,50
##END=
