##TITLE=Thiophene-2-carboxamide, N-(2-iodo-4-methylphenyl)-
##JCAMP-DX=4.24
##DATA TYPE=MASS SPECTRUM
##ORIGIN=Zaikin V.G., TIPS RAS, Moscow, Russia
##OWNER=NIST Mass Spectrometry Data Center
Collection (C) 2014 copyright by the U.S. Secretary of Commerce
on behalf of the United States of America. All rights reserved.
##$NIST MASS SPEC NO=307075
##MOLFORM=C12 H10 I N O S
##MW=343
##$NIST SOURCE=MSDC
##XUNITS=M/Z
##YUNITS=RELATIVE INTENSITY
##XFACTOR=1
##YFACTOR=1
##FIRSTX=28
##LASTX=346
##FIRSTY=160
##MAXX=346
##MINX=28
##MAXY=9999
##MINY=20
##NPOINTS=41
##PEAK TABLE=(XY..XY)
28,160 39,420 45,30 50,60
51,130 52,80 53,30 57,40
58,30 63,60 64,20 76,50
77,200 78,200 79,70 82,40
83,370 84,50 89,60 90,60
103,30 104,330 105,200 106,60
111,9999 112,520 113,410 127,80
128,140 215,40 216,50 217,40
232,180 233,160 234,80 310,280
311,30 343,5905 344,741 345,280
346,30
##END=
