##TITLE=3-Trifluoromethylbenzoic acid, 4-chlorophenyl ester
##JCAMP-DX=4.24
##DATA TYPE=MASS SPECTRUM
##ORIGIN=Zaikin V.G., TIPS RAS, Moscow, Russia
##OWNER=NIST Mass Spectrometry Data Center
Collection (C) 2014 copyright by the U.S. Secretary of Commerce
on behalf of the United States of America. All rights reserved.
##$NIST MASS SPEC NO=307677
##MOLFORM=C14 H8 Cl F3 O2
##MW=300
##$NIST SOURCE=MSDC
##XUNITS=M/Z
##YUNITS=RELATIVE INTENSITY
##XFACTOR=1
##YFACTOR=1
##FIRSTX=63
##LASTX=302
##FIRSTY=40
##MAXX=302
##MINX=63
##MAXY=9999
##MINY=40
##NPOINTS=20
##PEAK TABLE=(XY..XY)
63,40 73,50 75,120 95,240
99,140 101,40 125,150 126,120
127,40 144,60 145,2903 146,230
173,9999 174,921 175,50 281,150
283,50 300,701 301,100 302,250
##END=
