##TITLE=Propanamide, N-(4-methoxyphenyl)-3-chloro-
##JCAMP-DX=4.24
##DATA TYPE=MASS SPECTRUM
##ORIGIN=Zaikin V.G., TIPS RAS, Moscow, Russia
##OWNER=NIST Mass Spectrometry Data Center
Collection (C) 2014 copyright by the U.S. Secretary of Commerce
on behalf of the United States of America. All rights reserved.
##$NIST MASS SPEC NO=307228
##MOLFORM=C10 H12 Cl N O2
##MW=213
##$NIST SOURCE=MSDC
##XUNITS=M/Z
##YUNITS=RELATIVE INTENSITY
##XFACTOR=1
##YFACTOR=1
##FIRSTX=26
##LASTX=216
##FIRSTY=100
##MAXX=216
##MINX=26
##MAXY=9999
##MINY=20
##NPOINTS=66
##PEAK TABLE=(XY..XY)
26,100 27,641 28,60 36,160
38,120 39,160 41,240 50,90
51,190 52,500 53,350 54,70
55,951 56,30 61,30 62,70
63,1011 64,270 65,470 66,60
67,80 75,30 76,60 77,180
78,200 79,250 80,510 81,110
89,40 90,80 91,330 92,240
93,110 94,30 95,661 96,40
104,20 106,210 107,170 108,6816
109,611 110,40 120,40 121,60
122,1782 123,9999 124,1061 125,70
127,60 131,30 133,30 134,280
135,90 136,100 138,140 147,30
149,210 150,80 162,50 177,220
178,110 212,30 213,5185 214,631
215,1732 216,190
##END=
