##TITLE=Acetamide, N-(1-naphthyl)-2-phenyl-
##JCAMP-DX=4.24
##DATA TYPE=MASS SPECTRUM
##ORIGIN=Zaikin V.G., TIPS RAS, Moscow, Russia
##OWNER=NIST Mass Spectrometry Data Center
Collection (C) 2014 copyright by the U.S. Secretary of Commerce
on behalf of the United States of America. All rights reserved.
##$NIST MASS SPEC NO=307149
##MOLFORM=C18 H15 N O
##MW=261
##$NIST SOURCE=MSDC
##XUNITS=M/Z
##YUNITS=RELATIVE INTENSITY
##XFACTOR=1
##YFACTOR=1
##FIRSTX=28
##LASTX=263
##FIRSTY=50
##MAXX=263
##MINX=28
##MAXY=9999
##MINY=30
##NPOINTS=42
##PEAK TABLE=(XY..XY)
28,50 39,120 41,30 44,40
50,40 51,70 62,30 63,140
64,40 65,420 75,40 76,30
77,80 88,40 89,260 90,180
91,2292 92,250 101,30 104,30
113,70 114,160 115,1491 116,360
117,50 118,120 126,80 127,260
128,70 140,210 141,160 142,390
143,9999 144,1121 145,60 169,430
170,160 215,30 242,30 261,4674
262,941 263,90
##END=
