##TITLE=1-Diphenylvinylsilyloxy-3-methylbenzene
##JCAMP-DX=4.24
##DATA TYPE=MASS SPECTRUM
##ORIGIN=Zaikin V.G., TIPS RAS, Moscow, Russia
##OWNER=NIST Mass Spectrometry Data Center
Collection (C) 2014 copyright by the U.S. Secretary of Commerce
on behalf of the United States of America. All rights reserved.
##$NIST MASS SPEC NO=307854
##MOLFORM=C21 H20 O Si
##MW=316
##$NIST SOURCE=MSDC
##XUNITS=M/Z
##YUNITS=RELATIVE INTENSITY
##XFACTOR=1
##YFACTOR=1
##FIRSTX=45
##LASTX=319
##FIRSTY=80
##MAXX=319
##MINX=45
##MAXY=9999
##MINY=30
##NPOINTS=92
##PEAK TABLE=(XY..XY)
45,80 53,30 65,90 77,130
78,30 91,751 92,40 105,831
106,130 107,120 115,50 117,50
118,420 119,370 120,40 121,40
123,100 129,40 130,120 131,290
133,40 134,30 135,1221 136,150
137,40 143,90 144,70 147,110
149,60 151,30 152,330 153,70
155,100 157,30 160,1191 161,520
162,140 165,500 166,170 167,190
168,300 169,40 178,70 179,80
180,140 181,861 182,160 183,2923
184,550 185,190 192,40 193,70
194,80 195,80 197,631 198,100
199,3003 200,520 201,120 207,390
208,510 209,4294 210,1091 211,4964
212,2172 213,891 214,140 215,30
223,741 224,170 225,160 226,30
237,2883 238,8978 239,3883 240,881
241,170 271,40 273,50 287,310
288,150 289,4244 290,1131 291,260
301,1161 302,310 303,60 315,170
316,9999 317,2843 318,771 319,100
##END=
