##TITLE=Pentanamide, N-(3-chlorophenyl)-5-chloro-
##JCAMP-DX=4.24
##DATA TYPE=MASS SPECTRUM
##ORIGIN=Zaikin V.G., TIPS RAS, Moscow, Russia
##OWNER=NIST Mass Spectrometry Data Center
Collection (C) 2014 copyright by the U.S. Secretary of Commerce
on behalf of the United States of America. All rights reserved.
##$NIST MASS SPEC NO=307360
##MOLFORM=C11 H13 Cl2 N O
##MW=245
##$NIST SOURCE=MSDC
##XUNITS=M/Z
##YUNITS=RELATIVE INTENSITY
##XFACTOR=1
##YFACTOR=1
##FIRSTX=27
##LASTX=249
##FIRSTY=220
##MAXX=249
##MINX=27
##MAXY=9999
##MINY=30
##NPOINTS=57
##PEAK TABLE=(XY..XY)
27,220 28,120 29,310 36,40
38,40 39,180 41,130 42,30
49,50 50,30 51,40 52,30
53,90 55,1732 56,80 62,50
63,260 64,130 65,210 73,80
75,190 76,30 90,100 91,961
92,250 93,330 99,280 100,100
101,90 102,30 111,280 112,30
113,90 119,420 121,120 125,60
126,190 127,9999 128,751 129,3343
130,210 140,30 151,30 153,120
154,220 155,50 156,70 182,40
209,30 210,400 211,70 212,130
245,1011 246,130 247,671 248,80
249,110
##END=
