##TITLE=2-Chlorobenzoic acid, 4-nitrophenyl ester
##JCAMP-DX=4.24
##DATA TYPE=MASS SPECTRUM
##ORIGIN=Zaikin V.G., TIPS RAS, Moscow, Russia
##OWNER=NIST Mass Spectrometry Data Center
Collection (C) 2014 copyright by the U.S. Secretary of Commerce
on behalf of the United States of America. All rights reserved.
##$NIST MASS SPEC NO=307820
##MOLFORM=C13 H8 Cl N O4
##MW=277
##$NIST SOURCE=MSDC
##XUNITS=M/Z
##YUNITS=RELATIVE INTENSITY
##XFACTOR=1
##YFACTOR=1
##FIRSTX=50
##LASTX=142
##FIRSTY=90
##MAXX=142
##MINX=50
##MAXY=9999
##MINY=30
##NPOINTS=19
##PEAK TABLE=(XY..XY)
50,90 51,50 63,50 64,40
74,30 75,581 76,170 85,50
104,30 110,30 111,1712 112,120
113,571 114,30 135,30 139,9999
140,811 141,3363 142,240
##END=
