##TITLE=Benzamide, N-tetrahydrofurfuryl-4-ethyl-
##JCAMP-DX=4.24
##DATA TYPE=MASS SPECTRUM
##ORIGIN=Zaikin V.G., TIPS RAS, Moscow, Russia
##OWNER=NIST Mass Spectrometry Data Center
Collection (C) 2014 copyright by the U.S. Secretary of Commerce
on behalf of the United States of America. All rights reserved.
##$NIST MASS SPEC NO=307012
##MOLFORM=C14 H19 N O2
##MW=233
##$NIST SOURCE=MSDC
##XUNITS=M/Z
##YUNITS=RELATIVE INTENSITY
##XFACTOR=1
##YFACTOR=1
##FIRSTX=26
##LASTX=234
##FIRSTY=90
##MAXX=234
##MINX=26
##MAXY=9999
##MINY=20
##NPOINTS=76
##PEAK TABLE=(XY..XY)
26,90 27,400 28,30 29,210
30,80 39,260 40,50 41,540
42,160 43,1621 44,110 50,90
51,220 52,60 53,110 55,70
56,170 58,40 63,130 64,40
65,150 69,40 70,180 71,5675
72,260 74,30 75,50 76,100
77,1231 78,300 79,1201 80,80
83,50 84,2823 85,200 89,300
90,400 91,270 100,30 102,100
103,891 104,380 105,1271 106,170
107,50 116,40 117,50 118,90
119,70 130,30 131,120 132,250
133,9999 134,1131 135,90 145,50
146,30 147,30 148,30 149,50
150,3813 151,400 160,30 161,50
162,7267 163,4484 164,871 165,70
174,60 175,30 189,370 190,170
205,50 232,20 233,370 234,100
##END=
