##TITLE=Nicotinic acid, 3,4-dichlorophenyl ester
##JCAMP-DX=4.24
##DATA TYPE=MASS SPECTRUM
##ORIGIN=Zaikin V.G., TIPS RAS, Moscow, Russia
##OWNER=NIST Mass Spectrometry Data Center
Collection (C) 2014 copyright by the U.S. Secretary of Commerce
on behalf of the United States of America. All rights reserved.
##$NIST MASS SPEC NO=307951
##MOLFORM=C12 H7 Cl2 N O2
##MW=267
##$NIST SOURCE=MSDC
##XUNITS=M/Z
##YUNITS=RELATIVE INTENSITY
##XFACTOR=1
##YFACTOR=1
##FIRSTX=50
##LASTX=271
##FIRSTY=50
##MAXX=271
##MINX=50
##MAXY=9999
##MINY=30
##NPOINTS=20
##PEAK TABLE=(XY..XY)
50,50 51,550 52,40 63,60
77,30 78,2682 79,160 106,9999
107,711 108,40 133,90 135,50
161,30 162,60 164,30 267,731
268,90 269,460 270,50 271,60
##END=
