##TITLE=Benzamide, N-(1-naphthyl)-3-bromo-
##JCAMP-DX=4.24
##DATA TYPE=MASS SPECTRUM
##ORIGIN=Zaikin V.G., TIPS RAS, Moscow, Russia
##OWNER=NIST Mass Spectrometry Data Center
Collection (C) 2014 copyright by the U.S. Secretary of Commerce
on behalf of the United States of America. All rights reserved.
##$NIST MASS SPEC NO=307160
##MOLFORM=C17 H12 Br N O
##MW=325
##$NIST SOURCE=MSDC
##XUNITS=M/Z
##YUNITS=RELATIVE INTENSITY
##XFACTOR=1
##YFACTOR=1
##FIRSTX=26
##LASTX=329
##FIRSTY=30
##MAXX=329
##MINX=26
##MAXY=9999
##MINY=30
##NPOINTS=79
##PEAK TABLE=(XY..XY)
26,30 27,30 28,60 36,40
38,30 39,100 44,70 50,340
51,140 52,40 62,70 63,190
64,50 65,120 72,30 74,160
75,701 76,1491 77,290 78,40
79,30 80,80 81,30 82,80
87,60 88,120 89,320 90,50
91,30 101,40 102,50 103,50
104,641 105,140 113,190 114,360
115,2612 116,400 117,40 126,80
127,140 128,40 140,430 141,210
142,210 143,781 144,2002 145,210
155,2833 156,250 157,2742 158,230
169,80 182,30 183,9999 184,811
185,9639 186,761 187,50 189,80
190,40 201,30 202,50 203,40
214,30 215,30 216,130 217,210
218,50 220,210 221,30 245,50
246,40 247,30 325,6256 326,1211
327,6015 328,1191 329,110
##END=
