##TITLE=Pentanamide, N-(2-iodo-4-methylphenyl)-5-chloro-
##JCAMP-DX=4.24
##DATA TYPE=MASS SPECTRUM
##ORIGIN=Zaikin V.G., TIPS RAS, Moscow, Russia
##OWNER=NIST Mass Spectrometry Data Center
Collection (C) 2014 copyright by the U.S. Secretary of Commerce
on behalf of the United States of America. All rights reserved.
##$NIST MASS SPEC NO=307364
##MOLFORM=C12 H15 Cl I N O
##MW=351
##$NIST SOURCE=MSDC
##XUNITS=M/Z
##YUNITS=RELATIVE INTENSITY
##XFACTOR=1
##YFACTOR=1
##FIRSTX=26
##LASTX=354
##FIRSTY=30
##MAXX=354
##MINX=26
##MAXY=9999
##MINY=30
##NPOINTS=66
##PEAK TABLE=(XY..XY)
26,30 27,160 28,90 29,230
36,70 39,160 41,110 42,30
50,60 51,170 52,120 53,100
54,30 55,1311 56,60 62,30
63,170 64,50 65,70 75,30
76,80 77,450 78,320 79,310
80,40 89,160 90,200 91,581
92,60 93,170 103,40 104,520
105,350 106,861 107,250 108,60
117,40 118,40 119,270 120,50
121,80 127,60 128,90 132,40
133,40 138,200 143,50 146,30
160,40 217,40 224,30 230,30
231,30 232,350 233,9999 234,821
257,30 259,100 260,120 315,160
316,290 317,30 351,2492 352,350
353,871 354,110
##END=
