##TITLE=m-Anisic acid, 4-cyanophenyl ester
##JCAMP-DX=4.24
##DATA TYPE=MASS SPECTRUM
##ORIGIN=Zaikin V.G., TIPS RAS, Moscow, Russia
##OWNER=NIST Mass Spectrometry Data Center
Collection (C) 2014 copyright by the U.S. Secretary of Commerce
on behalf of the United States of America. All rights reserved.
##$NIST MASS SPEC NO=307802
##MOLFORM=C15 H11 N O3
##MW=253
##$NIST SOURCE=MSDC
##XUNITS=M/Z
##YUNITS=RELATIVE INTENSITY
##XFACTOR=1
##YFACTOR=1
##FIRSTX=39
##LASTX=254
##FIRSTY=30
##MAXX=254
##MINX=39
##MAXY=9999
##MINY=20
##NPOINTS=20
##PEAK TABLE=(XY..XY)
39,30 50,30 51,30 63,150
64,340 76,110 77,1001 78,70
79,40 90,30 92,821 93,50
104,20 107,1812 108,130 135,9999
136,941 137,70 253,310 254,50
##END=
