##TITLE=4-Butylbenzoic acid, 4-nitrophenyl ester
##JCAMP-DX=4.24
##DATA TYPE=MASS SPECTRUM
##ORIGIN=Zaikin V.G., TIPS RAS, Moscow, Russia
##OWNER=NIST Mass Spectrometry Data Center
Collection (C) 2014 copyright by the U.S. Secretary of Commerce
on behalf of the United States of America. All rights reserved.
##$NIST MASS SPEC NO=307509
##MOLFORM=C17 H17 N O4
##MW=299
##$NIST SOURCE=MSDC
##XUNITS=M/Z
##YUNITS=RELATIVE INTENSITY
##XFACTOR=1
##YFACTOR=1
##FIRSTX=27
##LASTX=269
##FIRSTY=40
##MAXX=269
##MINX=27
##MAXY=9999
##MINY=10
##NPOINTS=35
##PEAK TABLE=(XY..XY)
27,40 28,10 29,30 30,30
39,70 41,80 50,30 51,60
53,30 55,90 63,80 64,50
65,170 76,30 77,160 78,60
79,50 89,190 90,520 91,1321
92,120 103,130 104,90 105,130
115,60 117,30 118,350 119,40
131,100 133,170 159,40 161,9999
162,1131 163,80 269,60
##END=
