##TITLE=Acetamide, N-(2-iodo-4-methylphenyl)-2-chloro-
##JCAMP-DX=4.24
##DATA TYPE=MASS SPECTRUM
##ORIGIN=Zaikin V.G., TIPS RAS, Moscow, Russia
##OWNER=NIST Mass Spectrometry Data Center
Collection (C) 2014 copyright by the U.S. Secretary of Commerce
on behalf of the United States of America. All rights reserved.
##$NIST MASS SPEC NO=307242
##MOLFORM=C9 H9 Cl I N O
##MW=309
##$NIST SOURCE=MSDC
##XUNITS=M/Z
##YUNITS=RELATIVE INTENSITY
##XFACTOR=1
##YFACTOR=1
##FIRSTX=27
##LASTX=312
##FIRSTY=60
##MAXX=312
##MINX=27
##MAXY=9999
##MINY=30
##NPOINTS=74
##PEAK TABLE=(XY..XY)
27,60 28,30 36,90 38,80
39,180 41,40 42,60 43,30
44,40 49,210 50,180 51,420
52,310 53,70 54,30 62,70
63,210 64,90 65,110 66,30
74,60 75,80 76,180 77,841
78,661 79,410 80,40 89,270
90,380 91,140 92,40 102,40
103,90 104,1131 105,1021 106,1181
107,180 116,40 117,100 118,120
119,160 127,140 128,190 132,60
133,701 134,90 138,110 146,210
147,300 148,30 182,230 183,50
184,80 214,30 217,200 230,80
231,50 232,1922 233,5025 234,1361
235,80 246,50 258,30 259,140
260,2472 261,220 273,60 274,40
275,30 294,40 309,9999 310,1001
311,3373 312,330
##END=
