##TITLE=Phenylthioacetic acid, 3-methylphenyl ester
##JCAMP-DX=4.24
##DATA TYPE=MASS SPECTRUM
##ORIGIN=Zaikin V.G., TIPS RAS, Moscow, Russia
##OWNER=NIST Mass Spectrometry Data Center
Collection (C) 2014 copyright by the U.S. Secretary of Commerce
on behalf of the United States of America. All rights reserved.
##$NIST MASS SPEC NO=307773
##MOLFORM=C15 H14 O2 S
##MW=258
##$NIST SOURCE=MSDC
##XUNITS=M/Z
##YUNITS=RELATIVE INTENSITY
##XFACTOR=1
##YFACTOR=1
##FIRSTX=28
##LASTX=260
##FIRSTY=50
##MAXX=260
##MINX=28
##MAXY=9999
##MINY=30
##NPOINTS=39
##PEAK TABLE=(XY..XY)
28,50 39,140 45,1201 47,40
50,30 51,230 52,50 53,60
63,40 65,370 66,30 69,80
77,841 78,270 79,530 80,40
90,30 91,240 105,1902 106,140
107,440 108,1051 109,741 110,120
111,100 121,661 122,1111 123,6306
124,581 125,310 129,40 150,9999
151,1011 152,530 153,50 173,40
258,2943 259,510 260,180
##END=
