##TITLE=Benzamide, N-(3-methylphenyl)-2-methyl-
##JCAMP-DX=4.24
##DATA TYPE=MASS SPECTRUM
##ORIGIN=Zaikin V.G., TIPS RAS, Moscow, Russia
##OWNER=NIST Mass Spectrometry Data Center
Collection (C) 2014 copyright by the U.S. Secretary of Commerce
on behalf of the United States of America. All rights reserved.
##$NIST MASS SPEC NO=307003
##MOLFORM=C15 H15 N O
##MW=225
##$NIST SOURCE=MSDC
##XUNITS=M/Z
##YUNITS=RELATIVE INTENSITY
##XFACTOR=1
##YFACTOR=1
##FIRSTX=26
##LASTX=227
##FIRSTY=30
##MAXX=227
##MINX=26
##MAXY=9999
##MINY=30
##NPOINTS=36
##PEAK TABLE=(XY..XY)
26,30 27,40 28,70 39,190
41,70 50,40 51,120 52,50
53,30 63,130 64,50 65,761
66,50 77,220 78,90 79,100
89,220 90,200 91,3113 92,260
104,30 106,140 107,160 111,30
118,100 119,9999 120,751 121,40
132,40 180,50 208,400 209,50
224,30 225,2562 226,410 227,40
##END=
