##TITLE=Propanamide, N-(4-bromophenyl)-2-bromo-
##JCAMP-DX=4.24
##DATA TYPE=MASS SPECTRUM
##ORIGIN=Zaikin V.G., TIPS RAS, Moscow, Russia
##OWNER=NIST Mass Spectrometry Data Center
Collection (C) 2014 copyright by the U.S. Secretary of Commerce
on behalf of the United States of America. All rights reserved.
##$NIST MASS SPEC NO=307477
##MOLFORM=C9 H9 Br2 N O
##MW=305
##$NIST SOURCE=MSDC
##XUNITS=M/Z
##YUNITS=RELATIVE INTENSITY
##XFACTOR=1
##YFACTOR=1
##FIRSTX=26
##LASTX=310
##FIRSTY=120
##MAXX=310
##MINX=26
##MAXY=9999
##MINY=10
##NPOINTS=95
##PEAK TABLE=(XY..XY)
26,120 27,731 28,10 29,130
36,90 37,60 38,200 39,280
40,90 41,80 44,140 46,120
50,280 51,140 52,140 53,30
54,30 55,500 56,280 57,90
61,60 62,210 63,971 64,711
65,671 66,70 73,30 74,120
75,330 76,390 77,110 78,30
79,90 80,190 81,90 82,190
88,30 89,50 90,510 91,1361
92,871 93,150 102,50 104,60
106,40 107,1371 108,70 109,1291
117,240 118,370 119,751 120,50
123,30 132,40 134,40 135,250
136,40 137,240 138,40 143,390
144,30 145,390 146,110 147,701
148,70 155,330 156,30 157,320
169,110 170,1281 171,9999 172,2102
173,9589 174,851 182,60 184,60
197,400 198,1341 199,500 200,1291
201,90 225,80 226,90 227,170
228,100 229,80 249,30 251,70
253,30 305,3153 306,340 307,6176
308,651 309,3093 310,300
##END=
