##TITLE=Phenylacetic acid, 2-naphthyl ester
##JCAMP-DX=4.24
##DATA TYPE=MASS SPECTRUM
##ORIGIN=Zaikin V.G., TIPS RAS, Moscow, Russia
##OWNER=NIST Mass Spectrometry Data Center
Collection (C) 2014 copyright by the U.S. Secretary of Commerce
on behalf of the United States of America. All rights reserved.
##$NIST MASS SPEC NO=307537
##MOLFORM=C18 H14 O2
##MW=262
##$NIST SOURCE=MSDC
##XUNITS=M/Z
##YUNITS=RELATIVE INTENSITY
##XFACTOR=1
##YFACTOR=1
##FIRSTX=28
##LASTX=263
##FIRSTY=10
##MAXX=263
##MINX=28
##MAXY=9999
##MINY=10
##NPOINTS=35
##PEAK TABLE=(XY..XY)
28,10 36,30 39,220 41,60
44,30 50,60 51,120 62,70
63,260 64,60 65,711 66,40
74,30 75,50 77,50 87,30
88,50 89,410 90,380 91,3593
92,290 113,50 114,70 115,1241
116,250 118,871 119,80 126,40
127,90 143,60 144,9999 145,1051
146,70 262,430 263,80
##END=
