##TITLE=1-Adamantanecarboxylic acid, 3-methylphenyl ester
##JCAMP-DX=4.24
##DATA TYPE=MASS SPECTRUM
##ORIGIN=Zaikin V.G., TIPS RAS, Moscow, Russia
##OWNER=NIST Mass Spectrometry Data Center
Collection (C) 2014 copyright by the U.S. Secretary of Commerce
on behalf of the United States of America. All rights reserved.
##$NIST MASS SPEC NO=307659
##MOLFORM=C18 H22 O2
##MW=270
##$NIST SOURCE=MSDC
##XUNITS=M/Z
##YUNITS=RELATIVE INTENSITY
##XFACTOR=1
##YFACTOR=1
##FIRSTX=39
##LASTX=270
##FIRSTY=30
##MAXX=270
##MINX=39
##MAXY=9999
##MINY=30
##NPOINTS=27
##PEAK TABLE=(XY..XY)
39,30 41,120 53,60 55,140
65,60 67,270 69,50 77,260
78,70 79,881 80,70 81,210
91,370 92,100 93,771 94,50
105,70 107,470 108,230 133,40
135,9999 136,1071 137,40 163,981
164,100 242,100 270,140
##END=
