##TITLE=4-Cyanophenol, TBDMS derivative
##JCAMP-DX=4.24
##DATA TYPE=MASS SPECTRUM
##ORIGIN=Zaikin V.G., TIPS RAS, Moscow, Russia
##OWNER=NIST Mass Spectrometry Data Center
Collection (C) 2014 copyright by the U.S. Secretary of Commerce
on behalf of the United States of America. All rights reserved.
##$NIST MASS SPEC NO=307923
##MOLFORM=C13 H19 N O Si
##MW=233
##$NIST SOURCE=MSDC
##XUNITS=M/Z
##YUNITS=RELATIVE INTENSITY
##XFACTOR=1
##YFACTOR=1
##FIRSTX=28
##LASTX=235
##FIRSTY=120
##MAXX=235
##MINX=28
##MAXY=9999
##MINY=30
##NPOINTS=23
##PEAK TABLE=(XY..XY)
28,120 44,40 73,80 75,100
91,30 102,60 115,110 116,110
119,440 120,80 121,40 144,550
145,30 146,150 160,170 162,230
176,9999 177,2102 178,581 179,50
233,921 234,160 235,30
##END=
