##TITLE=Benzamide, N-(2,5-dimethoxyphenyl)-2,3,4,5,6-pentafluoro-
##JCAMP-DX=4.24
##DATA TYPE=MASS SPECTRUM
##ORIGIN=Zaikin V.G., TIPS RAS, Moscow, Russia
##OWNER=NIST Mass Spectrometry Data Center
Collection (C) 2014 copyright by the U.S. Secretary of Commerce
on behalf of the United States of America. All rights reserved.
##$NIST MASS SPEC NO=307380
##MOLFORM=C15 H10 F5 N O3
##MW=347
##$NIST SOURCE=MSDC
##XUNITS=M/Z
##YUNITS=RELATIVE INTENSITY
##XFACTOR=1
##YFACTOR=1
##FIRSTX=28
##LASTX=349
##FIRSTY=30
##MAXX=349
##MINX=28
##MAXY=9999
##MINY=20
##NPOINTS=77
##PEAK TABLE=(XY..XY)
28,30 39,90 41,30 44,90
50,30 51,100 52,170 53,70
54,30 55,40 63,30 65,80
66,40 67,30 68,120 69,60
77,50 78,50 79,200 80,80
81,40 82,50 91,80 92,90
93,150 94,50 95,100 99,30
105,30 106,50 107,120 108,90
109,120 110,70 111,280 117,240
122,140 123,60 124,120 125,220
136,70 138,90 139,1271 140,100
148,60 150,110 151,90 152,50
153,30 154,40 164,90 165,30
167,1231 168,160 176,30 177,40
193,40 194,50 195,9999 196,751
197,40 226,30 239,120 243,50
254,30 301,40 304,120 315,20
316,340 317,60 328,50 332,3793
333,611 334,60 347,8047 348,1371
349,150
##END=
