##TITLE=Propanamide, N-(1-naphthyl)-2-methyl-
##JCAMP-DX=4.24
##DATA TYPE=MASS SPECTRUM
##ORIGIN=Zaikin V.G., TIPS RAS, Moscow, Russia
##OWNER=NIST Mass Spectrometry Data Center
Collection (C) 2014 copyright by the U.S. Secretary of Commerce
on behalf of the United States of America. All rights reserved.
##$NIST MASS SPEC NO=307327
##MOLFORM=C14 H15 N O
##MW=213
##$NIST SOURCE=MSDC
##XUNITS=M/Z
##YUNITS=RELATIVE INTENSITY
##XFACTOR=1
##YFACTOR=1
##FIRSTX=27
##LASTX=215
##FIRSTY=120
##MAXX=215
##MINX=27
##MAXY=9999
##MINY=20
##NPOINTS=40
##PEAK TABLE=(XY..XY)
27,120 28,20 39,90 41,250
42,40 43,1371 44,40 51,30
63,80 65,50 71,270 75,40
76,30 77,60 88,40 89,130
90,30 101,30 113,80 114,160
115,1471 116,390 117,60 126,80
127,250 128,90 129,30 140,200
141,140 142,280 143,9999 144,1161
145,60 154,40 155,40 169,150
170,150 213,2973 214,480 215,30
##END=
