##TITLE=Acetamide, N-tetrahydrofurfuryl-2-methoxy-
##JCAMP-DX=4.24
##DATA TYPE=MASS SPECTRUM
##ORIGIN=Zaikin V.G., TIPS RAS, Moscow, Russia
##OWNER=NIST Mass Spectrometry Data Center
Collection (C) 2014 copyright by the U.S. Secretary of Commerce
on behalf of the United States of America. All rights reserved.
##$NIST MASS SPEC NO=307255
##MOLFORM=C8 H15 N O3
##MW=173
##$NIST SOURCE=MSDC
##XUNITS=M/Z
##YUNITS=RELATIVE INTENSITY
##XFACTOR=1
##YFACTOR=1
##FIRSTX=27
##LASTX=143
##FIRSTY=180
##MAXX=143
##MINX=27
##MAXY=9999
##MINY=30
##NPOINTS=60
##PEAK TABLE=(XY..XY)
27,180 28,90 29,360 30,190
31,80 35,30 36,240 38,70
39,220 40,60 41,811 42,380
43,2382 44,530 45,2422 46,60
53,80 54,110 55,380 56,280
57,130 58,90 67,300 68,120
69,100 70,280 71,9999 72,601
73,130 74,40 80,30 81,30
82,360 83,250 84,3753 85,410
86,90 88,250 90,761 91,40
92,60 96,40 98,90 99,30
100,220 102,360 103,4044 104,751
105,50 110,90 111,40 114,50
115,60 126,30 128,360 129,170
130,120 138,40 142,30 143,230
##END=
