##TITLE=Phenylacetic acid, 4-methoxyphenyl ester
##JCAMP-DX=4.24
##DATA TYPE=MASS SPECTRUM
##ORIGIN=Zaikin V.G., TIPS RAS, Moscow, Russia
##OWNER=NIST Mass Spectrometry Data Center
Collection (C) 2014 copyright by the U.S. Secretary of Commerce
on behalf of the United States of America. All rights reserved.
##$NIST MASS SPEC NO=307533
##MOLFORM=C15 H14 O3
##MW=242
##$NIST SOURCE=MSDC
##XUNITS=M/Z
##YUNITS=RELATIVE INTENSITY
##XFACTOR=1
##YFACTOR=1
##FIRSTX=26
##LASTX=243
##FIRSTY=20
##MAXX=243
##MINX=26
##MAXY=9999
##MINY=20
##NPOINTS=31
##PEAK TABLE=(XY..XY)
26,20 28,50 39,140 41,140
50,30 51,70 52,80 53,40
54,40 63,110 64,60 65,460
66,30 77,30 80,50 81,90
89,170 90,270 91,2793 92,240
95,200 109,1001 110,90 118,540
119,50 123,470 124,9999 125,751
126,60 242,330 243,50
##END=
