##TITLE=m-Anisic acid, 2-naphthyl ester
##JCAMP-DX=4.24
##DATA TYPE=MASS SPECTRUM
##ORIGIN=Zaikin V.G., TIPS RAS, Moscow, Russia
##OWNER=NIST Mass Spectrometry Data Center
Collection (C) 2014 copyright by the U.S. Secretary of Commerce
on behalf of the United States of America. All rights reserved.
##$NIST MASS SPEC NO=307805
##MOLFORM=C18 H14 O3
##MW=278
##$NIST SOURCE=MSDC
##XUNITS=M/Z
##YUNITS=RELATIVE INTENSITY
##XFACTOR=1
##YFACTOR=1
##FIRSTX=63
##LASTX=280
##FIRSTY=70
##MAXX=280
##MINX=63
##MAXY=9999
##MINY=30
##NPOINTS=22
##PEAK TABLE=(XY..XY)
63,70 64,180 65,40 76,70
77,921 78,60 79,40 89,30
91,230 92,661 93,30 107,1822
108,130 115,300 127,30 135,9999
136,911 137,60 144,30 278,2542
279,490 280,50
##END=
