##TITLE=2-Butenamide, N-(3-methylphenyl)-3-methyl-
##JCAMP-DX=4.24
##DATA TYPE=MASS SPECTRUM
##ORIGIN=Zaikin V.G., TIPS RAS, Moscow, Russia
##OWNER=NIST Mass Spectrometry Data Center
Collection (C) 2014 copyright by the U.S. Secretary of Commerce
on behalf of the United States of America. All rights reserved.
##$NIST MASS SPEC NO=307268
##MOLFORM=C12 H15 N O
##MW=189
##$NIST SOURCE=MSDC
##XUNITS=M/Z
##YUNITS=RELATIVE INTENSITY
##XFACTOR=1
##YFACTOR=1
##FIRSTX=26
##LASTX=191
##FIRSTY=30
##MAXX=191
##MINX=26
##MAXY=9999
##MINY=20
##NPOINTS=53
##PEAK TABLE=(XY..XY)
26,30 27,280 28,230 29,591
36,30 38,40 39,540 40,60
41,80 50,70 51,170 52,120
53,360 54,110 55,1932 56,90
63,90 64,50 65,240 66,40
67,70 77,550 78,200 79,330
80,80 82,130 83,6706 84,370
89,70 90,50 91,320 92,40
104,90 105,40 106,1261 107,9999
108,821 109,20 130,50 131,40
132,60 133,30 134,30 144,100
145,120 146,60 158,30 160,30
172,70 188,30 189,4354 190,641
191,50
##END=
