##TITLE=4-Nitro-1-tributylsilyloxybenzene
##JCAMP-DX=4.24
##DATA TYPE=MASS SPECTRUM
##ORIGIN=Zaikin V.G., TIPS RAS, Moscow, Russia
##OWNER=NIST Mass Spectrometry Data Center
Collection (C) 2014 copyright by the U.S. Secretary of Commerce
on behalf of the United States of America. All rights reserved.
##$NIST MASS SPEC NO=307837
##MOLFORM=C18 H31 N O3 Si
##MW=337
##$NIST SOURCE=MSDC
##XUNITS=M/Z
##YUNITS=RELATIVE INTENSITY
##XFACTOR=1
##YFACTOR=1
##FIRSTX=55
##LASTX=339
##FIRSTY=40
##MAXX=339
##MINX=55
##MAXY=9999
##MINY=20
##NPOINTS=57
##PEAK TABLE=(XY..XY)
55,40 59,90 77,30 78,80
85,210 87,40 91,40 101,30
120,60 121,220 122,621 123,90
124,30 135,30 136,110 138,40
143,70 148,30 149,290 150,180
151,70 152,30 166,350 167,40
168,390 169,50 170,30 176,30
178,1551 179,260 180,80 182,2062
183,270 184,90 194,180 195,80
196,400 197,50 207,120 208,210
209,90 222,120 223,30 224,6736
225,1151 226,360 227,20 264,30
280,9999 281,2312 282,661 283,80
307,90 321,80 337,831 338,200
339,50
##END=
