##TITLE=4-Chlorobenzoic acid, 4-nitrophenyl ester
##JCAMP-DX=4.24
##DATA TYPE=MASS SPECTRUM
##ORIGIN=Zaikin V.G., TIPS RAS, Moscow, Russia
##OWNER=NIST Mass Spectrometry Data Center
Collection (C) 2014 copyright by the U.S. Secretary of Commerce
on behalf of the United States of America. All rights reserved.
##$NIST MASS SPEC NO=307762
##MOLFORM=C13 H8 Cl N O4
##MW=277
##$NIST SOURCE=MSDC
##XUNITS=M/Z
##YUNITS=RELATIVE INTENSITY
##XFACTOR=1
##YFACTOR=1
##FIRSTX=28
##LASTX=142
##FIRSTY=20
##MAXX=142
##MINX=28
##MAXY=9999
##MINY=20
##NPOINTS=16
##PEAK TABLE=(XY..XY)
28,20 50,60 51,30 63,30
75,400 76,130 85,30 104,60
111,1641 112,110 113,550 114,30
139,9999 140,791 141,3393 142,250
##END=
