##TITLE=1-Diphenylvinylsilyloxy-4-nitrobenzene
##JCAMP-DX=4.24
##DATA TYPE=MASS SPECTRUM
##ORIGIN=Zaikin V.G., TIPS RAS, Moscow, Russia
##OWNER=NIST Mass Spectrometry Data Center
Collection (C) 2014 copyright by the U.S. Secretary of Commerce
on behalf of the United States of America. All rights reserved.
##$NIST MASS SPEC NO=307860
##MOLFORM=C20 H17 N O3 Si
##MW=347
##$NIST SOURCE=MSDC
##XUNITS=M/Z
##YUNITS=RELATIVE INTENSITY
##XFACTOR=1
##YFACTOR=1
##FIRSTX=36
##LASTX=349
##FIRSTY=30
##MAXX=349
##MINX=36
##MAXY=9999
##MINY=30
##NPOINTS=100
##PEAK TABLE=(XY..XY)
36,30 77,60 78,40 103,30
104,50 105,661 106,70 107,80
120,90 121,80 123,30 129,30
130,110 131,320 132,30 137,80
141,30 143,30 146,50 147,310
148,40 151,110 152,290 153,140
154,170 155,90 165,70 166,550
167,120 168,70 169,110 178,90
179,70 180,190 181,771 182,150
183,3733 184,671 185,260 191,430
192,90 193,40 195,80 196,410
197,751 198,210 199,190 207,671
208,731 209,9999 210,2122 211,540
212,90 213,130 215,30 222,60
223,430 224,230 225,330 226,100
227,40 228,70 229,30 239,70
240,40 241,50 242,1081 243,1251
244,591 245,160 246,30 252,130
253,30 255,60 256,40 268,581
269,6746 270,2352 271,621 272,120
273,911 274,721 275,170 276,30
300,721 301,220 302,60 317,200
318,180 319,70 320,3013 321,711
322,180 330,911 331,420 332,120
346,50 347,2472 348,691 349,180
##END=
