##TITLE=Cyclopentanecarboxamide, N-(2,5-dimethoxyphenyl)-
##JCAMP-DX=4.24
##DATA TYPE=MASS SPECTRUM
##ORIGIN=Zaikin V.G., TIPS RAS, Moscow, Russia
##OWNER=NIST Mass Spectrometry Data Center
Collection (C) 2014 copyright by the U.S. Secretary of Commerce
on behalf of the United States of America. All rights reserved.
##$NIST MASS SPEC NO=307029
##MOLFORM=C14 H19 N O3
##MW=249
##$NIST SOURCE=MSDC
##XUNITS=M/Z
##YUNITS=RELATIVE INTENSITY
##XFACTOR=1
##YFACTOR=1
##FIRSTX=26
##LASTX=250
##FIRSTY=40
##MAXX=250
##MINX=26
##MAXY=9999
##MINY=30
##NPOINTS=64
##PEAK TABLE=(XY..XY)
26,40 27,100 28,30 39,240
40,80 41,1221 42,70 50,30
51,90 52,150 53,110 54,40
55,190 63,40 65,140 66,70
67,350 68,150 69,2392 70,130
77,70 78,50 79,190 80,80
81,40 82,40 90,30 92,90
93,100 94,50 95,280 96,100
97,150 106,40 107,140 108,80
109,100 110,300 111,70 122,160
123,100 124,90 125,110 136,70
137,30 138,7036 139,601 140,40
150,160 151,50 152,90 153,9999
154,861 155,70 164,180 165,410
166,50 179,70 180,90 207,60
208,90 218,120 249,1631 250,230
##END=
