##TITLE=trans-3-Trifluoromethylcinnamic acid, 4-methoxyphenyl ester
##JCAMP-DX=4.24
##DATA TYPE=MASS SPECTRUM
##ORIGIN=Zaikin V.G., TIPS RAS, Moscow, Russia
##OWNER=NIST Mass Spectrometry Data Center
Collection (C) 2014 copyright by the U.S. Secretary of Commerce
on behalf of the United States of America. All rights reserved.
##$NIST MASS SPEC NO=307810
##MOLFORM=C17 H13 F3 O3
##MW=322
##$NIST SOURCE=MSDC
##XUNITS=M/Z
##YUNITS=RELATIVE INTENSITY
##XFACTOR=1
##YFACTOR=1
##FIRSTX=28
##LASTX=323
##FIRSTY=10
##MAXX=323
##MINX=28
##MAXY=9999
##MINY=10
##NPOINTS=27
##PEAK TABLE=(XY..XY)
28,10 36,30 41,30 65,50
91,260 95,90 102,180 109,240
119,60 123,180 124,1031 125,90
135,60 145,70 151,1311 152,170
169,30 170,60 171,2072 172,140
199,9999 200,1191 201,50 278,80
303,130 322,1461 323,220
##END=
