##TITLE=1-Adamantanecarboxamide, N-(3-nitrophenyl)-
##JCAMP-DX=4.24
##DATA TYPE=MASS SPECTRUM
##ORIGIN=Zaikin V.G., TIPS RAS, Moscow, Russia
##OWNER=NIST Mass Spectrometry Data Center
Collection (C) 2014 copyright by the U.S. Secretary of Commerce
on behalf of the United States of America. All rights reserved.
##$NIST MASS SPEC NO=307471
##MOLFORM=C17 H20 N2 O3
##MW=300
##$NIST SOURCE=MSDC
##XUNITS=M/Z
##YUNITS=RELATIVE INTENSITY
##XFACTOR=1
##YFACTOR=1
##FIRSTX=27
##LASTX=301
##FIRSTY=40
##MAXX=301
##MINX=27
##MAXY=9999
##MINY=10
##NPOINTS=53
##PEAK TABLE=(XY..XY)
27,40 28,10 29,40 39,110
41,240 43,40 51,40 52,40
53,110 54,30 55,230 57,40
63,40 64,50 65,150 66,40
67,390 68,30 69,100 75,30
76,70 77,380 78,100 79,1051
80,120 81,320 91,430 92,170
93,981 94,80 95,30 105,120
106,30 107,490 108,80 119,40
130,30 133,40 134,40 135,9999
136,1031 137,60 138,40 163,681
164,80 165,30 185,110 215,80
270,340 271,70 272,70 300,390
301,70
##END=
