##TITLE=Acetamide, N-(3-methylphenyl)-2-methoxy-
##JCAMP-DX=4.24
##DATA TYPE=MASS SPECTRUM
##ORIGIN=Zaikin V.G., TIPS RAS, Moscow, Russia
##OWNER=NIST Mass Spectrometry Data Center
Collection (C) 2014 copyright by the U.S. Secretary of Commerce
on behalf of the United States of America. All rights reserved.
##$NIST MASS SPEC NO=307257
##MOLFORM=C10 H13 N O2
##MW=179
##$NIST SOURCE=MSDC
##XUNITS=M/Z
##YUNITS=RELATIVE INTENSITY
##XFACTOR=1
##YFACTOR=1
##FIRSTX=26
##LASTX=181
##FIRSTY=30
##MAXX=181
##MINX=26
##MAXY=9999
##MINY=30
##NPOINTS=67
##PEAK TABLE=(XY..XY)
26,30 27,90 28,110 29,290
30,30 31,80 36,140 38,100
39,400 40,50 41,120 42,60
43,40 44,120 45,4264 46,120
50,150 51,390 52,270 53,200
54,30 62,60 63,290 64,140
65,891 66,100 74,30 75,50
76,90 77,1581 78,671 79,761
80,130 89,260 90,180 91,3703
92,470 93,250 103,60 104,460
105,410 106,3183 107,1772 108,290
116,60 117,70 118,591 119,1491
120,9999 121,1071 122,50 123,30
132,290 133,1982 134,2993 135,340
136,60 146,130 147,30 148,961
149,4144 150,981 151,100 164,180
179,8928 180,1101 181,90
##END=
