##TITLE=Cyclobutanecarboxamide, N-(1-naphthyl)-
##JCAMP-DX=4.24
##DATA TYPE=MASS SPECTRUM
##ORIGIN=Zaikin V.G., TIPS RAS, Moscow, Russia
##OWNER=NIST Mass Spectrometry Data Center
Collection (C) 2014 copyright by the U.S. Secretary of Commerce
on behalf of the United States of America. All rights reserved.
##$NIST MASS SPEC NO=307054
##MOLFORM=C15 H15 N O
##MW=225
##$NIST SOURCE=MSDC
##XUNITS=M/Z
##YUNITS=RELATIVE INTENSITY
##XFACTOR=1
##YFACTOR=1
##FIRSTX=26
##LASTX=227
##FIRSTY=30
##MAXX=227
##MINX=26
##MAXY=9999
##MINY=30
##NPOINTS=40
##PEAK TABLE=(XY..XY)
26,30 27,120 28,50 29,140
39,90 51,30 53,70 55,1221
56,50 63,50 65,30 77,40
83,160 88,30 89,90 113,50
114,110 115,1071 116,230 117,30
126,50 127,160 128,80 129,60
140,140 141,100 142,160 143,9999
144,971 145,50 154,40 156,50
167,30 168,40 169,120 170,50
197,80 225,2502 226,400 227,30
##END=
