##TITLE=Cyclopentanecarboxamide, N-tetrahydrofurfuryl-
##JCAMP-DX=4.24
##DATA TYPE=MASS SPECTRUM
##ORIGIN=Zaikin V.G., TIPS RAS, Moscow, Russia
##OWNER=NIST Mass Spectrometry Data Center
Collection (C) 2014 copyright by the U.S. Secretary of Commerce
on behalf of the United States of America. All rights reserved.
##$NIST MASS SPEC NO=307023
##MOLFORM=C11 H19 N O2
##MW=197
##$NIST SOURCE=MSDC
##XUNITS=M/Z
##YUNITS=RELATIVE INTENSITY
##XFACTOR=1
##YFACTOR=1
##FIRSTX=26
##LASTX=198
##FIRSTY=60
##MAXX=198
##MINX=26
##MAXY=9999
##MINY=20
##NPOINTS=66
##PEAK TABLE=(XY..XY)
26,60 27,350 28,40 29,290
30,360 31,50 36,20 38,30
39,540 40,160 41,2212 42,340
43,1852 44,220 53,160 54,100
55,530 56,340 57,120 58,120
59,40 60,30 65,100 66,70
67,721 68,290 69,3633 70,550
71,9999 72,581 73,110 81,30
82,180 83,140 84,4744 85,550
86,3984 87,190 92,30 95,80
96,160 97,1431 98,330 99,1081
100,180 101,110 102,210 110,40
112,40 113,30 114,2843 115,200
126,390 127,4184 128,1381 129,100
138,80 139,40 153,250 154,170
156,851 157,70 169,120 196,30
197,110 198,100
##END=
