##TITLE=1-Dimethylvinylsilyloxy-3-methylbenzene
##JCAMP-DX=4.24
##DATA TYPE=MASS SPECTRUM
##ORIGIN=Zaikin V.G., TIPS RAS, Moscow, Russia
##OWNER=NIST Mass Spectrometry Data Center
Collection (C) 2014 copyright by the U.S. Secretary of Commerce
on behalf of the United States of America. All rights reserved.
##$NIST MASS SPEC NO=307916
##MOLFORM=C11 H16 O Si
##MW=192
##$NIST SOURCE=MSDC
##XUNITS=M/Z
##YUNITS=RELATIVE INTENSITY
##XFACTOR=1
##YFACTOR=1
##FIRSTX=28
##LASTX=194
##FIRSTY=20
##MAXX=194
##MINX=28
##MAXY=9999
##MINY=20
##NPOINTS=60
##PEAK TABLE=(XY..XY)
28,20 43,50 45,40 59,390
61,110 65,180 67,30 75,941
76,140 77,80 79,70 81,100
82,40 83,40 85,280 87,40
89,140 91,991 92,70 95,70
103,40 105,200 107,30 109,80
115,60 117,80 118,641 119,60
121,50 123,80 131,30 133,40
135,470 136,50 137,50 145,30
147,70 148,20 149,1361 150,210
151,2042 152,250 153,70 159,50
161,200 162,50 163,120 164,50
165,1261 166,170 167,30 175,691
176,130 177,9999 178,1561 179,410
191,210 192,4674 193,751 194,200
##END=
