##TITLE=Propanamide, N-(4-bromophenyl)-2,2,3,3,3-pentafluoro-
##JCAMP-DX=4.24
##DATA TYPE=MASS SPECTRUM
##ORIGIN=Zaikin V.G., TIPS RAS, Moscow, Russia
##OWNER=NIST Mass Spectrometry Data Center
Collection (C) 2014 copyright by the U.S. Secretary of Commerce
on behalf of the United States of America. All rights reserved.
##$NIST MASS SPEC NO=307333
##MOLFORM=C9 H5 Br F5 N O
##MW=317
##$NIST SOURCE=MSDC
##XUNITS=M/Z
##YUNITS=RELATIVE INTENSITY
##XFACTOR=1
##YFACTOR=1
##FIRSTX=28
##LASTX=321
##FIRSTY=10
##MAXX=321
##MINX=28
##MAXY=9999
##MINY=10
##NPOINTS=69
##PEAK TABLE=(XY..XY)
28,10 31,40 37,50 38,160
39,190 40,30 41,60 44,30
46,300 50,290 51,100 52,100
61,60 62,180 63,791 64,681
65,240 69,340 74,130 75,440
76,631 77,60 80,50 82,50
86,20 88,30 89,30 90,611
91,1802 92,160 93,50 99,170
100,260 102,50 117,110 119,550
120,30 140,20 143,430 144,30
145,410 146,30 150,100 155,921
156,60 157,881 158,50 168,150
169,230 170,3293 171,480 172,3613
173,310 174,400 191,40 197,200
198,2712 199,440 200,2722 201,210
219,250 220,30 237,30 238,40
317,9999 318,1041 319,9869 320,981
321,60
##END=
