##TITLE=3,4-Dichloro-1-triisobutylsilyloxybenzene
##JCAMP-DX=4.24
##DATA TYPE=MASS SPECTRUM
##ORIGIN=Zaikin V.G., TIPS RAS, Moscow, Russia
##OWNER=NIST Mass Spectrometry Data Center
Collection (C) 2014 copyright by the U.S. Secretary of Commerce
on behalf of the United States of America. All rights reserved.
##$NIST MASS SPEC NO=307959
##MOLFORM=C18 H30 Cl2 O Si
##MW=360
##$NIST SOURCE=MSDC
##XUNITS=M/Z
##YUNITS=RELATIVE INTENSITY
##XFACTOR=1
##YFACTOR=1
##FIRSTX=41
##LASTX=365
##FIRSTY=60
##MAXX=365
##MINX=41
##MAXY=9999
##MINY=20
##NPOINTS=85
##PEAK TABLE=(XY..XY)
41,60 43,50 45,100 59,270
65,40 73,40 77,40 79,130
85,420 86,60 87,90 91,160
101,80 109,40 111,110 112,40
113,140 115,80 137,30 142,40
143,240 144,20 145,90 146,140
147,190 148,90 149,90 155,250
156,60 157,100 169,100 170,250
171,90 172,90 183,50 189,791
190,80 191,1301 192,140 193,601
194,60 195,100 197,60 199,130
200,40 203,50 204,460 205,7517
206,941 207,4794 208,581 209,791
210,90 211,30 212,50 213,40
218,60 219,270 220,50 221,170
223,30 231,160 233,110 245,90
246,90 247,9999 248,1641 249,6756
250,1081 251,1291 252,170 253,30
303,9589 304,2432 305,6786 306,1551
307,1391 308,300 309,40 360,3063
361,751 362,2172 363,490 364,420
365,90
##END=
