##TITLE=Propanamide, N-tetrahydrofurfuryl-2-chloro-
##JCAMP-DX=4.24
##DATA TYPE=MASS SPECTRUM
##ORIGIN=Zaikin V.G., TIPS RAS, Moscow, Russia
##OWNER=NIST Mass Spectrometry Data Center
Collection (C) 2014 copyright by the U.S. Secretary of Commerce
on behalf of the United States of America. All rights reserved.
##$NIST MASS SPEC NO=307482
##MOLFORM=C8 H14 Cl N O2
##MW=191
##$NIST SOURCE=MSDC
##XUNITS=M/Z
##YUNITS=RELATIVE INTENSITY
##XFACTOR=1
##YFACTOR=1
##FIRSTX=26
##LASTX=193
##FIRSTY=130
##MAXX=193
##MINX=26
##MAXY=9999
##MINY=30
##NPOINTS=61
##PEAK TABLE=(XY..XY)
26,130 27,951 28,100 29,581
30,871 31,90 35,50 36,310
38,100 39,360 40,190 41,1161
42,370 43,3073 44,571 51,40
52,60 53,90 54,140 55,530
56,500 57,230 58,80 62,30
63,631 65,210 67,190 68,70
69,100 70,280 71,9999 72,490
73,60 77,30 79,80 80,30
82,220 83,130 84,2222 85,310
86,761 87,40 91,70 92,50
96,50 98,50 100,120 108,50
110,60 120,120 121,360 122,220
123,120 124,60 126,100 128,280
133,70 148,30 156,100 191,50
193,30
##END=
