##TITLE=Dichloroacetic acid, 4-nitrophenyl ester
##JCAMP-DX=4.24
##DATA TYPE=MASS SPECTRUM
##ORIGIN=Zaikin V.G., TIPS RAS, Moscow, Russia
##OWNER=NIST Mass Spectrometry Data Center
Collection (C) 2014 copyright by the U.S. Secretary of Commerce
on behalf of the United States of America. All rights reserved.
##$NIST MASS SPEC NO=307589
##MOLFORM=C8 H5 Cl2 N O4
##MW=249
##$NIST SOURCE=MSDC
##XUNITS=M/Z
##YUNITS=RELATIVE INTENSITY
##XFACTOR=1
##YFACTOR=1
##FIRSTX=26
##LASTX=253
##FIRSTY=130
##MAXX=253
##MINX=26
##MAXY=9999
##MINY=30
##NPOINTS=99
##PEAK TABLE=(XY..XY)
26,130 27,60 28,30 29,70
30,771 35,140 36,801 37,150
38,931 39,440 40,30 41,70
44,310 45,30 47,130 48,571
49,150 50,871 51,370 52,260
53,210 54,150 55,30 61,130
62,490 63,2152 64,1611 65,831
66,80 68,60 73,60 74,270
75,1001 76,1541 77,230 78,410
79,160 80,130 81,170 82,130
83,8267 84,190 85,5305 86,90
87,841 89,50 91,180 92,781
93,601 94,70 96,30 102,30
103,60 105,30 106,40 107,90
108,220 109,831 110,1481 111,811
112,1011 113,480 114,180 115,360
116,150 117,70 119,170 121,40
122,2112 123,9999 124,751 125,60
128,40 139,3763 140,310 141,120
162,40 165,70 166,771 167,90
168,60 178,170 179,240 180,30
186,901 187,60 188,300 189,40
191,30 193,310 194,581 195,80
219,40 221,40 249,1121 250,90
251,731 252,60 253,110
##END=
