##TITLE=Benzamide, N-(3-chlorophenyl)-3-fluoro-
##JCAMP-DX=4.24
##DATA TYPE=MASS SPECTRUM
##ORIGIN=Zaikin V.G., TIPS RAS, Moscow, Russia
##OWNER=NIST Mass Spectrometry Data Center
Collection (C) 2014 copyright by the U.S. Secretary of Commerce
on behalf of the United States of America. All rights reserved.
##$NIST MASS SPEC NO=307165
##MOLFORM=C13 H9 Cl F N O
##MW=249
##$NIST SOURCE=MSDC
##XUNITS=M/Z
##YUNITS=RELATIVE INTENSITY
##XFACTOR=1
##YFACTOR=1
##FIRSTX=28
##LASTX=252
##FIRSTY=20
##MAXX=252
##MINX=28
##MAXY=9999
##MINY=20
##NPOINTS=36
##PEAK TABLE=(XY..XY)
28,20 39,50 50,70 51,60
62,30 63,120 64,70 65,50
69,70 73,50 74,60 75,631
76,60 90,50 91,60 92,30
94,120 95,3203 96,250 99,150
100,30 101,50 111,40 122,30
123,9999 124,691 125,60 126,30
127,200 128,30 129,60 185,50
249,3073 250,460 251,1011 252,140
##END=
