##TITLE=Benzamide, N-(2-iodo-4-methylphenyl)-4-trifluoromethyl-
##JCAMP-DX=4.24
##DATA TYPE=MASS SPECTRUM
##ORIGIN=Zaikin V.G., TIPS RAS, Moscow, Russia
##OWNER=NIST Mass Spectrometry Data Center
Collection (C) 2014 copyright by the U.S. Secretary of Commerce
on behalf of the United States of America. All rights reserved.
##$NIST MASS SPEC NO=307252
##MOLFORM=C15 H11 F3 I N O
##MW=405
##$NIST SOURCE=MSDC
##XUNITS=M/Z
##YUNITS=RELATIVE INTENSITY
##XFACTOR=1
##YFACTOR=1
##FIRSTX=28
##LASTX=407
##FIRSTY=20
##MAXX=407
##MINX=28
##MAXY=9999
##MINY=20
##NPOINTS=47
##PEAK TABLE=(XY..XY)
28,20 39,50 50,90 51,150
52,90 63,60 74,30 75,110
76,90 77,230 78,250 79,90
89,40 90,40 95,220 103,30
104,400 105,280 106,80 107,60
125,160 126,180 127,60 128,110
144,60 145,3643 146,300 154,40
159,40 172,30 173,9999 174,861
175,50 232,540 233,160 234,250
248,30 259,40 276,40 277,80
278,130 279,60 386,250 387,40
405,8187 406,1331 407,120
##END=
