##TITLE=4-Cyano-1-triisobutylsilyloxybenzene
##JCAMP-DX=4.24
##DATA TYPE=MASS SPECTRUM
##ORIGIN=Zaikin V.G., TIPS RAS, Moscow, Russia
##OWNER=NIST Mass Spectrometry Data Center
Collection (C) 2014 copyright by the U.S. Secretary of Commerce
on behalf of the United States of America. All rights reserved.
##$NIST MASS SPEC NO=307958
##MOLFORM=C19 H31 N O Si
##MW=317
##$NIST SOURCE=MSDC
##XUNITS=M/Z
##YUNITS=RELATIVE INTENSITY
##XFACTOR=1
##YFACTOR=1
##FIRSTX=28
##LASTX=319
##FIRSTY=10
##MAXX=319
##MINX=28
##MAXY=9999
##MINY=10
##NPOINTS=42
##PEAK TABLE=(XY..XY)
28,10 36,40 59,70 85,110
91,330 102,100 103,40 104,140
116,30 143,30 146,831 147,110
148,520 149,70 160,120 161,80
162,6626 163,961 164,300 174,30
175,100 176,300 177,50 188,150
189,30 191,130 193,80 200,70
202,80 203,90 204,8177 205,1301
206,430 218,661 219,110 260,9999
261,2292 262,621 263,70 317,1221
318,310 319,70
##END=
