##TITLE=Cyclopropanecarboxylic acid, 4-nitrophenyl ester
##JCAMP-DX=4.24
##DATA TYPE=MASS SPECTRUM
##ORIGIN=Zaikin V.G., TIPS RAS, Moscow, Russia
##OWNER=NIST Mass Spectrometry Data Center
Collection (C) 2014 copyright by the U.S. Secretary of Commerce
on behalf of the United States of America. All rights reserved.
##$NIST MASS SPEC NO=307527
##MOLFORM=C10 H9 N O4
##MW=207
##$NIST SOURCE=MSDC
##XUNITS=M/Z
##YUNITS=RELATIVE INTENSITY
##XFACTOR=1
##YFACTOR=1
##FIRSTX=26
##LASTX=207
##FIRSTY=50
##MAXX=207
##MINX=26
##MAXY=9999
##MINY=20
##NPOINTS=42
##PEAK TABLE=(XY..XY)
26,50 27,90 28,50 30,140
36,130 37,30 38,220 39,1171
40,180 41,3423 42,120 44,90
50,130 51,70 52,60 53,60
54,30 55,70 62,80 63,380
64,230 65,160 68,110 69,9999
70,430 74,40 75,80 76,70
77,30 79,30 80,40 81,40
91,20 92,40 93,40 108,30
109,340 110,30 119,40 139,30
177,40 207,30
##END=
