##TITLE=2-Bromobenzoic acid, 4-benzyloxyphenyl ester
##JCAMP-DX=4.24
##DATA TYPE=MASS SPECTRUM
##ORIGIN=Zaikin V.G., TIPS RAS, Moscow, Russia
##OWNER=NIST Mass Spectrometry Data Center
Collection (C) 2014 copyright by the U.S. Secretary of Commerce
on behalf of the United States of America. All rights reserved.
##$NIST MASS SPEC NO=307750
##MOLFORM=C20 H15 Br O3
##MW=382
##$NIST SOURCE=MSDC
##XUNITS=M/Z
##YUNITS=RELATIVE INTENSITY
##XFACTOR=1
##YFACTOR=1
##FIRSTX=26
##LASTX=386
##FIRSTY=30
##MAXX=386
##MINX=26
##MAXY=9999
##MINY=10
##NPOINTS=50
##PEAK TABLE=(XY..XY)
26,30 28,10 38,30 39,130
41,50 50,270 51,130 52,50
53,30 54,80 63,140 64,60
65,771 66,40 74,90 75,550
76,781 77,150 79,30 80,60
81,40 82,120 89,170 90,100
91,9128 92,731 93,30 104,250
105,130 108,30 110,90 111,30
128,30 139,40 155,1541 156,160
157,1441 158,110 165,40 183,9999
184,801 185,9589 186,751 187,30
212,30 382,1982 383,430 384,1952
385,410 386,50
##END=
