##TITLE=Benzamide, N-(3-chlorophenyl)-4-ethyl-
##JCAMP-DX=4.24
##DATA TYPE=MASS SPECTRUM
##ORIGIN=Zaikin V.G., TIPS RAS, Moscow, Russia
##OWNER=NIST Mass Spectrometry Data Center
Collection (C) 2014 copyright by the U.S. Secretary of Commerce
on behalf of the United States of America. All rights reserved.
##$NIST MASS SPEC NO=307015
##MOLFORM=C15 H14 Cl N O
##MW=259
##$NIST SOURCE=MSDC
##XUNITS=M/Z
##YUNITS=RELATIVE INTENSITY
##XFACTOR=1
##YFACTOR=1
##FIRSTX=27
##LASTX=262
##FIRSTY=80
##MAXX=262
##MINX=27
##MAXY=9999
##MINY=30
##NPOINTS=38
##PEAK TABLE=(XY..XY)
27,80 28,30 39,90 50,50
51,110 52,30 53,40 63,120
64,50 65,100 75,50 76,60
77,631 78,130 79,601 80,40
89,140 90,170 91,100 99,80
101,30 102,50 103,420 104,310
105,731 106,70 118,30 127,130
129,70 131,50 132,40 133,9999
134,811 135,50 259,1351 260,230
261,450 262,70
##END=
