##TITLE=2-Bromobenzoic acid, 4-methoxyphenyl ester
##JCAMP-DX=4.24
##DATA TYPE=MASS SPECTRUM
##ORIGIN=Zaikin V.G., TIPS RAS, Moscow, Russia
##OWNER=NIST Mass Spectrometry Data Center
Collection (C) 2014 copyright by the U.S. Secretary of Commerce
on behalf of the United States of America. All rights reserved.
##$NIST MASS SPEC NO=307745
##MOLFORM=C14 H11 Br O3
##MW=306
##$NIST SOURCE=MSDC
##XUNITS=M/Z
##YUNITS=RELATIVE INTENSITY
##XFACTOR=1
##YFACTOR=1
##FIRSTX=26
##LASTX=309
##FIRSTY=50
##MAXX=309
##MINX=26
##MAXY=9999
##MINY=20
##NPOINTS=49
##PEAK TABLE=(XY..XY)
26,50 28,20 38,30 39,80
41,160 44,30 50,300 51,100
52,120 53,60 54,90 63,80
64,70 65,80 74,100 75,520
76,761 77,120 79,30 80,130
81,40 82,90 92,40 95,250
104,240 105,40 108,30 109,110
110,50 123,390 124,110 128,30
139,30 155,1401 156,140 157,1371
158,100 183,9999 184,831 185,9829
186,751 187,40 198,30 200,30
226,40 306,1251 307,190 308,1221
309,190
##END=
