##TITLE=1-Naphthoic acid, 4-nitrophenyl ester
##JCAMP-DX=4.24
##DATA TYPE=MASS SPECTRUM
##ORIGIN=Zaikin V.G., TIPS RAS, Moscow, Russia
##OWNER=NIST Mass Spectrometry Data Center
Collection (C) 2014 copyright by the U.S. Secretary of Commerce
on behalf of the United States of America. All rights reserved.
##$NIST MASS SPEC NO=307829
##MOLFORM=C17 H11 N O4
##MW=293
##$NIST SOURCE=MSDC
##XUNITS=M/Z
##YUNITS=RELATIVE INTENSITY
##XFACTOR=1
##YFACTOR=1
##FIRSTX=75
##LASTX=294
##FIRSTY=30
##MAXX=294
##MINX=75
##MAXY=9999
##MINY=30
##NPOINTS=13
##PEAK TABLE=(XY..XY)
75,30 77,150 101,100 126,290
127,3413 128,400 154,30 155,9999
156,1221 157,80 172,30 293,190
294,30
##END=
