##TITLE=Propanamide, N-(1-naphthyl)-2,2-dimethyl-
##JCAMP-DX=4.24
##DATA TYPE=MASS SPECTRUM
##ORIGIN=Zaikin V.G., TIPS RAS, Moscow, Russia
##OWNER=NIST Mass Spectrometry Data Center
Collection (C) 2014 copyright by the U.S. Secretary of Commerce
on behalf of the United States of America. All rights reserved.
##$NIST MASS SPEC NO=307202
##MOLFORM=C15 H17 N O
##MW=227
##$NIST SOURCE=MSDC
##XUNITS=M/Z
##YUNITS=RELATIVE INTENSITY
##XFACTOR=1
##YFACTOR=1
##FIRSTX=26
##LASTX=229
##FIRSTY=30
##MAXX=229
##MINX=26
##MAXY=9999
##MINY=30
##NPOINTS=63
##PEAK TABLE=(XY..XY)
26,30 27,110 28,230 29,571
36,30 39,260 40,40 41,1011
42,100 44,40 50,50 51,60
55,90 56,50 57,6015 58,280
62,40 63,150 64,40 65,90
69,70 70,30 71,40 74,30
75,70 76,50 77,100 85,340
86,30 87,40 88,90 89,240
90,50 91,30 101,60 102,30
113,150 114,310 115,2592 116,701
117,110 126,150 127,470 128,130
140,400 141,310 142,561 143,9999
144,1722 145,130 154,40 168,50
169,410 170,290 171,70 184,230
185,40 196,30 211,30 212,80
227,8648 228,1501 229,140
##END=
