##TITLE=Chloroacetic acid, 3-methylphenyl ester
##JCAMP-DX=4.24
##DATA TYPE=MASS SPECTRUM
##ORIGIN=Zaikin V.G., TIPS RAS, Moscow, Russia
##OWNER=NIST Mass Spectrometry Data Center
Collection (C) 2014 copyright by the U.S. Secretary of Commerce
on behalf of the United States of America. All rights reserved.
##$NIST MASS SPEC NO=307711
##MOLFORM=C9 H9 Cl O2
##MW=184
##$NIST SOURCE=MSDC
##XUNITS=M/Z
##YUNITS=RELATIVE INTENSITY
##XFACTOR=1
##YFACTOR=1
##FIRSTX=27
##LASTX=187
##FIRSTY=130
##MAXX=187
##MINX=27
##MAXY=9999
##MINY=20
##NPOINTS=41
##PEAK TABLE=(XY..XY)
27,130 28,20 36,50 38,60
39,380 40,30 41,30 42,70
44,30 49,340 50,150 51,330
52,200 53,230 62,40 63,170
64,60 65,250 66,30 74,30
76,70 77,1131 78,350 79,781
80,330 81,30 89,70 90,320
91,701 92,60 93,30 105,30
106,30 107,2112 108,9999 109,791
110,40 184,1281 185,120 186,440
187,30
##END=
