##TITLE=Butyric acid, 2-naphthyl ester
##JCAMP-DX=4.24
##DATA TYPE=MASS SPECTRUM
##ORIGIN=Zaikin V.G., TIPS RAS, Moscow, Russia
##OWNER=NIST Mass Spectrometry Data Center
Collection (C) 2014 copyright by the U.S. Secretary of Commerce
on behalf of the United States of America. All rights reserved.
##$NIST MASS SPEC NO=307519
##MOLFORM=C14 H14 O2
##MW=214
##$NIST SOURCE=MSDC
##XUNITS=M/Z
##YUNITS=RELATIVE INTENSITY
##XFACTOR=1
##YFACTOR=1
##FIRSTX=27
##LASTX=215
##FIRSTY=150
##MAXX=215
##MINX=27
##MAXY=9999
##MINY=20
##NPOINTS=35
##PEAK TABLE=(XY..XY)
27,150 28,30 36,70 39,120
41,240 43,821 44,60 50,30
51,40 55,50 62,40 63,160
65,90 71,280 74,30 75,50
77,50 87,30 88,50 89,200
101,20 113,50 114,80 115,1601
116,380 117,20 126,70 127,260
128,50 143,70 144,9999 145,1141
146,70 214,701 215,100
##END=
