##TITLE=Benzamide, N-(2-iodo-4-methylphenyl)-4-chloro-
##JCAMP-DX=4.24
##DATA TYPE=MASS SPECTRUM
##ORIGIN=Zaikin V.G., TIPS RAS, Moscow, Russia
##OWNER=NIST Mass Spectrometry Data Center
Collection (C) 2014 copyright by the U.S. Secretary of Commerce
on behalf of the United States of America. All rights reserved.
##$NIST MASS SPEC NO=307401
##MOLFORM=C14 H11 Cl I N O
##MW=371
##$NIST SOURCE=MSDC
##XUNITS=M/Z
##YUNITS=RELATIVE INTENSITY
##XFACTOR=1
##YFACTOR=1
##FIRSTX=28
##LASTX=374
##FIRSTY=10
##MAXX=374
##MINX=28
##MAXY=9999
##MINY=10
##NPOINTS=46
##PEAK TABLE=(XY..XY)
28,10 36,40 39,60 50,160
51,210 52,110 63,70 65,30
74,60 75,500 76,290 77,270
78,260 79,90 85,30 89,50
90,40 103,30 104,561 105,280
106,70 107,30 110,40 111,2112
112,170 113,691 114,50 127,50
128,80 138,30 139,9999 140,751
141,3333 142,240 180,40 232,160
233,150 234,120 243,40 244,70
245,60 246,60 371,5415 372,851
373,1802 374,270
##END=
