##TITLE=2-Trifluoromethylbenzoic acid, 4-chlorophenyl ester
##JCAMP-DX=4.24
##DATA TYPE=MASS SPECTRUM
##ORIGIN=Zaikin V.G., TIPS RAS, Moscow, Russia
##OWNER=NIST Mass Spectrometry Data Center
Collection (C) 2014 copyright by the U.S. Secretary of Commerce
on behalf of the United States of America. All rights reserved.
##$NIST MASS SPEC NO=307669
##MOLFORM=C14 H8 Cl F3 O2
##MW=300
##$NIST SOURCE=MSDC
##XUNITS=M/Z
##YUNITS=RELATIVE INTENSITY
##XFACTOR=1
##YFACTOR=1
##FIRSTX=75
##LASTX=302
##FIRSTY=110
##MAXX=302
##MINX=75
##MAXY=9999
##MINY=30
##NPOINTS=14
##PEAK TABLE=(XY..XY)
75,110 95,230 99,90 125,130
126,70 144,50 145,2212 146,170
151,30 173,9999 174,881 175,50
300,200 302,60
##END=
