##TITLE=2-Chlorobenzoic acid, 2-naphthyl ester
##JCAMP-DX=4.24
##DATA TYPE=MASS SPECTRUM
##ORIGIN=Zaikin V.G., TIPS RAS, Moscow, Russia
##OWNER=NIST Mass Spectrometry Data Center
Collection (C) 2014 copyright by the U.S. Secretary of Commerce
on behalf of the United States of America. All rights reserved.
##$NIST MASS SPEC NO=307821
##MOLFORM=C17 H11 Cl O2
##MW=282
##$NIST SOURCE=MSDC
##XUNITS=M/Z
##YUNITS=RELATIVE INTENSITY
##XFACTOR=1
##YFACTOR=1
##FIRSTX=50
##LASTX=285
##FIRSTY=30
##MAXX=285
##MINX=50
##MAXY=9999
##MINY=20
##NPOINTS=27
##PEAK TABLE=(XY..XY)
50,30 51,20 63,40 65,30
75,380 76,110 89,80 104,30
111,1631 112,110 113,550 114,50
115,611 116,40 127,40 139,9999
140,811 141,3413 142,250 143,30
144,30 189,40 199,30 282,1902
283,340 284,641 285,100
##END=
