##TITLE=Benzamide, N-(2,5-dimethoxyphenyl)-3-bromo-
##JCAMP-DX=4.24
##DATA TYPE=MASS SPECTRUM
##ORIGIN=Zaikin V.G., TIPS RAS, Moscow, Russia
##OWNER=NIST Mass Spectrometry Data Center
Collection (C) 2014 copyright by the U.S. Secretary of Commerce
on behalf of the United States of America. All rights reserved.
##$NIST MASS SPEC NO=307157
##MOLFORM=C15 H14 Br N O3
##MW=335
##$NIST SOURCE=MSDC
##XUNITS=M/Z
##YUNITS=RELATIVE INTENSITY
##XFACTOR=1
##YFACTOR=1
##FIRSTX=26
##LASTX=339
##FIRSTY=30
##MAXX=339
##MINX=26
##MAXY=9999
##MINY=30
##NPOINTS=108
##PEAK TABLE=(XY..XY)
26,30 27,30 28,60 36,40
38,30 39,120 41,50 44,70
50,280 51,190 52,240 53,90
54,40 55,40 63,60 64,40
65,120 66,50 67,40 68,120
69,60 74,100 75,601 76,1431
77,290 78,80 79,320 80,240
81,110 82,160 90,50 91,60
92,110 93,150 94,60 95,170
96,30 103,70 104,741 105,180
106,60 107,180 108,110 109,140
110,100 111,30 122,160 123,170
124,130 125,230 135,50 136,130
137,40 138,691 139,370 140,40
150,100 151,70 152,200 153,110
154,310 155,2512 156,200 157,2392
158,190 164,150 165,70 170,40
182,60 183,9999 184,801 185,9569
186,751 187,40 196,30 197,40
198,60 200,260 201,30 210,30
212,30 213,30 225,60 226,90
241,60 256,30 257,40 288,30
289,30 290,30 291,30 292,50
294,40 303,40 304,631 305,160
306,651 307,120 320,2242 321,370
322,2222 323,350 324,30 335,8428
336,1461 337,8398 338,1421 339,160
##END=
