##TITLE=Thiophene-2-carboxamide, N-(3-chlorophenyl)-
##JCAMP-DX=4.24
##DATA TYPE=MASS SPECTRUM
##ORIGIN=Zaikin V.G., TIPS RAS, Moscow, Russia
##OWNER=NIST Mass Spectrometry Data Center
Collection (C) 2014 copyright by the U.S. Secretary of Commerce
on behalf of the United States of America. All rights reserved.
##$NIST MASS SPEC NO=307070
##MOLFORM=C11 H8 Cl N O S
##MW=237
##$NIST SOURCE=MSDC
##XUNITS=M/Z
##YUNITS=RELATIVE INTENSITY
##XFACTOR=1
##YFACTOR=1
##FIRSTX=28
##LASTX=241
##FIRSTY=10
##MAXX=241
##MINX=28
##MAXY=9999
##MINY=10
##NPOINTS=37
##PEAK TABLE=(XY..XY)
28,10 38,40 39,611 45,50
50,30 51,30 57,60 58,40
62,30 63,100 64,60 65,50
73,50 75,80 81,30 82,70
83,440 84,60 85,30 90,40
91,50 92,30 99,120 101,90
111,9999 112,510 113,410 126,30
127,180 128,30 129,60 173,40
237,2702 238,330 239,951 240,120
241,40
##END=
