##TITLE=4-Bromobutyric acid, 3-methylphenyl ester
##JCAMP-DX=4.24
##DATA TYPE=MASS SPECTRUM
##ORIGIN=Zaikin V.G., TIPS RAS, Moscow, Russia
##OWNER=NIST Mass Spectrometry Data Center
Collection (C) 2014 copyright by the U.S. Secretary of Commerce
on behalf of the United States of America. All rights reserved.
##$NIST MASS SPEC NO=307606
##MOLFORM=C11 H13 Br O2
##MW=256
##$NIST SOURCE=MSDC
##XUNITS=M/Z
##YUNITS=RELATIVE INTENSITY
##XFACTOR=1
##YFACTOR=1
##FIRSTX=27
##LASTX=259
##FIRSTY=30
##MAXX=259
##MINX=27
##MAXY=9999
##MINY=20
##NPOINTS=32
##PEAK TABLE=(XY..XY)
27,30 39,90 41,540 42,90
51,20 53,30 55,60 65,70
77,260 78,70 79,210 80,100
90,100 91,190 105,70 107,731
108,9999 109,921 110,50 121,350
123,340 128,150 130,40 135,40
149,601 150,70 151,571 152,20
256,420 257,50 258,420 259,50
##END=
