##TITLE=3-Methylbut-2-enoic acid, 4-chlorophenyl ester
##JCAMP-DX=4.24
##DATA TYPE=MASS SPECTRUM
##ORIGIN=Zaikin V.G., TIPS RAS, Moscow, Russia
##OWNER=NIST Mass Spectrometry Data Center
Collection (C) 2014 copyright by the U.S. Secretary of Commerce
on behalf of the United States of America. All rights reserved.
##$NIST MASS SPEC NO=307593
##MOLFORM=C11 H11 Cl O2
##MW=210
##$NIST SOURCE=MSDC
##XUNITS=M/Z
##YUNITS=RELATIVE INTENSITY
##XFACTOR=1
##YFACTOR=1
##FIRSTX=27
##LASTX=212
##FIRSTY=220
##MAXX=212
##MINX=27
##MAXY=9999
##MINY=30
##NPOINTS=37
##PEAK TABLE=(XY..XY)
27,220 28,210 29,530 38,40
39,410 40,30 50,40 51,40
53,220 54,100 55,1932 56,80
63,100 64,50 65,80 67,50
73,120 75,80 82,240 83,9999
84,550 85,30 99,190 100,40
101,60 106,30 111,40 121,60
124,60 127,60 128,310 129,40
130,90 144,30 210,280 211,30
212,90
##END=
