##TITLE=Pentanamide, N-(2,5-dimethoxyphenyl)-5-chloro-
##JCAMP-DX=4.24
##DATA TYPE=MASS SPECTRUM
##ORIGIN=Zaikin V.G., TIPS RAS, Moscow, Russia
##OWNER=NIST Mass Spectrometry Data Center
Collection (C) 2014 copyright by the U.S. Secretary of Commerce
on behalf of the United States of America. All rights reserved.
##$NIST MASS SPEC NO=307363
##MOLFORM=C13 H18 Cl N O3
##MW=271
##$NIST SOURCE=MSDC
##XUNITS=M/Z
##YUNITS=RELATIVE INTENSITY
##XFACTOR=1
##YFACTOR=1
##FIRSTX=29
##LASTX=274
##FIRSTY=100
##MAXX=274
##MINX=29
##MAXY=9999
##MINY=70
##NPOINTS=48
##PEAK TABLE=(XY..XY)
29,100 39,80 41,70 51,70
52,130 53,100 55,901 63,80
65,80 67,70 68,100 79,210
80,80 91,240 92,110 93,180
95,290 107,170 108,70 109,120
110,450 111,70 122,180 123,80
124,100 125,110 136,100 138,9999
139,921 140,70 150,180 151,70
152,130 153,7917 154,1131 155,70
164,270 165,410 179,90 180,70
235,80 236,130 240,130 256,70
271,4614 272,711 273,1591 274,230
##END=
