##TITLE=4-Chloro-1-dimethylisopropylsilyloxybenzene
##JCAMP-DX=4.24
##DATA TYPE=MASS SPECTRUM
##ORIGIN=Zaikin V.G., TIPS RAS, Moscow, Russia
##OWNER=NIST Mass Spectrometry Data Center
Collection (C) 2014 copyright by the U.S. Secretary of Commerce
on behalf of the United States of America. All rights reserved.
##$NIST MASS SPEC NO=307909
##MOLFORM=C11 H17 Cl O Si
##MW=228
##$NIST SOURCE=MSDC
##XUNITS=M/Z
##YUNITS=RELATIVE INTENSITY
##XFACTOR=1
##YFACTOR=1
##FIRSTX=28
##LASTX=232
##FIRSTY=40
##MAXX=232
##MINX=28
##MAXY=9999
##MINY=30
##NPOINTS=41
##PEAK TABLE=(XY..XY)
28,40 59,100 73,110 75,170
77,30 79,330 81,80 91,120
92,60 93,360 95,150 101,30
111,120 113,40 117,40 121,80
125,70 129,50 131,30 135,150
149,250 150,90 151,30 155,180
157,120 169,90 171,150 173,40
185,9999 186,1481 187,3703 188,500
189,140 197,30 213,120 215,40
228,2432 229,410 230,881 231,140
232,30
##END=
