##TITLE=1-Adamantanecarboxylic acid, 4-chlorophenyl ester
##JCAMP-DX=4.24
##DATA TYPE=MASS SPECTRUM
##ORIGIN=Zaikin V.G., TIPS RAS, Moscow, Russia
##OWNER=NIST Mass Spectrometry Data Center
Collection (C) 2014 copyright by the U.S. Secretary of Commerce
on behalf of the United States of America. All rights reserved.
##$NIST MASS SPEC NO=307660
##MOLFORM=C17 H19 Cl O2
##MW=290
##$NIST SOURCE=MSDC
##XUNITS=M/Z
##YUNITS=RELATIVE INTENSITY
##XFACTOR=1
##YFACTOR=1
##FIRSTX=41
##LASTX=290
##FIRSTY=80
##MAXX=290
##MINX=41
##MAXY=9999
##MINY=30
##NPOINTS=26
##PEAK TABLE=(XY..XY)
41,80 53,30 55,80 65,30
67,210 69,40 77,170 78,40
79,691 80,60 81,180 91,250
92,80 93,721 94,50 99,40
105,60 107,380 127,40 128,70
135,9999 136,1171 137,40 163,901
164,100 290,50
##END=
