##TITLE=Benzamide, N-(3-chlorophenyl)-3-bromo-
##JCAMP-DX=4.24
##DATA TYPE=MASS SPECTRUM
##ORIGIN=Zaikin V.G., TIPS RAS, Moscow, Russia
##OWNER=NIST Mass Spectrometry Data Center
Collection (C) 2014 copyright by the U.S. Secretary of Commerce
on behalf of the United States of America. All rights reserved.
##$NIST MASS SPEC NO=307154
##MOLFORM=C13 H9 Br Cl N O
##MW=309
##$NIST SOURCE=MSDC
##XUNITS=M/Z
##YUNITS=RELATIVE INTENSITY
##XFACTOR=1
##YFACTOR=1
##FIRSTX=27
##LASTX=314
##FIRSTY=30
##MAXX=314
##MINX=27
##MAXY=9999
##MINY=30
##NPOINTS=72
##PEAK TABLE=(XY..XY)
27,30 28,70 36,80 37,30
38,90 39,110 41,30 44,80
49,30 50,591 51,180 52,60
62,80 63,300 64,200 65,160
73,130 74,270 75,1261 76,1762
77,250 80,60 82,60 89,30
90,130 91,190 92,80 97,30
99,380 100,60 101,130 102,40
103,50 104,460 105,120 111,100
113,30 115,90 116,30 125,30
126,70 127,420 128,70 129,140
131,30 136,30 137,70 138,40
139,60 140,40 153,30 154,30
155,2823 156,250 157,2662 158,200
166,90 167,60 183,9999 184,801
185,9919 186,771 187,40 201,40
202,30 204,60 309,3043 310,460
311,3954 312,611 313,1041 314,140
##END=
