##TITLE=Acetamide, N-(4-methoxyphenyl)-2-acetoxy-
##JCAMP-DX=4.24
##DATA TYPE=MASS SPECTRUM
##ORIGIN=Zaikin V.G., TIPS RAS, Moscow, Russia
##OWNER=NIST Mass Spectrometry Data Center
Collection (C) 2014 copyright by the U.S. Secretary of Commerce
on behalf of the United States of America. All rights reserved.
##$NIST MASS SPEC NO=307093
##MOLFORM=C11 H13 N O4
##MW=223
##$NIST SOURCE=MSDC
##XUNITS=M/Z
##YUNITS=RELATIVE INTENSITY
##XFACTOR=1
##YFACTOR=1
##FIRSTX=26
##LASTX=225
##FIRSTY=40
##MAXX=225
##MINX=26
##MAXY=9999
##MINY=20
##NPOINTS=70
##PEAK TABLE=(XY..XY)
26,40 27,40 28,20 29,70
31,50 36,30 38,40 39,120
41,210 42,130 43,3233 44,90
50,70 51,160 52,400 53,270
54,40 62,30 63,180 64,200
65,250 66,50 67,70 71,30
73,510 74,170 76,40 77,210
78,180 79,210 80,380 81,90
90,60 91,80 92,240 93,70
94,30 95,530 96,40 101,250
104,30 106,170 107,150 108,4334
109,450 110,30 120,360 121,120
122,2132 123,9999 124,911 125,50
132,40 133,50 134,280 135,510
136,220 137,50 149,270 150,250
162,60 163,30 164,50 165,40
180,130 181,1001 182,100 223,6055
224,791 225,90
##END=
