##TITLE=Thiophene-2-carboxamide, N-(4-bromophenyl)-
##JCAMP-DX=4.24
##DATA TYPE=MASS SPECTRUM
##ORIGIN=Zaikin V.G., TIPS RAS, Moscow, Russia
##OWNER=NIST Mass Spectrometry Data Center
Collection (C) 2014 copyright by the U.S. Secretary of Commerce
on behalf of the United States of America. All rights reserved.
##$NIST MASS SPEC NO=307072
##MOLFORM=C11 H8 Br N O S
##MW=281
##$NIST SOURCE=MSDC
##XUNITS=M/Z
##YUNITS=RELATIVE INTENSITY
##XFACTOR=1
##YFACTOR=1
##FIRSTX=28
##LASTX=285
##FIRSTY=20
##MAXX=285
##MINX=28
##MAXY=9999
##MINY=20
##NPOINTS=42
##PEAK TABLE=(XY..XY)
28,20 38,60 39,631 45,50
50,50 51,30 57,70 58,40
62,40 63,170 64,120 65,80
75,50 76,40 80,30 81,30
82,70 83,430 84,60 90,70
91,210 92,70 111,9999 112,550
113,420 117,30 119,30 143,80
145,80 155,20 157,30 170,50
171,130 172,80 173,160 201,70
233,40 281,2182 282,280 283,2172
284,280 285,110
##END=
