##TITLE=o-Toluic acid, 2-naphthyl ester
##JCAMP-DX=4.24
##DATA TYPE=MASS SPECTRUM
##ORIGIN=Zaikin V.G., TIPS RAS, Moscow, Russia
##OWNER=NIST Mass Spectrometry Data Center
Collection (C) 2014 copyright by the U.S. Secretary of Commerce
on behalf of the United States of America. All rights reserved.
##$NIST MASS SPEC NO=307461
##MOLFORM=C18 H14 O2
##MW=262
##$NIST SOURCE=MSDC
##XUNITS=M/Z
##YUNITS=RELATIVE INTENSITY
##XFACTOR=1
##YFACTOR=1
##FIRSTX=28
##LASTX=263
##FIRSTY=10
##MAXX=263
##MINX=28
##MAXY=9999
##MINY=10
##NPOINTS=31
##PEAK TABLE=(XY..XY)
28,10 36,40 39,100 41,30
50,30 51,60 62,30 63,160
64,40 65,591 66,30 75,30
77,30 88,30 89,270 90,170
91,2732 92,230 113,30 114,40
115,741 116,90 118,70 119,9999
120,871 121,50 126,30 127,50
144,150 262,1121 263,220
##END=
