##TITLE=Propanamide, N-(2-iodo-4-methylphenyl)-2-chloro-
##JCAMP-DX=4.24
##DATA TYPE=MASS SPECTRUM
##ORIGIN=Zaikin V.G., TIPS RAS, Moscow, Russia
##OWNER=NIST Mass Spectrometry Data Center
Collection (C) 2014 copyright by the U.S. Secretary of Commerce
on behalf of the United States of America. All rights reserved.
##$NIST MASS SPEC NO=307490
##MOLFORM=C10 H11 Cl I N O
##MW=323
##$NIST SOURCE=MSDC
##XUNITS=M/Z
##YUNITS=RELATIVE INTENSITY
##XFACTOR=1
##YFACTOR=1
##FIRSTX=26
##LASTX=326
##FIRSTY=70
##MAXX=326
##MINX=26
##MAXY=9999
##MINY=10
##NPOINTS=86
##PEAK TABLE=(XY..XY)
26,70 27,410 28,10 29,80
36,100 38,80 39,200 40,60
41,40 44,100 50,180 51,460
52,360 53,90 54,50 55,240
56,70 57,40 61,30 62,100
63,1081 64,130 65,380 66,40
74,50 75,80 76,180 77,881
78,761 79,410 80,100 82,40
89,420 90,661 91,190 92,40
93,40 102,50 103,100 104,1271
105,1151 106,811 107,200 108,40
115,60 116,50 117,200 118,170
127,100 128,110 130,40 131,30
132,180 133,721 134,110 135,30
138,300 143,110 146,70 153,30
160,270 161,360 162,40 165,30
196,130 197,50 198,50 199,30
217,360 230,80 231,50 232,2943
233,5365 234,1131 235,60 259,280
260,4444 261,410 272,30 287,130
288,130 289,170 323,9999 324,1171
325,3383 326,370
##END=
