##TITLE=Butanamide, N-(1-naphthyl)-2,2,3,3,4,4,4-heptafluoro-
##JCAMP-DX=4.24
##DATA TYPE=MASS SPECTRUM
##ORIGIN=Zaikin V.G., TIPS RAS, Moscow, Russia
##OWNER=NIST Mass Spectrometry Data Center
Collection (C) 2014 copyright by the U.S. Secretary of Commerce
on behalf of the United States of America. All rights reserved.
##$NIST MASS SPEC NO=307283
##MOLFORM=C14 H8 F7 N O
##MW=339
##$NIST SOURCE=MSDC
##XUNITS=M/Z
##YUNITS=RELATIVE INTENSITY
##XFACTOR=1
##YFACTOR=1
##FIRSTX=28
##LASTX=341
##FIRSTY=20
##MAXX=341
##MINX=28
##MAXY=9999
##MINY=20
##NPOINTS=53
##PEAK TABLE=(XY..XY)
28,20 39,50 50,50 51,50
58,120 62,40 63,130 64,20
65,50 69,240 71,350 74,40
75,60 76,40 77,100 85,210
87,40 88,70 89,150 100,70
101,60 113,140 114,280 115,2823
116,430 117,20 119,40 126,150
127,1261 128,180 140,330 141,230
142,2252 143,400 144,1061 145,120
152,30 153,50 169,330 170,1271
171,160 172,60 203,90 219,50
277,60 291,30 300,40 320,200
321,30 338,60 339,9999 340,1461
341,120
##END=
