##TITLE=Cyclopropanecarboxamide, N-(4-fluorophenyl)-
##JCAMP-DX=4.24
##DATA TYPE=MASS SPECTRUM
##ORIGIN=Zaikin V.G., TIPS RAS, Moscow, Russia
##OWNER=NIST Mass Spectrometry Data Center
Collection (C) 2014 copyright by the U.S. Secretary of Commerce
on behalf of the United States of America. All rights reserved.
##$NIST MASS SPEC NO=307185
##MOLFORM=C10 H10 F N O
##MW=179
##$NIST SOURCE=MSDC
##XUNITS=M/Z
##YUNITS=RELATIVE INTENSITY
##XFACTOR=1
##YFACTOR=1
##FIRSTX=26
##LASTX=180
##FIRSTY=30
##MAXX=180
##MINX=26
##MAXY=9999
##MINY=20
##NPOINTS=47
##PEAK TABLE=(XY..XY)
26,30 27,60 28,20 38,60
39,721 40,110 41,2102 42,80
50,50 51,40 52,40 55,60
56,30 57,320 62,40 63,110
64,60 65,30 68,80 69,3393
70,170 74,20 75,200 81,80
82,140 83,781 84,310 89,40
91,30 94,30 95,260 96,60
108,30 109,150 110,340 111,9999
112,661 122,40 124,160 135,30
137,60 138,60 148,30 150,30
178,40 179,2542 180,300
##END=
