##TITLE=trans-3-Trifluoromethylcinnamic acid, 4-cyanophenyl ester
##JCAMP-DX=4.24
##DATA TYPE=MASS SPECTRUM
##ORIGIN=Zaikin V.G., TIPS RAS, Moscow, Russia
##OWNER=NIST Mass Spectrometry Data Center
Collection (C) 2014 copyright by the U.S. Secretary of Commerce
on behalf of the United States of America. All rights reserved.
##$NIST MASS SPEC NO=307811
##MOLFORM=C17 H10 F3 N O2
##MW=317
##$NIST SOURCE=MSDC
##XUNITS=M/Z
##YUNITS=RELATIVE INTENSITY
##XFACTOR=1
##YFACTOR=1
##FIRSTX=28
##LASTX=298
##FIRSTY=10
##MAXX=298
##MINX=28
##MAXY=9999
##MINY=10
##NPOINTS=25
##PEAK TABLE=(XY..XY)
28,10 36,30 44,30 63,30
75,40 90,60 91,290 95,30
101,30 102,250 119,100 120,40
135,50 145,150 151,1591 152,160
169,60 170,50 171,1922 172,130
199,9999 200,1131 201,50 216,30
298,130
##END=
