##TITLE=Propanamide, N-(2,5-dimethoxyphenyl)-2,2,3,3,3-pentafluoro-
##JCAMP-DX=4.24
##DATA TYPE=MASS SPECTRUM
##ORIGIN=Zaikin V.G., TIPS RAS, Moscow, Russia
##OWNER=NIST Mass Spectrometry Data Center
Collection (C) 2014 copyright by the U.S. Secretary of Commerce
on behalf of the United States of America. All rights reserved.
##$NIST MASS SPEC NO=307334
##MOLFORM=C11 H10 F5 N O3
##MW=299
##$NIST SOURCE=MSDC
##XUNITS=M/Z
##YUNITS=RELATIVE INTENSITY
##XFACTOR=1
##YFACTOR=1
##FIRSTX=27
##LASTX=301
##FIRSTY=30
##MAXX=301
##MINX=27
##MAXY=9999
##MINY=20
##NPOINTS=104
##PEAK TABLE=(XY..XY)
27,30 28,170 36,60 38,30
39,160 40,30 41,60 44,130
50,60 51,150 52,190 53,100
54,50 55,40 62,40 63,110
64,80 65,460 66,130 67,40
68,180 69,230 76,60 77,110
78,140 79,390 80,180 81,70
82,60 83,30 90,60 91,60
92,470 93,160 94,160 95,120
96,40 100,50 106,170 107,290
108,200 109,360 110,100 111,591
112,30 119,440 120,60 121,60
122,320 123,80 124,70 125,130
134,40 135,40 136,140 137,260
138,390 139,951 140,80 149,30
150,1171 151,250 152,90 163,20
164,390 165,6095 166,641 167,90
179,140 180,260 184,50 185,30
198,30 199,20 202,90 213,30
217,30 220,30 224,80 225,30
226,30 229,50 232,40 236,30
237,30 241,40 249,160 250,50
252,40 253,80 256,350 257,30
260,30 265,60 266,40 268,100
280,280 283,30 284,9438 285,1231
286,120 299,9999 300,1391 301,150
##END=
