##TITLE=4-Nitro-1-tripropylsilyloxybenzene
##JCAMP-DX=4.24
##DATA TYPE=MASS SPECTRUM
##ORIGIN=Zaikin V.G., TIPS RAS, Moscow, Russia
##OWNER=NIST Mass Spectrometry Data Center
Collection (C) 2014 copyright by the U.S. Secretary of Commerce
on behalf of the United States of America. All rights reserved.
##$NIST MASS SPEC NO=307846
##MOLFORM=C15 H25 N O3 Si
##MW=295
##$NIST SOURCE=MSDC
##XUNITS=M/Z
##YUNITS=RELATIVE INTENSITY
##XFACTOR=1
##YFACTOR=1
##FIRSTX=28
##LASTX=297
##FIRSTY=20
##MAXX=297
##MINX=28
##MAXY=9999
##MINY=20
##NPOINTS=45
##PEAK TABLE=(XY..XY)
28,20 36,60 73,50 77,40
115,60 120,80 121,350 122,821
123,100 135,30 136,140 138,30
139,60 149,290 150,30 151,60
152,30 164,3843 165,621 166,540
167,50 168,791 169,80 180,80
182,1331 183,170 184,40 193,110
194,200 195,60 206,80 210,5555
211,891 212,270 224,30 236,60
252,9999 253,1982 254,561 255,50
265,80 279,90 295,1481 296,320
297,60
##END=
