##TITLE=Acetamide, N-tetrahydrofurfuryl-2,2,2-trifluoro-
##JCAMP-DX=4.24
##DATA TYPE=MASS SPECTRUM
##ORIGIN=Zaikin V.G., TIPS RAS, Moscow, Russia
##OWNER=NIST Mass Spectrometry Data Center
Collection (C) 2014 copyright by the U.S. Secretary of Commerce
on behalf of the United States of America. All rights reserved.
##$NIST MASS SPEC NO=307307
##MOLFORM=C7 H10 F3 N O2
##MW=197
##$NIST SOURCE=MSDC
##XUNITS=M/Z
##YUNITS=RELATIVE INTENSITY
##XFACTOR=1
##YFACTOR=1
##FIRSTX=26
##LASTX=156
##FIRSTY=50
##MAXX=156
##MINX=26
##MAXY=9999
##MINY=20
##NPOINTS=50
##PEAK TABLE=(XY..XY)
26,50 27,751 28,120 29,510
30,70 31,70 36,30 39,460
40,190 41,2052 42,581 43,4514
44,370 50,60 51,50 53,140
54,330 55,310 56,200 57,150
58,260 59,20 67,140 68,40
69,1371 70,150 71,9999 72,520
73,30 78,370 79,50 82,130
83,120 84,490 85,110 96,40
97,120 98,120 100,60 106,50
108,30 110,80 126,1191 127,170
128,410 129,30 138,140 139,100
152,120 156,50
##END=
