##TITLE=Valeric acid, 3-methylphenyl ester
##JCAMP-DX=4.24
##DATA TYPE=MASS SPECTRUM
##ORIGIN=Zaikin V.G., TIPS RAS, Moscow, Russia
##OWNER=NIST Mass Spectrometry Data Center
Collection (C) 2014 copyright by the U.S. Secretary of Commerce
on behalf of the United States of America. All rights reserved.
##$NIST MASS SPEC NO=307983
##MOLFORM=C12 H16 O2
##MW=192
##$NIST SOURCE=MSDC
##XUNITS=M/Z
##YUNITS=RELATIVE INTENSITY
##XFACTOR=1
##YFACTOR=1
##FIRSTX=27
##LASTX=193
##FIRSTY=90
##MAXX=193
##MINX=27
##MAXY=9999
##MINY=10
##NPOINTS=41
##PEAK TABLE=(XY..XY)
27,90 28,160 29,400 36,50
38,10 39,110 41,500 42,10
43,10 44,20 51,40 52,30
53,50 55,250 56,30 57,2062
58,80 63,10 65,120 73,40
77,300 78,70 79,290 80,130
84,10 85,1201 86,50 89,20
90,110 91,260 92,10 105,20
106,10 107,891 108,9999 109,951
110,50 121,10 135,10 192,1231
193,140
##END=
