##TITLE=2-(3-Cyanopropyl)dimethylsilyloxynaphthalene
##JCAMP-DX=4.24
##DATA TYPE=MASS SPECTRUM
##ORIGIN=Zaikin V.G., TIPS RAS, Moscow, Russia
##OWNER=NIST Mass Spectrometry Data Center
Collection (C) 2014 copyright by the U.S. Secretary of Commerce
on behalf of the United States of America. All rights reserved.
##$NIST MASS SPEC NO=307935
##MOLFORM=C16 H19 N O Si
##MW=269
##$NIST SOURCE=MSDC
##XUNITS=M/Z
##YUNITS=RELATIVE INTENSITY
##XFACTOR=1
##YFACTOR=1
##FIRSTX=28
##LASTX=272
##FIRSTY=40
##MAXX=272
##MINX=28
##MAXY=9999
##MINY=30
##NPOINTS=74
##PEAK TABLE=(XY..XY)
28,40 59,60 65,30 70,70
75,190 77,80 84,40 85,60
86,100 91,550 92,30 93,40
98,3873 99,370 100,1001 101,210
106,60 107,70 113,180 115,260
119,30 120,100 123,40 126,9969
127,2182 128,681 129,40 131,40
135,30 139,80 141,971 142,120
143,50 144,50 145,1411 146,180
147,30 154,30 155,80 167,50
170,50 171,210 172,40 173,290
174,40 180,30 181,60 183,90
184,70 185,2963 186,520 187,190
196,190 197,40 198,40 199,260
200,310 201,9068 202,1812 203,510
204,30 213,240 214,60 226,430
227,90 240,30 241,310 242,50
254,430 255,70 269,9999 270,2232
271,571 272,50
##END=
