##TITLE=1-Adamantanecarboxylic acid , 4-benzyloxyphenyl ester
##JCAMP-DX=4.24
##DATA TYPE=MASS SPECTRUM
##ORIGIN=Zaikin V.G., TIPS RAS, Moscow, Russia
##OWNER=NIST Mass Spectrometry Data Center
Collection (C) 2014 copyright by the U.S. Secretary of Commerce
on behalf of the United States of America. All rights reserved.
##$NIST MASS SPEC NO=307667
##MOLFORM=C24 H26 O3
##MW=362
##$NIST SOURCE=MSDC
##XUNITS=M/Z
##YUNITS=RELATIVE INTENSITY
##XFACTOR=1
##YFACTOR=1
##FIRSTX=41
##LASTX=363
##FIRSTY=50
##MAXX=363
##MINX=41
##MAXY=9999
##MINY=30
##NPOINTS=24
##PEAK TABLE=(XY..XY)
41,50 55,80 65,90 67,170
69,40 77,80 79,500 80,30
81,140 91,1301 92,140 93,520
94,40 105,30 107,280 133,30
135,9999 136,1111 137,50 163,280
334,851 335,210 362,951 363,240
##END=
