##TITLE=1-Naphthoic acid, 2-naphthyl ester
##JCAMP-DX=4.24
##DATA TYPE=MASS SPECTRUM
##ORIGIN=Zaikin V.G., TIPS RAS, Moscow, Russia
##OWNER=NIST Mass Spectrometry Data Center
Collection (C) 2014 copyright by the U.S. Secretary of Commerce
on behalf of the United States of America. All rights reserved.
##$NIST MASS SPEC NO=307830
##MOLFORM=C21 H14 O2
##MW=298
##$NIST SOURCE=MSDC
##XUNITS=M/Z
##YUNITS=RELATIVE INTENSITY
##XFACTOR=1
##YFACTOR=1
##FIRSTX=77
##LASTX=299
##FIRSTY=100
##MAXX=299
##MINX=77
##MAXY=9999
##MINY=30
##NPOINTS=13
##PEAK TABLE=(XY..XY)
77,100 101,70 115,140 126,200
127,3053 128,360 144,40 155,9999
156,1211 157,70 172,30 298,1131
299,240
##END=
