##TITLE=Benzamide, N-(4-fluorophenyl)-4-fluoro-
##JCAMP-DX=4.24
##DATA TYPE=MASS SPECTRUM
##ORIGIN=Zaikin V.G., TIPS RAS, Moscow, Russia
##OWNER=NIST Mass Spectrometry Data Center
Collection (C) 2014 copyright by the U.S. Secretary of Commerce
on behalf of the United States of America. All rights reserved.
##$NIST MASS SPEC NO=307101
##MOLFORM=C13 H9 F2 N O
##MW=233
##$NIST SOURCE=MSDC
##XUNITS=M/Z
##YUNITS=RELATIVE INTENSITY
##XFACTOR=1
##YFACTOR=1
##FIRSTX=28
##LASTX=235
##FIRSTY=20
##MAXX=235
##MINX=28
##MAXY=9999
##MINY=20
##NPOINTS=30
##PEAK TABLE=(XY..XY)
28,20 50,70 51,50 57,130
63,40 68,30 69,80 74,50
75,581 76,60 81,30 82,50
83,300 84,60 94,130 95,2883
96,230 109,50 110,70 111,180
122,40 123,9999 124,681 125,40
203,60 204,30 232,40 233,3253
234,470 235,30
##END=
