##TITLE=5-Bromovaleric acid, 3-methylphenyl ester
##JCAMP-DX=4.24
##DATA TYPE=MASS SPECTRUM
##ORIGIN=Zaikin V.G., TIPS RAS, Moscow, Russia
##OWNER=NIST Mass Spectrometry Data Center
Collection (C) 2014 copyright by the U.S. Secretary of Commerce
on behalf of the United States of America. All rights reserved.
##$NIST MASS SPEC NO=307641
##MOLFORM=C12 H15 Br O2
##MW=270
##$NIST SOURCE=MSDC
##XUNITS=M/Z
##YUNITS=RELATIVE INTENSITY
##XFACTOR=1
##YFACTOR=1
##FIRSTX=27
##LASTX=273
##FIRSTY=100
##MAXX=273
##MINX=27
##MAXY=9999
##MINY=30
##NPOINTS=34
##PEAK TABLE=(XY..XY)
27,100 28,40 29,120 39,110
41,70 53,70 55,1311 56,60
63,30 65,90 77,250 78,70
79,190 80,70 83,50 90,70
91,330 93,50 107,691 108,9999
109,1041 110,60 119,200 121,80
122,400 123,30 135,530 137,510
163,310 165,310 270,390 271,40
272,390 273,50
##END=
