##TITLE=4-Benzyloxy-1-dimethylisopropylsilyloxybenzene
##JCAMP-DX=4.24
##DATA TYPE=MASS SPECTRUM
##ORIGIN=Zaikin V.G., TIPS RAS, Moscow, Russia
##OWNER=NIST Mass Spectrometry Data Center
Collection (C) 2014 copyright by the U.S. Secretary of Commerce
on behalf of the United States of America. All rights reserved.
##$NIST MASS SPEC NO=307915
##MOLFORM=C18 H24 O2 Si
##MW=300
##$NIST SOURCE=MSDC
##XUNITS=M/Z
##YUNITS=RELATIVE INTENSITY
##XFACTOR=1
##YFACTOR=1
##FIRSTX=28
##LASTX=303
##FIRSTY=40
##MAXX=303
##MINX=28
##MAXY=9999
##MINY=30
##NPOINTS=39
##PEAK TABLE=(XY..XY)
28,40 36,110 44,50 58,30
59,1051 60,40 65,190 73,3323
74,240 75,180 79,40 91,6256
92,440 95,30 101,6236 102,611
103,190 110,80 123,180 135,70
138,130 139,60 151,30 165,50
166,200 167,140 193,40 200,90
207,210 209,9999 210,1702 211,430
257,571 258,90 285,170 300,8297
301,2062 302,530 303,50
##END=
