##TITLE=1-Adamantanecarboxamide, N-(3-chlorophenyl)-
##JCAMP-DX=4.24
##DATA TYPE=MASS SPECTRUM
##ORIGIN=Zaikin V.G., TIPS RAS, Moscow, Russia
##OWNER=NIST Mass Spectrometry Data Center
Collection (C) 2014 copyright by the U.S. Secretary of Commerce
on behalf of the United States of America. All rights reserved.
##$NIST MASS SPEC NO=307467
##MOLFORM=C17 H20 Cl N O
##MW=289
##$NIST SOURCE=MSDC
##XUNITS=M/Z
##YUNITS=RELATIVE INTENSITY
##XFACTOR=1
##YFACTOR=1
##FIRSTX=27
##LASTX=292
##FIRSTY=40
##MAXX=292
##MINX=27
##MAXY=9999
##MINY=10
##NPOINTS=58
##PEAK TABLE=(XY..XY)
27,40 28,10 29,40 39,110
40,30 41,260 43,40 51,40
53,120 55,210 57,30 63,50
64,30 65,140 66,40 67,350
69,80 75,40 77,400 78,100
79,951 80,80 81,280 90,30
91,440 92,130 93,911 94,80
99,90 101,20 105,120 107,460
108,40 111,90 113,30 119,30
126,80 127,200 128,50 129,60
133,30 135,9999 136,1081 137,50
153,30 154,30 163,300 164,30
167,30 169,30 204,450 205,60
206,140 261,70 289,1401 290,280
291,490 292,90
##END=
