##TITLE=Nicotinic acid, 4-cyanophenyl ester
##JCAMP-DX=4.24
##DATA TYPE=MASS SPECTRUM
##ORIGIN=Zaikin V.G., TIPS RAS, Moscow, Russia
##OWNER=NIST Mass Spectrometry Data Center
Collection (C) 2014 copyright by the U.S. Secretary of Commerce
on behalf of the United States of America. All rights reserved.
##$NIST MASS SPEC NO=307950
##MOLFORM=C13 H8 N2 O2
##MW=224
##$NIST SOURCE=MSDC
##XUNITS=M/Z
##YUNITS=RELATIVE INTENSITY
##XFACTOR=1
##YFACTOR=1
##FIRSTX=28
##LASTX=224
##FIRSTY=20
##MAXX=224
##MINX=28
##MAXY=9999
##MINY=20
##NPOINTS=13
##PEAK TABLE=(XY..XY)
28,20 50,70 51,811 52,70
64,40 78,2943 79,180 90,50
106,9999 107,661 119,70 122,370
224,180
##END=
