##TITLE=Cyclopropanecarboxamide, N-(2,5-dimethoxyphenyl)-
##JCAMP-DX=4.24
##DATA TYPE=MASS SPECTRUM
##ORIGIN=Zaikin V.G., TIPS RAS, Moscow, Russia
##OWNER=NIST Mass Spectrometry Data Center
Collection (C) 2014 copyright by the U.S. Secretary of Commerce
on behalf of the United States of America. All rights reserved.
##$NIST MASS SPEC NO=307190
##MOLFORM=C12 H15 N O3
##MW=221
##$NIST SOURCE=MSDC
##XUNITS=M/Z
##YUNITS=RELATIVE INTENSITY
##XFACTOR=1
##YFACTOR=1
##FIRSTX=26
##LASTX=223
##FIRSTY=30
##MAXX=223
##MINX=26
##MAXY=9999
##MINY=20
##NPOINTS=82
##PEAK TABLE=(XY..XY)
26,30 27,50 28,20 36,50
38,40 39,490 40,100 41,1521
42,70 44,30 50,50 51,170
52,280 53,140 54,60 55,100
63,80 64,50 65,160 66,90
67,100 68,240 69,2172 70,100
76,40 77,110 78,90 79,340
80,150 81,50 82,70 90,50
91,40 92,130 93,160 94,80
95,320 96,40 106,70 107,220
108,170 109,140 110,470 111,80
121,40 122,210 123,200 124,100
125,210 134,30 135,40 136,120
137,30 138,9999 139,891 140,70
150,210 151,180 152,130 153,8117
154,821 155,60 160,30 162,50
164,250 165,170 166,100 171,40
173,50 174,30 175,30 176,30
178,60 179,70 189,40 190,250
191,50 206,380 207,80 221,8568
222,1181 223,130
##END=
