##TITLE=Valeric acid, 4-methoxyphenyl ester
##JCAMP-DX=4.24
##DATA TYPE=MASS SPECTRUM
##ORIGIN=Zaikin V.G., TIPS RAS, Moscow, Russia
##OWNER=NIST Mass Spectrometry Data Center
Collection (C) 2014 copyright by the U.S. Secretary of Commerce
on behalf of the United States of America. All rights reserved.
##$NIST MASS SPEC NO=307986
##MOLFORM=C12 H16 O3
##MW=208
##$NIST SOURCE=MSDC
##XUNITS=M/Z
##YUNITS=RELATIVE INTENSITY
##XFACTOR=1
##YFACTOR=1
##FIRSTX=27
##LASTX=209
##FIRSTY=40
##MAXX=209
##MINX=27
##MAXY=9999
##MINY=10
##NPOINTS=40
##PEAK TABLE=(XY..XY)
27,40 28,70 29,190 36,10
39,40 41,270 44,10 51,10
52,30 53,30 54,10 55,80
57,571 58,20 63,10 64,30
65,40 73,10 77,60 79,10
80,20 81,120 82,10 85,190
92,50 93,20 95,100 96,10
107,30 108,10 109,1631 110,110
121,30 122,10 123,160 124,9999
125,861 126,60 208,510 209,90
##END=
