##TITLE=Benzamide, N-(4-bromophenyl)-3-bromo-
##JCAMP-DX=4.24
##DATA TYPE=MASS SPECTRUM
##ORIGIN=Zaikin V.G., TIPS RAS, Moscow, Russia
##OWNER=NIST Mass Spectrometry Data Center
Collection (C) 2014 copyright by the U.S. Secretary of Commerce
on behalf of the United States of America. All rights reserved.
##$NIST MASS SPEC NO=307156
##MOLFORM=C13 H9 Br2 N O
##MW=353
##$NIST SOURCE=MSDC
##XUNITS=M/Z
##YUNITS=RELATIVE INTENSITY
##XFACTOR=1
##YFACTOR=1
##FIRSTX=26
##LASTX=358
##FIRSTY=30
##MAXX=358
##MINX=26
##MAXY=9999
##MINY=20
##NPOINTS=68
##PEAK TABLE=(XY..XY)
26,30 28,50 36,30 38,80
39,110 41,30 44,60 50,480
51,140 52,50 62,70 63,360
64,250 65,200 74,200 75,951
76,1641 77,240 79,50 80,110
81,40 82,110 90,160 91,500
92,150 93,30 103,50 104,520
105,120 117,60 119,60 129,30
131,30 139,70 140,40 143,170
145,160 155,2572 156,220 157,2532
158,190 166,110 167,100 170,80
171,260 172,140 173,240 174,60
183,9999 184,781 185,9909 186,751
187,40 195,30 248,70 250,60
273,70 275,100 276,30 277,20
305,30 307,30 353,2462 354,380
355,4864 356,731 357,2352 358,360
##END=
