##TITLE=Cyclobutanecarboxamide, N-(2-iodo-4-methylphenyl)-
##JCAMP-DX=4.24
##DATA TYPE=MASS SPECTRUM
##ORIGIN=Zaikin V.G., TIPS RAS, Moscow, Russia
##OWNER=NIST Mass Spectrometry Data Center
Collection (C) 2014 copyright by the U.S. Secretary of Commerce
on behalf of the United States of America. All rights reserved.
##$NIST MASS SPEC NO=307053
##MOLFORM=C12 H14 I N O
##MW=315
##$NIST SOURCE=MSDC
##XUNITS=M/Z
##YUNITS=RELATIVE INTENSITY
##XFACTOR=1
##YFACTOR=1
##FIRSTX=26
##LASTX=317
##FIRSTY=40
##MAXX=317
##MINX=26
##MAXY=9999
##MINY=30
##NPOINTS=49
##PEAK TABLE=(XY..XY)
26,40 27,200 28,80 29,200
39,160 50,50 51,140 52,100
53,140 54,60 55,2582 56,110
63,70 64,30 65,40 76,50
77,290 78,250 79,150 82,30
83,591 84,30 89,100 90,140
91,40 103,40 104,430 105,290
106,390 107,130 117,50 119,60
127,100 128,180 132,30 159,30
160,70 217,30 230,30 232,270
233,9999 234,701 246,80 259,80
260,50 287,90 315,4224 316,520
317,40
##END=
