##TITLE=Dichloroacetic acid, 4-cyanophenyl ester
##JCAMP-DX=4.24
##DATA TYPE=MASS SPECTRUM
##ORIGIN=Zaikin V.G., TIPS RAS, Moscow, Russia
##OWNER=NIST Mass Spectrometry Data Center
Collection (C) 2014 copyright by the U.S. Secretary of Commerce
on behalf of the United States of America. All rights reserved.
##$NIST MASS SPEC NO=307587
##MOLFORM=C9 H5 Cl2 N O2
##MW=229
##$NIST SOURCE=MSDC
##XUNITS=M/Z
##YUNITS=RELATIVE INTENSITY
##XFACTOR=1
##YFACTOR=1
##FIRSTX=26
##LASTX=233
##FIRSTY=50
##MAXX=233
##MINX=26
##MAXY=9999
##MINY=10
##NPOINTS=76
##PEAK TABLE=(XY..XY)
26,50 27,60 28,10 29,30
35,40 36,260 37,290 38,310
39,500 40,30 41,60 44,80
47,100 48,380 49,110 50,260
51,350 52,110 53,50 61,70
62,270 63,821 64,951 65,90
73,30 74,80 75,530 76,1021
77,130 78,270 79,50 82,80
83,5715 84,130 85,3683 86,50
87,611 88,80 89,80 90,1141
91,320 92,50 99,50 102,4144
103,350 110,1561 111,400 112,1021
113,250 114,160 115,30 118,170
119,9999 120,831 121,40 124,60
133,50 135,30 138,50 146,711
147,70 150,90 162,701 163,50
164,470 165,30 166,881 167,70
168,270 201,70 203,40 229,1742
230,170 231,1171 232,110 233,190
##END=
