##TITLE=Monobenzone, TBDMS derivative
##JCAMP-DX=4.24
##DATA TYPE=MASS SPECTRUM
##ORIGIN=Zaikin V.G., TIPS RAS, Moscow, Russia
##OWNER=NIST Mass Spectrometry Data Center
Collection (C) 2014 copyright by the U.S. Secretary of Commerce
on behalf of the United States of America. All rights reserved.
##$NIST MASS SPEC NO=307927
##MOLFORM=C19 H26 O2 Si
##MW=314
##$NIST SOURCE=MSDC
##XUNITS=M/Z
##YUNITS=RELATIVE INTENSITY
##XFACTOR=1
##YFACTOR=1
##FIRSTX=28
##LASTX=317
##FIRSTY=20
##MAXX=317
##MINX=28
##MAXY=9999
##MINY=20
##NPOINTS=34
##PEAK TABLE=(XY..XY)
28,20 36,30 44,40 59,120
65,130 73,861 74,60 75,40
91,6726 92,440 95,30 109,30
110,70 115,3143 116,300 117,40
123,200 135,150 138,170 139,50
165,60 166,250 167,210 223,9699
224,1672 225,410 257,2102 258,540
259,100 299,100 314,9999 315,2342
316,591 317,50
##END=
