##TITLE=1-Diisopropyloctylsilyloxy-3,5-dimethylbenzene
##JCAMP-DX=4.24
##DATA TYPE=MASS SPECTRUM
##ORIGIN=Zaikin V.G., TIPS RAS, Moscow, Russia
##OWNER=NIST Mass Spectrometry Data Center
Collection (C) 2014 copyright by the U.S. Secretary of Commerce
on behalf of the United States of America. All rights reserved.
##$NIST MASS SPEC NO=307851
##MOLFORM=C22 H40 O Si
##MW=348
##$NIST SOURCE=MSDC
##XUNITS=M/Z
##YUNITS=RELATIVE INTENSITY
##XFACTOR=1
##YFACTOR=1
##FIRSTX=28
##LASTX=350
##FIRSTY=10
##MAXX=350
##MINX=28
##MAXY=9999
##MINY=10
##NPOINTS=33
##PEAK TABLE=(XY..XY)
28,10 79,80 105,330 119,110
139,80 141,30 149,460 150,40
151,300 163,550 165,5535 166,731
167,130 177,80 179,480 183,90
191,210 192,30 193,7257 194,1201
195,250 205,60 207,410 219,100
235,180 263,90 277,280 305,9999
306,2602 307,480 348,1882 349,400
350,60
##END=
