##TITLE=5-Chlorovaleric acid, 4-nitrophenyl ester
##JCAMP-DX=4.24
##DATA TYPE=MASS SPECTRUM
##ORIGIN=Zaikin V.G., TIPS RAS, Moscow, Russia
##OWNER=NIST Mass Spectrometry Data Center
Collection (C) 2014 copyright by the U.S. Secretary of Commerce
on behalf of the United States of America. All rights reserved.
##$NIST MASS SPEC NO=307980
##MOLFORM=C11 H12 Cl N O4
##MW=257
##$NIST SOURCE=MSDC
##XUNITS=M/Z
##YUNITS=RELATIVE INTENSITY
##XFACTOR=1
##YFACTOR=1
##FIRSTX=26
##LASTX=166
##FIRSTY=70
##MAXX=166
##MINX=26
##MAXY=9999
##MINY=30
##NPOINTS=54
##PEAK TABLE=(XY..XY)
26,70 27,520 28,320 29,811
30,220 36,80 38,120 39,561
40,40 41,390 42,210 43,40
49,100 50,170 51,100 52,60
53,270 54,70 55,6896 56,360
62,120 63,721 64,330 65,410
66,30 69,40 74,40 75,220
76,190 77,40 79,30 80,50
81,80 82,30 83,270 89,60
91,5045 92,360 93,1882 94,130
108,50 109,671 110,60 117,30
118,70 119,9999 120,591 121,3413
122,300 123,430 124,30 139,220
140,50 166,30
##END=
