##TITLE=4-Nitro-1-triisobutylsilyloxybenzene
##JCAMP-DX=4.24
##DATA TYPE=MASS SPECTRUM
##ORIGIN=Zaikin V.G., TIPS RAS, Moscow, Russia
##OWNER=NIST Mass Spectrometry Data Center
Collection (C) 2014 copyright by the U.S. Secretary of Commerce
on behalf of the United States of America. All rights reserved.
##$NIST MASS SPEC NO=307960
##MOLFORM=C18 H31 N O3 Si
##MW=337
##$NIST SOURCE=MSDC
##XUNITS=M/Z
##YUNITS=RELATIVE INTENSITY
##XFACTOR=1
##YFACTOR=1
##FIRSTX=59
##LASTX=339
##FIRSTY=130
##MAXX=339
##MINX=59
##MAXY=9999
##MINY=30
##NPOINTS=54
##PEAK TABLE=(XY..XY)
59,130 77,40 78,70 85,230
87,40 91,60 101,30 120,70
121,380 122,520 123,80 135,70
136,480 137,70 138,30 143,70
150,30 151,40 152,40 161,30
163,60 165,60 166,540 167,60
168,230 178,240 179,40 181,30
182,5735 183,751 184,270 194,30
195,50 196,250 197,30 207,310
208,30 222,70 223,70 224,7277
225,1261 226,360 227,30 238,581
239,90 264,40 280,9999 281,2212
282,651 283,70 321,50 337,550
338,140 339,30
##END=
