##TITLE=Cyclopentanecarboxylic acid, 4-chlorophenyl ester
##JCAMP-DX=4.24
##DATA TYPE=MASS SPECTRUM
##ORIGIN=Zaikin V.G., TIPS RAS, Moscow, Russia
##OWNER=NIST Mass Spectrometry Data Center
Collection (C) 2014 copyright by the U.S. Secretary of Commerce
on behalf of the United States of America. All rights reserved.
##$NIST MASS SPEC NO=307575
##MOLFORM=C12 H13 Cl O2
##MW=224
##$NIST SOURCE=MSDC
##XUNITS=M/Z
##YUNITS=RELATIVE INTENSITY
##XFACTOR=1
##YFACTOR=1
##FIRSTX=27
##LASTX=227
##FIRSTY=150
##MAXX=227
##MINX=27
##MAXY=9999
##MINY=10
##NPOINTS=43
##PEAK TABLE=(XY..XY)
27,150 28,10 38,30 39,380
40,90 41,1461 42,70 50,40
51,30 53,80 55,480 63,130
64,80 65,250 66,50 67,410
68,240 69,9999 70,530 73,150
75,150 93,30 95,40 96,951
97,4924 98,320 99,290 100,110
101,90 102,30 111,160 113,50
127,110 128,2302 129,200 130,751
131,50 141,30 183,60 224,731
225,110 226,250 227,30
##END=
