##TITLE=4-Cyano-1-cyclohexyldimethylsilyloxybenzene
##JCAMP-DX=4.24
##DATA TYPE=MASS SPECTRUM
##ORIGIN=Zaikin V.G., TIPS RAS, Moscow, Russia
##OWNER=NIST Mass Spectrometry Data Center
Collection (C) 2014 copyright by the U.S. Secretary of Commerce
on behalf of the United States of America. All rights reserved.
##$NIST MASS SPEC NO=307884
##MOLFORM=C15 H21 N O Si
##MW=259
##$NIST SOURCE=MSDC
##XUNITS=M/Z
##YUNITS=RELATIVE INTENSITY
##XFACTOR=1
##YFACTOR=1
##FIRSTX=36
##LASTX=261
##FIRSTY=40
##MAXX=261
##MINX=36
##MAXY=9999
##MINY=30
##NPOINTS=37
##PEAK TABLE=(XY..XY)
36,40 59,150 67,60 74,90
75,150 79,40 81,150 82,90
102,60 116,100 119,30 120,80
121,70 125,40 135,40 139,40
146,220 148,30 149,40 160,280
161,30 162,1091 163,150 164,70
174,50 176,9999 177,5295 178,2452
179,420 180,70 216,40 229,50
244,210 245,30 259,2082 260,440
261,100
##END=
