##TITLE=2-Butenamide, N-(1-naphthyl)-3-methyl-
##JCAMP-DX=4.24
##DATA TYPE=MASS SPECTRUM
##ORIGIN=Zaikin V.G., TIPS RAS, Moscow, Russia
##OWNER=NIST Mass Spectrometry Data Center
Collection (C) 2014 copyright by the U.S. Secretary of Commerce
on behalf of the United States of America. All rights reserved.
##$NIST MASS SPEC NO=307274
##MOLFORM=C15 H15 N O
##MW=225
##$NIST SOURCE=MSDC
##XUNITS=M/Z
##YUNITS=RELATIVE INTENSITY
##XFACTOR=1
##YFACTOR=1
##FIRSTX=27
##LASTX=227
##FIRSTY=100
##MAXX=227
##MINX=27
##MAXY=9999
##MINY=30
##NPOINTS=40
##PEAK TABLE=(XY..XY)
27,100 28,120 29,300 39,210
51,40 53,120 54,30 55,1011
56,40 63,70 65,40 67,30
75,30 77,50 82,60 83,3653
84,200 88,40 89,120 113,60
114,120 115,1181 116,330 117,50
126,60 127,130 128,50 140,150
141,80 142,140 143,9999 144,1001
145,50 165,30 169,30 180,50
181,60 225,2112 226,360 227,30
##END=
