##TITLE=3-Cyclopentylpropionic acid, 4-benzyloxyphenyl ester
##JCAMP-DX=4.24
##DATA TYPE=MASS SPECTRUM
##ORIGIN=Zaikin V.G., TIPS RAS, Moscow, Russia
##OWNER=NIST Mass Spectrometry Data Center
Collection (C) 2014 copyright by the U.S. Secretary of Commerce
on behalf of the United States of America. All rights reserved.
##$NIST MASS SPEC NO=307138
##MOLFORM=C21 H24 O3
##MW=324
##$NIST SOURCE=MSDC
##XUNITS=M/Z
##YUNITS=RELATIVE INTENSITY
##XFACTOR=1
##YFACTOR=1
##FIRSTX=26
##LASTX=325
##FIRSTY=30
##MAXX=325
##MINX=26
##MAXY=9999
##MINY=30
##NPOINTS=51
##PEAK TABLE=(XY..XY)
26,30 27,80 28,30 29,80
39,190 40,30 41,550 42,40
43,80 44,50 51,50 52,30
53,90 54,80 55,1191 56,70
57,40 63,70 64,30 65,410
66,30 67,200 68,50 69,330
77,40 79,260 80,80 81,320
82,60 83,60 89,70 90,50
91,9999 92,771 93,40 95,90
97,150 105,30 107,260 108,30
109,70 110,190 125,170 133,70
200,4884 201,711 202,60 242,40
281,40 324,130 325,30
##END=
