##TITLE=Acetamide, N-(4-methoxyphenyl)-2-methoxy-
##JCAMP-DX=4.24
##DATA TYPE=MASS SPECTRUM
##ORIGIN=Zaikin V.G., TIPS RAS, Moscow, Russia
##OWNER=NIST Mass Spectrometry Data Center
Collection (C) 2014 copyright by the U.S. Secretary of Commerce
on behalf of the United States of America. All rights reserved.
##$NIST MASS SPEC NO=307259
##MOLFORM=C10 H13 N O3
##MW=195
##$NIST SOURCE=MSDC
##XUNITS=M/Z
##YUNITS=RELATIVE INTENSITY
##XFACTOR=1
##YFACTOR=1
##FIRSTX=26
##LASTX=197
##FIRSTY=30
##MAXX=197
##MINX=26
##MAXY=9999
##MINY=30
##NPOINTS=64
##PEAK TABLE=(XY..XY)
26,30 27,40 28,80 29,200
31,40 38,30 39,100 41,190
42,40 45,3153 46,70 50,60
51,140 52,360 53,230 54,30
62,30 63,150 64,190 65,190
66,40 67,70 76,50 77,240
78,170 79,190 80,230 81,70
90,50 91,80 92,200 93,80
94,70 95,591 96,40 104,60
106,170 107,150 108,871 109,180
120,601 121,661 122,3443 123,1291
124,200 132,30 133,30 134,310
135,1641 136,5405 137,510 138,30
149,811 150,380 151,100 152,90
162,50 164,120 165,841 166,220
167,40 195,9999 196,1131 197,110
##END=
