##TITLE=2-Furoic acid, 2-naphthyl ester
##JCAMP-DX=4.24
##DATA TYPE=MASS SPECTRUM
##ORIGIN=Zaikin V.G., TIPS RAS, Moscow, Russia
##OWNER=NIST Mass Spectrometry Data Center
Collection (C) 2014 copyright by the U.S. Secretary of Commerce
on behalf of the United States of America. All rights reserved.
##$NIST MASS SPEC NO=307999
##MOLFORM=C15 H10 O3
##MW=238
##$NIST SOURCE=MSDC
##XUNITS=M/Z
##YUNITS=RELATIVE INTENSITY
##XFACTOR=1
##YFACTOR=1
##FIRSTX=28
##LASTX=240
##FIRSTY=20
##MAXX=240
##MINX=28
##MAXY=9999
##MINY=10
##NPOINTS=35
##PEAK TABLE=(XY..XY)
28,20 36,60 38,10 39,270
44,20 51,10 63,30 65,30
67,150 77,10 89,50 91,30
95,9999 96,530 97,350 98,10
111,210 112,40 113,10 114,10
115,520 116,40 124,230 126,10
127,50 128,10 143,10 144,70
152,10 181,20 182,50 210,20
238,4274 239,711 240,50
##END=
