##TITLE=Cyclopropanecarboxylic acid, 4-benzyloxyphenyl ester
##JCAMP-DX=4.24
##DATA TYPE=MASS SPECTRUM
##ORIGIN=Zaikin V.G., TIPS RAS, Moscow, Russia
##OWNER=NIST Mass Spectrometry Data Center
Collection (C) 2014 copyright by the U.S. Secretary of Commerce
on behalf of the United States of America. All rights reserved.
##$NIST MASS SPEC NO=307529
##MOLFORM=C17 H16 O3
##MW=268
##$NIST SOURCE=MSDC
##XUNITS=M/Z
##YUNITS=RELATIVE INTENSITY
##XFACTOR=1
##YFACTOR=1
##FIRSTX=26
##LASTX=270
##FIRSTY=40
##MAXX=270
##MINX=26
##MAXY=9999
##MINY=30
##NPOINTS=40
##PEAK TABLE=(XY..XY)
26,40 27,40 28,100 35,30
36,250 38,100 39,480 40,60
41,1391 42,50 44,200 50,50
51,100 52,50 54,60 55,60
63,140 64,50 65,731 66,30
68,30 69,4374 70,180 77,60
79,40 81,50 89,140 90,80
91,9999 92,821 93,30 105,30
109,40 110,70 133,30 200,2712
201,380 268,2102 269,380 270,30
##END=
