##TITLE=Valeric acid, 4-nitrophenyl ester
##JCAMP-DX=4.24
##DATA TYPE=MASS SPECTRUM
##ORIGIN=Zaikin V.G., TIPS RAS, Moscow, Russia
##OWNER=NIST Mass Spectrometry Data Center
Collection (C) 2014 copyright by the U.S. Secretary of Commerce
on behalf of the United States of America. All rights reserved.
##$NIST MASS SPEC NO=307989
##MOLFORM=C11 H13 N O4
##MW=223
##$NIST SOURCE=MSDC
##XUNITS=M/Z
##YUNITS=RELATIVE INTENSITY
##XFACTOR=1
##YFACTOR=1
##FIRSTX=27
##LASTX=223
##FIRSTY=150
##MAXX=223
##MINX=27
##MAXY=9999
##MINY=10
##NPOINTS=52
##PEAK TABLE=(XY..XY)
27,150 28,400 29,1011 30,60
36,60 38,20 39,180 41,1421
42,120 43,70 44,40 50,30
51,10 52,10 53,20 55,500
56,150 57,6286 58,250 63,110
64,110 65,180 69,20 73,20
75,70 76,80 77,10 79,20
81,30 83,30 84,40 85,9999
86,571 87,20 91,30 92,40
93,130 94,20 107,10 108,10
109,250 110,10 122,70 123,250
124,30 136,20 139,110 140,20
166,40 181,30 207,30 223,40
##END=
