##TITLE=2-Furoic acid, 4-nitrophenyl ester
##JCAMP-DX=4.24
##DATA TYPE=MASS SPECTRUM
##ORIGIN=Zaikin V.G., TIPS RAS, Moscow, Russia
##OWNER=NIST Mass Spectrometry Data Center
Collection (C) 2014 copyright by the U.S. Secretary of Commerce
on behalf of the United States of America. All rights reserved.
##$NIST MASS SPEC NO=307998
##MOLFORM=C11 H7 N O5
##MW=233
##$NIST SOURCE=MSDC
##XUNITS=M/Z
##YUNITS=RELATIVE INTENSITY
##XFACTOR=1
##YFACTOR=1
##FIRSTX=30
##LASTX=235
##FIRSTY=10
##MAXX=235
##MINX=30
##MAXY=9999
##MINY=10
##NPOINTS=26
##PEAK TABLE=(XY..XY)
30,10 36,20 38,50 39,400
44,10 50,10 51,30 53,10
63,50 64,30 65,10 66,10
67,200 75,10 76,10 83,10
91,50 95,9999 96,561 97,40
111,330 112,30 113,10 233,450
234,140 235,10
##END=
