##TITLE=Acetamide, N-(3-nitrophenyl)-2-acetoxy-
##JCAMP-DX=4.24
##DATA TYPE=MASS SPECTRUM
##ORIGIN=Zaikin V.G., TIPS RAS, Moscow, Russia
##OWNER=NIST Mass Spectrometry Data Center
Collection (C) 2014 copyright by the U.S. Secretary of Commerce
on behalf of the United States of America. All rights reserved.
##$NIST MASS SPEC NO=307096
##MOLFORM=C10 H10 N2 O5
##MW=238
##$NIST SOURCE=MSDC
##XUNITS=M/Z
##YUNITS=RELATIVE INTENSITY
##XFACTOR=1
##YFACTOR=1
##FIRSTX=26
##LASTX=240
##FIRSTY=30
##MAXX=240
##MINX=26
##MAXY=9999
##MINY=20
##NPOINTS=90
##PEAK TABLE=(XY..XY)
26,30 27,60 28,40 29,120
30,150 31,100 36,60 37,30
38,140 39,290 40,50 41,130
42,300 43,9999 44,260 45,50
50,260 51,220 52,280 53,90
54,90 61,30 62,120 63,611
64,721 65,761 66,110 72,20
73,3313 74,400 75,310 76,581
77,230 78,180 79,180 80,300
81,50 89,30 90,320 91,571
92,1431 93,220 94,30 100,160
101,7707 102,380 103,80 104,230
105,250 106,140 107,200 108,661
109,100 110,30 118,150 119,120
120,90 121,40 122,190 123,50
124,40 132,70 133,70 134,80
135,110 137,350 138,3603 139,651
140,50 148,100 149,190 150,190
151,190 152,50 164,100 165,430
166,90 178,70 179,60 180,30
181,100 192,30 196,290 197,40
207,50 208,350 209,40 238,2092
239,270 240,30
##END=
