##TITLE=3,4-Dichloro-1-diphenylvinylsilyloxybenzene
##JCAMP-DX=4.24
##DATA TYPE=MASS SPECTRUM
##ORIGIN=Zaikin V.G., TIPS RAS, Moscow, Russia
##OWNER=NIST Mass Spectrometry Data Center
Collection (C) 2014 copyright by the U.S. Secretary of Commerce
on behalf of the United States of America. All rights reserved.
##$NIST MASS SPEC NO=307859
##MOLFORM=C20 H16 Cl2 O Si
##MW=370
##$NIST SOURCE=MSDC
##XUNITS=M/Z
##YUNITS=RELATIVE INTENSITY
##XFACTOR=1
##YFACTOR=1
##FIRSTX=53
##LASTX=375
##FIRSTY=40
##MAXX=375
##MINX=53
##MAXY=9999
##MINY=20
##NPOINTS=104
##PEAK TABLE=(XY..XY)
53,40 63,50 77,60 79,30
91,40 103,30 105,731 106,90
107,100 115,60 129,30 130,110
131,340 132,40 139,210 141,70
145,90 146,20 147,60 151,50
152,110 153,40 154,70 155,100
165,60 167,40 172,30 175,70
177,40 178,60 179,40 180,150
181,871 182,160 183,3954 184,721
185,190 186,190 187,30 188,50
189,350 190,30 191,240 193,30
199,140 202,60 203,30 207,210
208,390 209,9999 210,2112 211,540
212,70 214,400 215,170 216,300
217,240 218,80 219,60 222,180
223,40 224,60 229,30 230,50
231,330 232,80 233,110 257,370
258,70 259,120 265,1171 266,641
267,1051 268,430 269,340 270,90
271,50 279,30 291,731 292,3613
293,1661 294,2542 295,871 296,540
297,130 300,420 301,100 307,80
329,60 335,360 336,100 337,130
341,50 343,1341 344,310 345,871
346,200 347,160 370,4314 371,1131
372,2993 373,761 374,611 375,140
##END=
