##TITLE=Cyclobutanecarboxamide, N-(4-fluorophenyl)-
##JCAMP-DX=4.24
##DATA TYPE=MASS SPECTRUM
##ORIGIN=Zaikin V.G., TIPS RAS, Moscow, Russia
##OWNER=NIST Mass Spectrometry Data Center
Collection (C) 2014 copyright by the U.S. Secretary of Commerce
on behalf of the United States of America. All rights reserved.
##$NIST MASS SPEC NO=307046
##MOLFORM=C11 H12 F N O
##MW=193
##$NIST SOURCE=MSDC
##XUNITS=M/Z
##YUNITS=RELATIVE INTENSITY
##XFACTOR=1
##YFACTOR=1
##FIRSTX=26
##LASTX=194
##FIRSTY=50
##MAXX=194
##MINX=26
##MAXY=9999
##MINY=30
##NPOINTS=37
##PEAK TABLE=(XY..XY)
26,50 27,390 28,130 29,340
39,200 50,30 51,40 52,30
53,180 54,90 55,3533 56,150
57,160 63,60 64,40 75,120
81,60 82,120 83,1081 84,240
93,60 95,220 96,50 109,140
110,320 111,9999 112,651 122,40
124,220 136,40 137,130 138,80
165,80 171,40 173,50 193,2202
194,290
##END=
