##TITLE=m-Toluic acid, 4-benzyloxyphenyl ester
##JCAMP-DX=4.24
##DATA TYPE=MASS SPECTRUM
##ORIGIN=Zaikin V.G., TIPS RAS, Moscow, Russia
##OWNER=NIST Mass Spectrometry Data Center
Collection (C) 2014 copyright by the U.S. Secretary of Commerce
on behalf of the United States of America. All rights reserved.
##$NIST MASS SPEC NO=307573
##MOLFORM=C21 H18 O3
##MW=318
##$NIST SOURCE=MSDC
##XUNITS=M/Z
##YUNITS=RELATIVE INTENSITY
##XFACTOR=1
##YFACTOR=1
##FIRSTX=26
##LASTX=320
##FIRSTY=33
##MAXX=320
##MINX=26
##MAXY=9999
##MINY=33
##NPOINTS=52
##PEAK TABLE=(XY..XY)
26,33 27,33 28,33 29,88
36,155 38,33 39,188 40,210
41,132 43,88 44,552 50,55
51,99 52,44 54,33 55,110
57,121 63,143 64,55 65,883
66,44 67,55 69,99 71,77
73,55 77,77 78,33 79,55
81,99 82,33 83,88 85,55
89,210 90,177 91,5353 92,464
93,33 95,99 96,88 97,110
105,66 109,55 110,66 111,66
115,33 118,55 119,9999 120,883
121,66 318,1876 319,452 320,55
##END=
