##TITLE=Benzamide, N-(4-fluorophenyl)-2,6-difluoro-
##JCAMP-DX=4.24
##DATA TYPE=MASS SPECTRUM
##ORIGIN=Zaikin V.G., TIPS RAS, Moscow, Russia
##OWNER=NIST Mass Spectrometry Data Center
Collection (C) 2014 copyright by the U.S. Secretary of Commerce
on behalf of the United States of America. All rights reserved.
##$NIST MASS SPEC NO=307427
##MOLFORM=C13 H8 F3 N O
##MW=251
##$NIST SOURCE=MSDC
##XUNITS=M/Z
##YUNITS=RELATIVE INTENSITY
##XFACTOR=1
##YFACTOR=1
##FIRSTX=28
##LASTX=253
##FIRSTY=50
##MAXX=253
##MINX=28
##MAXY=9999
##MINY=30
##NPOINTS=27
##PEAK TABLE=(XY..XY)
28,50 57,130 62,50 63,380
64,30 74,30 75,60 81,50
82,50 83,280 84,40 93,60
94,40 95,50 109,50 110,70
111,130 112,130 113,1271 114,130
140,60 141,9999 142,621 143,30
251,3443 252,470 253,30
##END=
