##TITLE=4-Butylbenzoic acid, 4-benzyloxyphenyl ester
##JCAMP-DX=4.24
##DATA TYPE=MASS SPECTRUM
##ORIGIN=Zaikin V.G., TIPS RAS, Moscow, Russia
##OWNER=NIST Mass Spectrometry Data Center
Collection (C) 2014 copyright by the U.S. Secretary of Commerce
on behalf of the United States of America. All rights reserved.
##$NIST MASS SPEC NO=307511
##MOLFORM=C24 H24 O3
##MW=360
##$NIST SOURCE=MSDC
##XUNITS=M/Z
##YUNITS=RELATIVE INTENSITY
##XFACTOR=1
##YFACTOR=1
##FIRSTX=39
##LASTX=361
##FIRSTY=50
##MAXX=361
##MINX=39
##MAXY=9999
##MINY=20
##NPOINTS=30
##PEAK TABLE=(XY..XY)
39,50 41,60 51,40 55,60
63,50 65,250 77,90 78,30
79,30 89,130 90,270 91,2312
92,210 103,80 104,60 105,110
110,30 115,40 117,30 118,180
119,30 131,110 132,20 133,130
159,50 161,9999 162,1181 163,60
360,951 361,250
##END=
