##TITLE=trans-Cinnamamide, N-(3-chlorophenyl)-3-trifluoromethyl-
##JCAMP-DX=4.24
##DATA TYPE=MASS SPECTRUM
##ORIGIN=Zaikin V.G., TIPS RAS, Moscow, Russia
##OWNER=NIST Mass Spectrometry Data Center
Collection (C) 2014 copyright by the U.S. Secretary of Commerce
on behalf of the United States of America. All rights reserved.
##$NIST MASS SPEC NO=307370
##MOLFORM=C16 H11 Cl F3 N O
##MW=325
##$NIST SOURCE=MSDC
##XUNITS=M/Z
##YUNITS=RELATIVE INTENSITY
##XFACTOR=1
##YFACTOR=1
##FIRSTX=28
##LASTX=328
##FIRSTY=20
##MAXX=328
##MINX=28
##MAXY=9999
##MINY=20
##NPOINTS=55
##PEAK TABLE=(XY..XY)
28,20 39,50 50,60 51,70
62,30 63,130 64,60 65,80
69,30 73,40 74,40 75,170
76,70 77,30 90,50 91,70
92,70 95,100 99,170 100,60
101,140 102,510 103,50 111,60
120,90 121,30 125,100 126,80
127,2242 128,170 129,731 130,90
145,290 146,20 151,2542 152,330
153,130 159,30 169,160 170,150
171,2412 172,270 180,170 182,40
199,9999 200,1061 201,70 306,270
307,40 308,90 324,40 325,1882
326,360 327,661 328,120
##END=
