##TITLE=1-Benzyloxy-4-diphenylvinylsilyloxybenzene
##JCAMP-DX=4.24
##DATA TYPE=MASS SPECTRUM
##ORIGIN=Zaikin V.G., TIPS RAS, Moscow, Russia
##OWNER=NIST Mass Spectrometry Data Center
Collection (C) 2014 copyright by the U.S. Secretary of Commerce
on behalf of the United States of America. All rights reserved.
##$NIST MASS SPEC NO=307862
##MOLFORM=C27 H24 O2 Si
##MW=408
##$NIST SOURCE=MSDC
##XUNITS=M/Z
##YUNITS=RELATIVE INTENSITY
##XFACTOR=1
##YFACTOR=1
##FIRSTX=65
##LASTX=411
##FIRSTY=40
##MAXX=411
##MINX=65
##MAXY=9999
##MINY=20
##NPOINTS=37
##PEAK TABLE=(XY..XY)
65,40 91,1231 92,100 105,330
106,50 107,40 131,160 155,30
167,30 169,40 180,40 181,360
182,70 183,2472 184,470 185,130
199,30 207,310 208,40 209,9999
210,2122 211,571 212,70 239,80
240,60 289,30 290,30 317,2712
318,811 319,200 329,20 330,40
381,70 408,6406 409,2172 410,591
411,110
##END=
