##TITLE=2-Bromobenzoic acid, 4-cyanophenyl ester
##JCAMP-DX=4.24
##DATA TYPE=MASS SPECTRUM
##ORIGIN=Zaikin V.G., TIPS RAS, Moscow, Russia
##OWNER=NIST Mass Spectrometry Data Center
Collection (C) 2014 copyright by the U.S. Secretary of Commerce
on behalf of the United States of America. All rights reserved.
##$NIST MASS SPEC NO=307746
##MOLFORM=C14 H8 Br N O2
##MW=301
##$NIST SOURCE=MSDC
##XUNITS=M/Z
##YUNITS=RELATIVE INTENSITY
##XFACTOR=1
##YFACTOR=1
##FIRSTX=26
##LASTX=221
##FIRSTY=30
##MAXX=221
##MINX=26
##MAXY=9999
##MINY=20
##NPOINTS=47
##PEAK TABLE=(XY..XY)
26,30 28,20 37,60 38,70
39,130 44,40 49,30 50,731
51,160 62,60 63,200 64,240
65,30 73,20 74,270 75,1441
76,1722 77,170 80,60 82,60
90,240 91,100 92,30 102,40
103,30 104,250 105,50 118,60
119,260 129,60 131,60 139,70
140,40 155,2322 156,190 157,2242
158,160 164,40 166,30 179,40
183,9999 184,741 185,9609 186,691
187,30 193,40 221,40
##END=
