##TITLE=1-Adamantanecarboxylic acid, 4-nitrophenyl ester
##JCAMP-DX=4.24
##DATA TYPE=MASS SPECTRUM
##ORIGIN=Zaikin V.G., TIPS RAS, Moscow, Russia
##OWNER=NIST Mass Spectrometry Data Center
Collection (C) 2014 copyright by the U.S. Secretary of Commerce
on behalf of the United States of America. All rights reserved.
##$NIST MASS SPEC NO=307665
##MOLFORM=C17 H19 N O4
##MW=301
##$NIST SOURCE=MSDC
##XUNITS=M/Z
##YUNITS=RELATIVE INTENSITY
##XFACTOR=1
##YFACTOR=1
##FIRSTX=41
##LASTX=164
##FIRSTY=110
##MAXX=164
##MINX=41
##MAXY=9999
##MINY=30
##NPOINTS=22
##PEAK TABLE=(XY..XY)
41,110 53,40 55,120 65,30
67,250 69,60 77,170 78,40
79,761 80,60 81,200 91,210
92,80 93,751 94,60 105,50
107,380 135,9999 136,1111 137,40
163,571 164,60
##END=
