##TITLE=Benzamide, N-(3-methylphenyl)-4-bromo-
##JCAMP-DX=4.24
##DATA TYPE=MASS SPECTRUM
##ORIGIN=Zaikin V.G., TIPS RAS, Moscow, Russia
##OWNER=NIST Mass Spectrometry Data Center
Collection (C) 2014 copyright by the U.S. Secretary of Commerce
on behalf of the United States of America. All rights reserved.
##$NIST MASS SPEC NO=307341
##MOLFORM=C14 H12 Br N O
##MW=289
##$NIST SOURCE=MSDC
##XUNITS=M/Z
##YUNITS=RELATIVE INTENSITY
##XFACTOR=1
##YFACTOR=1
##FIRSTX=27
##LASTX=293
##FIRSTY=40
##MAXX=293
##MINX=27
##MAXY=9999
##MINY=10
##NPOINTS=52
##PEAK TABLE=(XY..XY)
27,40 28,10 38,30 39,120
41,30 50,300 51,170 52,80
53,70 63,70 64,40 65,140
74,110 75,651 76,1081 77,681
78,210 79,240 80,50 82,40
89,40 91,130 103,60 104,681
105,130 106,250 107,320 108,140
132,60 144,50 145,70 152,30
154,30 155,2132 156,200 157,2052
158,160 165,30 166,40 167,140
180,90 181,60 183,9999 184,781
185,9619 186,741 187,40 289,4354
290,741 291,4354 292,691 293,60
##END=
