##TITLE=2-Bromobenzoic acid, 3,4-dichlorophenyl ester
##JCAMP-DX=4.24
##DATA TYPE=MASS SPECTRUM
##ORIGIN=Zaikin V.G., TIPS RAS, Moscow, Russia
##OWNER=NIST Mass Spectrometry Data Center
Collection (C) 2014 copyright by the U.S. Secretary of Commerce
on behalf of the United States of America. All rights reserved.
##$NIST MASS SPEC NO=307747
##MOLFORM=C13 H7 Br Cl2 O2
##MW=344
##$NIST SOURCE=MSDC
##XUNITS=M/Z
##YUNITS=RELATIVE INTENSITY
##XFACTOR=1
##YFACTOR=1
##FIRSTX=28
##LASTX=348
##FIRSTY=10
##MAXX=348
##MINX=28
##MAXY=9999
##MINY=10
##NPOINTS=44
##PEAK TABLE=(XY..XY)
28,10 36,40 50,350 51,50
62,50 63,190 73,90 74,160
75,741 76,911 77,80 80,30
82,30 97,30 98,40 99,60
104,220 105,30 107,30 109,60
126,20 129,30 131,20 133,180
135,110 139,70 155,1511 156,130
157,1511 158,110 161,50 162,150
163,40 164,90 173,30 183,9999
184,731 185,9819 186,721 187,40
202,70 344,80 346,140 348,60
##END=
