##TITLE=Benzamide, N-(4-methoxyphenyl)-3-fluoro-
##JCAMP-DX=4.24
##DATA TYPE=MASS SPECTRUM
##ORIGIN=Zaikin V.G., TIPS RAS, Moscow, Russia
##OWNER=NIST Mass Spectrometry Data Center
Collection (C) 2014 copyright by the U.S. Secretary of Commerce
on behalf of the United States of America. All rights reserved.
##$NIST MASS SPEC NO=307166
##MOLFORM=C14 H12 F N O2
##MW=245
##$NIST SOURCE=MSDC
##XUNITS=M/Z
##YUNITS=RELATIVE INTENSITY
##XFACTOR=1
##YFACTOR=1
##FIRSTX=28
##LASTX=247
##FIRSTY=10
##MAXX=247
##MINX=28
##MAXY=9999
##MINY=10
##NPOINTS=46
##PEAK TABLE=(XY..XY)
28,10 39,60 41,120 50,70
51,90 52,190 53,110 63,70
64,70 65,90 67,30 68,30
69,50 74,40 75,430 76,50
77,50 78,70 79,100 80,130
81,40 91,30 92,40 93,20
94,100 95,3163 96,260 106,60
107,60 108,100 109,110 121,30
122,1161 123,9999 124,1211 125,80
134,60 149,30 172,30 185,30
200,30 201,30 244,40 245,6956
246,1071 247,110
##END=
