##TITLE=Pentanamide, N-tetrahydrofurfuryl-5-chloro-
##JCAMP-DX=4.24
##DATA TYPE=MASS SPECTRUM
##ORIGIN=Zaikin V.G., TIPS RAS, Moscow, Russia
##OWNER=NIST Mass Spectrometry Data Center
Collection (C) 2014 copyright by the U.S. Secretary of Commerce
on behalf of the United States of America. All rights reserved.
##$NIST MASS SPEC NO=307357
##MOLFORM=C10 H18 Cl N O2
##MW=219
##$NIST SOURCE=MSDC
##XUNITS=M/Z
##YUNITS=RELATIVE INTENSITY
##XFACTOR=1
##YFACTOR=1
##FIRSTX=26
##LASTX=220
##FIRSTY=50
##MAXX=220
##MINX=26
##MAXY=9999
##MINY=30
##NPOINTS=70
##PEAK TABLE=(XY..XY)
26,50 27,410 28,30 29,510
30,581 31,40 36,100 38,30
39,270 40,50 41,771 42,220
43,1912 44,200 49,50 53,150
54,120 55,1401 56,430 57,150
58,300 59,40 63,90 65,40
67,120 68,40 69,70 70,250
71,9999 72,520 73,130 82,130
83,160 84,3103 85,320 86,841
87,180 91,440 92,30 93,140
98,50 99,30 100,801 101,70
102,210 112,80 113,50 114,1091
115,70 119,320 120,40 121,100
127,30 128,50 136,380 138,120
140,30 148,80 149,1702 150,470
151,571 152,140 156,50 160,40
170,80 175,90 176,60 177,30
184,190 220,50
##END=
