##TITLE=5-Bromovaleric acid, 4-benzyloxyphenyl ester
##JCAMP-DX=4.24
##DATA TYPE=MASS SPECTRUM
##ORIGIN=Zaikin V.G., TIPS RAS, Moscow, Russia
##OWNER=NIST Mass Spectrometry Data Center
Collection (C) 2014 copyright by the U.S. Secretary of Commerce
on behalf of the United States of America. All rights reserved.
##$NIST MASS SPEC NO=307649
##MOLFORM=C18 H19 Br O3
##MW=362
##$NIST SOURCE=MSDC
##XUNITS=M/Z
##YUNITS=RELATIVE INTENSITY
##XFACTOR=1
##YFACTOR=1
##FIRSTX=41
##LASTX=364
##FIRSTY=40
##MAXX=364
##MINX=41
##MAXY=9999
##MINY=40
##NPOINTS=16
##PEAK TABLE=(XY..XY)
41,40 55,681 65,290 91,9999
92,791 110,80 135,310 137,250
139,80 163,110 165,120 200,7747
201,1071 202,80 362,150 364,160
##END=
