##TITLE=Valeric acid, 3,5-dimethylphenyl ester
##JCAMP-DX=4.24
##DATA TYPE=MASS SPECTRUM
##ORIGIN=Zaikin V.G., TIPS RAS, Moscow, Russia
##OWNER=NIST Mass Spectrometry Data Center
Collection (C) 2014 copyright by the U.S. Secretary of Commerce
on behalf of the United States of America. All rights reserved.
##$NIST MASS SPEC NO=307985
##MOLFORM=C13 H18 O2
##MW=206
##$NIST SOURCE=MSDC
##XUNITS=M/Z
##YUNITS=RELATIVE INTENSITY
##XFACTOR=1
##YFACTOR=1
##FIRSTX=27
##LASTX=207
##FIRSTY=60
##MAXX=207
##MINX=27
##MAXY=9999
##MINY=10
##NPOINTS=38
##PEAK TABLE=(XY..XY)
27,60 28,90 29,240 36,60
38,10 39,50 41,300 44,30
51,10 52,10 53,40 55,110
57,1021 58,30 65,40 73,20
77,320 78,50 79,170 85,480
86,10 91,150 93,50 94,30
103,40 104,20 105,110 107,931
108,100 121,420 122,9999 123,1011
124,50 128,130 130,30 135,10
206,911 207,210
##END=
