##TITLE=2,6-Difluorobenzoic acid, morpholide
##JCAMP-DX=4.24
##DATA TYPE=MASS SPECTRUM
##ORIGIN=Zaikin V.G., TIPS RAS, Moscow, Russia
##OWNER=NIST Mass Spectrometry Data Center
Collection (C) 2014 copyright by the U.S. Secretary of Commerce
on behalf of the United States of America. All rights reserved.
##$NIST MASS SPEC NO=307425
##MOLFORM=C11 H11 F2 N O2
##MW=227
##$NIST SOURCE=MSDC
##XUNITS=M/Z
##YUNITS=RELATIVE INTENSITY
##XFACTOR=1
##YFACTOR=1
##FIRSTX=26
##LASTX=228
##FIRSTY=30
##MAXX=228
##MINX=26
##MAXY=9999
##MINY=20
##NPOINTS=60
##PEAK TABLE=(XY..XY)
26,30 27,100 28,20 29,150
30,70 41,60 42,460 43,30
45,30 50,30 54,70 55,110
56,1571 57,100 62,60 63,550
64,30 68,40 69,30 70,90
72,270 74,30 75,40 86,1571
87,80 93,100 94,70 95,30
112,120 113,1431 114,210 123,30
127,90 136,190 137,40 140,120
141,9999 142,681 143,40 156,30
164,40 168,50 169,20 170,160
177,330 178,581 179,110 180,40
184,110 185,30 196,70 197,40
207,180 208,1091 209,210 212,1221
213,140 226,300 227,1982 228,260
##END=
