##TITLE=1-Chloro-4-di(tert-butyl)silyloxybenzene
##JCAMP-DX=4.24
##DATA TYPE=MASS SPECTRUM
##ORIGIN=Zaikin V.G., TIPS RAS, Moscow, Russia
##OWNER=NIST Mass Spectrometry Data Center
Collection (C) 2014 copyright by the U.S. Secretary of Commerce
on behalf of the United States of America. All rights reserved.
##$NIST MASS SPEC NO=307940
##MOLFORM=C14 H23 Cl O Si
##MW=270
##$NIST SOURCE=MSDC
##XUNITS=M/Z
##YUNITS=RELATIVE INTENSITY
##XFACTOR=1
##YFACTOR=1
##FIRSTX=29
##LASTX=274
##FIRSTY=110
##MAXX=274
##MINX=29
##MAXY=9999
##MINY=30
##NPOINTS=70
##PEAK TABLE=(XY..XY)
29,110 36,40 41,200 43,30
45,30 57,1361 58,40 59,170
61,30 63,60 73,120 75,500
76,50 77,250 79,220 81,30
85,110 91,210 93,220 95,90
111,450 112,270 113,160 114,60
115,210 117,130 119,250 120,30
121,170 123,30 135,370 136,60
139,40 143,50 144,340 145,40
149,90 150,80 151,30 155,1782
156,240 157,721 158,1561 159,190
160,520 161,60 169,50 170,30
171,3233 172,430 173,1141 174,120
185,9999 186,1401 187,3733 188,470
189,120 197,60 212,601 213,1141
214,7347 215,1471 216,2622 217,390
218,80 270,3984 271,821 272,1441
273,260 274,50
##END=
