##TITLE=3-Methylbut-2-enoic acid, 4-methoxyphenyl ester
##JCAMP-DX=4.24
##DATA TYPE=MASS SPECTRUM
##ORIGIN=Zaikin V.G., TIPS RAS, Moscow, Russia
##OWNER=NIST Mass Spectrometry Data Center
Collection (C) 2014 copyright by the U.S. Secretary of Commerce
on behalf of the United States of America. All rights reserved.
##$NIST MASS SPEC NO=307595
##MOLFORM=C12 H14 O3
##MW=206
##$NIST SOURCE=MSDC
##XUNITS=M/Z
##YUNITS=RELATIVE INTENSITY
##XFACTOR=1
##YFACTOR=1
##FIRSTX=26
##LASTX=207
##FIRSTY=40
##MAXX=207
##MINX=26
##MAXY=9999
##MINY=30
##NPOINTS=36
##PEAK TABLE=(XY..XY)
26,40 27,200 28,180 29,460
38,30 39,350 40,30 41,140
50,30 51,60 52,110 53,240
54,120 55,1902 56,80 63,60
64,60 65,70 67,40 77,40
80,70 81,160 82,200 83,9999
84,510 92,40 95,200 108,30
109,1091 110,90 123,380 124,6576
125,480 126,30 206,971 207,110
##END=
