##TITLE=2-Trifluoromethylbenzoic acid, 4-benzyloxyphenyl ester
##JCAMP-DX=4.24
##DATA TYPE=MASS SPECTRUM
##ORIGIN=Zaikin V.G., TIPS RAS, Moscow, Russia
##OWNER=NIST Mass Spectrometry Data Center
Collection (C) 2014 copyright by the U.S. Secretary of Commerce
on behalf of the United States of America. All rights reserved.
##$NIST MASS SPEC NO=307675
##MOLFORM=C21 H15 F3 O3
##MW=372
##$NIST SOURCE=MSDC
##XUNITS=M/Z
##YUNITS=RELATIVE INTENSITY
##XFACTOR=1
##YFACTOR=1
##FIRSTX=39
##LASTX=374
##FIRSTY=30
##MAXX=374
##MINX=39
##MAXY=9999
##MINY=30
##NPOINTS=17
##PEAK TABLE=(XY..XY)
39,30 65,330 89,50 90,40
91,9999 92,821 95,110 125,60
126,80 145,2222 146,160 173,9238
174,851 175,40 372,3974 373,911
374,110
##END=
