##TITLE=Propanamide, N-(4-fluorophenyl)-3-chloro-
##JCAMP-DX=4.24
##DATA TYPE=MASS SPECTRUM
##ORIGIN=Zaikin V.G., TIPS RAS, Moscow, Russia
##OWNER=NIST Mass Spectrometry Data Center
Collection (C) 2014 copyright by the U.S. Secretary of Commerce
on behalf of the United States of America. All rights reserved.
##$NIST MASS SPEC NO=307225
##MOLFORM=C9 H9 Cl F N O
##MW=201
##$NIST SOURCE=MSDC
##XUNITS=M/Z
##YUNITS=RELATIVE INTENSITY
##XFACTOR=1
##YFACTOR=1
##FIRSTX=26
##LASTX=204
##FIRSTY=40
##MAXX=204
##MINX=26
##MAXY=9999
##MINY=30
##NPOINTS=45
##PEAK TABLE=(XY..XY)
26,40 27,430 28,30 36,90
39,40 50,40 51,30 52,30
55,250 56,40 57,270 62,50
63,981 64,80 65,310 69,30
75,160 81,70 82,130 83,711
84,370 89,40 90,30 91,360
92,40 93,120 94,30 95,210
96,40 109,180 110,430 111,9999
112,691 124,40 127,40 137,100
138,140 165,60 166,40 171,100
173,90 201,1912 202,210 203,651
204,60
##END=
