##TITLE=Chloroacetic acid, 4-cyanophenyl ester
##JCAMP-DX=4.24
##DATA TYPE=MASS SPECTRUM
##ORIGIN=Zaikin V.G., TIPS RAS, Moscow, Russia
##OWNER=NIST Mass Spectrometry Data Center
Collection (C) 2014 copyright by the U.S. Secretary of Commerce
on behalf of the United States of America. All rights reserved.
##$NIST MASS SPEC NO=307715
##MOLFORM=C9 H6 Cl N O2
##MW=195
##$NIST SOURCE=MSDC
##XUNITS=M/Z
##YUNITS=RELATIVE INTENSITY
##XFACTOR=1
##YFACTOR=1
##FIRSTX=26
##LASTX=197
##FIRSTY=40
##MAXX=197
##MINX=26
##MAXY=9999
##MINY=40
##NPOINTS=44
##PEAK TABLE=(XY..XY)
26,40 27,40 36,40 37,210
38,170 39,360 42,330 43,40
48,60 49,1391 50,170 51,450
52,70 53,40 61,60 62,190
63,561 64,761 65,80 74,50
75,230 76,480 77,2372 78,180
79,691 88,40 89,50 90,761
91,370 92,80 102,721 103,60
104,100 118,110 119,9999 120,871
121,50 132,120 146,50 167,160
169,40 195,901 196,80 197,310
##END=
