##TITLE=4-Chlorobenzoic acid, 4-cyanophenyl ester
##JCAMP-DX=4.24
##DATA TYPE=MASS SPECTRUM
##ORIGIN=Zaikin V.G., TIPS RAS, Moscow, Russia
##OWNER=NIST Mass Spectrometry Data Center
Collection (C) 2014 copyright by the U.S. Secretary of Commerce
on behalf of the United States of America. All rights reserved.
##$NIST MASS SPEC NO=307760
##MOLFORM=C14 H8 Cl N O2
##MW=257
##$NIST SOURCE=MSDC
##XUNITS=M/Z
##YUNITS=RELATIVE INTENSITY
##XFACTOR=1
##YFACTOR=1
##FIRSTX=28
##LASTX=257
##FIRSTY=30
##MAXX=257
##MINX=28
##MAXY=9999
##MINY=30
##NPOINTS=21
##PEAK TABLE=(XY..XY)
28,30 50,90 51,50 63,30
64,30 74,40 75,591 76,160
85,50 90,60 104,60 111,1942
112,140 113,631 114,30 139,9999
140,811 141,3393 142,250 156,50
257,30
##END=
