##TITLE=Dichloroacetic acid, 3-methylphenyl ester
##JCAMP-DX=4.24
##DATA TYPE=MASS SPECTRUM
##ORIGIN=Zaikin V.G., TIPS RAS, Moscow, Russia
##OWNER=NIST Mass Spectrometry Data Center
Collection (C) 2014 copyright by the U.S. Secretary of Commerce
on behalf of the United States of America. All rights reserved.
##$NIST MASS SPEC NO=307583
##MOLFORM=C9 H8 Cl2 O2
##MW=218
##$NIST SOURCE=MSDC
##XUNITS=M/Z
##YUNITS=RELATIVE INTENSITY
##XFACTOR=1
##YFACTOR=1
##FIRSTX=27
##LASTX=222
##FIRSTY=90
##MAXX=222
##MINX=27
##MAXY=9999
##MINY=20
##NPOINTS=46
##PEAK TABLE=(XY..XY)
27,90 28,20 36,50 38,30
39,310 41,30 48,60 50,90
51,230 52,150 53,190 62,20
63,130 64,50 65,380 66,30
76,100 77,931 78,320 79,701
80,120 83,440 85,280 87,40
89,70 90,120 91,3283 92,260
106,40 107,1001 108,9999 109,741
110,40 127,120 129,30 135,150
139,150 141,50 155,400 156,30
157,130 218,2022 219,210 220,1361
221,130 222,210
##END=
