##TITLE=Benzamide, N-(2-iodo-4-methylphenyl)-4-bromo-
##JCAMP-DX=4.24
##DATA TYPE=MASS SPECTRUM
##ORIGIN=Zaikin V.G., TIPS RAS, Moscow, Russia
##OWNER=NIST Mass Spectrometry Data Center
Collection (C) 2014 copyright by the U.S. Secretary of Commerce
on behalf of the United States of America. All rights reserved.
##$NIST MASS SPEC NO=307346
##MOLFORM=C14 H11 Br I N O
##MW=415
##$NIST SOURCE=MSDC
##XUNITS=M/Z
##YUNITS=RELATIVE INTENSITY
##XFACTOR=1
##YFACTOR=1
##FIRSTX=27
##LASTX=419
##FIRSTY=30
##MAXX=419
##MINX=27
##MAXY=9999
##MINY=10
##NPOINTS=61
##PEAK TABLE=(XY..XY)
27,30 28,10 38,30 39,90
50,330 51,260 52,150 53,30
62,30 63,110 64,50 65,50
74,120 75,651 76,1161 77,470
78,360 79,130 80,60 82,60
89,80 90,80 91,30 102,30
103,90 104,1361 105,430 106,120
107,50 127,90 128,170 152,30
155,2102 156,190 157,2062 158,150
165,30 166,60 179,30 180,90
181,70 183,9999 184,781 185,9829
186,751 187,40 232,250 233,220
234,190 258,30 287,30 288,60
289,80 290,130 291,50 292,70
415,5345 416,831 417,5255 418,841
419,60
##END=
