##TITLE=Cyclobutanecarboxamide, N-(3-chlorophenyl)-
##JCAMP-DX=4.24
##DATA TYPE=MASS SPECTRUM
##ORIGIN=Zaikin V.G., TIPS RAS, Moscow, Russia
##OWNER=NIST Mass Spectrometry Data Center
Collection (C) 2014 copyright by the U.S. Secretary of Commerce
on behalf of the United States of America. All rights reserved.
##$NIST MASS SPEC NO=307048
##MOLFORM=C11 H12 Cl N O
##MW=209
##$NIST SOURCE=MSDC
##XUNITS=M/Z
##YUNITS=RELATIVE INTENSITY
##XFACTOR=1
##YFACTOR=1
##FIRSTX=26
##LASTX=212
##FIRSTY=70
##MAXX=212
##MINX=26
##MAXY=9999
##MINY=30
##NPOINTS=61
##PEAK TABLE=(XY..XY)
26,70 27,540 28,180 29,460
36,60 38,50 39,330 40,30
41,40 50,70 51,80 52,50
53,260 54,160 55,5475 56,240
62,50 63,190 64,130 65,190
73,80 74,30 75,220 76,40
77,50 82,130 83,1421 84,80
89,30 90,120 91,160 92,170
93,50 99,270 100,90 101,90
102,30 107,30 111,330 112,40
113,100 117,30 125,70 126,150
127,9999 128,691 129,3393 130,230
138,30 140,220 142,70 152,30
153,160 154,120 155,50 156,30
181,90 209,2813 210,380 211,941
212,120
##END=
