##TITLE=Dichloroacetic acid, 4-benzyloxyphenyl ester
##JCAMP-DX=4.24
##DATA TYPE=MASS SPECTRUM
##ORIGIN=Zaikin V.G., TIPS RAS, Moscow, Russia
##OWNER=NIST Mass Spectrometry Data Center
Collection (C) 2014 copyright by the U.S. Secretary of Commerce
on behalf of the United States of America. All rights reserved.
##$NIST MASS SPEC NO=307591
##MOLFORM=C15 H12 Cl2 O3
##MW=310
##$NIST SOURCE=MSDC
##XUNITS=M/Z
##YUNITS=RELATIVE INTENSITY
##XFACTOR=1
##YFACTOR=1
##FIRSTX=26
##LASTX=314
##FIRSTY=30
##MAXX=314
##MINX=26
##MAXY=9999
##MINY=20
##NPOINTS=38
##PEAK TABLE=(XY..XY)
26,30 36,100 38,70 39,130
41,50 48,30 50,40 51,70
52,40 53,30 54,70 63,130
64,70 65,681 66,30 76,50
77,40 78,30 81,40 82,40
83,230 85,130 89,130 90,80
91,9999 92,811 93,30 109,70
110,90 141,50 183,300 184,40
200,20 310,370 311,50 312,240
313,30 314,30
##END=
