##TITLE=2-Butenamide, N-(2-iodo-4-methylphenyl)-3-methyl-
##JCAMP-DX=4.24
##DATA TYPE=MASS SPECTRUM
##ORIGIN=Zaikin V.G., TIPS RAS, Moscow, Russia
##OWNER=NIST Mass Spectrometry Data Center
Collection (C) 2014 copyright by the U.S. Secretary of Commerce
on behalf of the United States of America. All rights reserved.
##$NIST MASS SPEC NO=307273
##MOLFORM=C12 H14 I N O
##MW=315
##$NIST SOURCE=MSDC
##XUNITS=M/Z
##YUNITS=RELATIVE INTENSITY
##XFACTOR=1
##YFACTOR=1
##FIRSTX=26
##LASTX=316
##FIRSTY=30
##MAXX=316
##MINX=26
##MAXY=9999
##MINY=30
##NPOINTS=67
##PEAK TABLE=(XY..XY)
26,30 27,220 28,210 29,540
36,30 38,40 39,480 40,60
41,60 50,100 51,240 52,180
53,300 54,120 55,2232 56,110
62,30 63,130 64,70 65,100
66,30 67,70 75,30 76,80
77,390 78,310 79,210 80,40
82,150 83,9999 84,550 85,30
87,30 89,100 90,110 91,60
92,40 103,40 104,591 105,390
106,611 107,130 108,230 117,30
127,100 128,180 130,40 138,40
143,50 144,90 145,160 146,40
147,40 158,50 172,40 173,40
187,50 188,70 189,30 190,110
220,460 221,60 232,190 233,3904
234,410 315,1591 316,210
##END=
