##TITLE=2-Butenamide, N-(4-bromophenyl)-3-methyl-
##JCAMP-DX=4.24
##DATA TYPE=MASS SPECTRUM
##ORIGIN=Zaikin V.G., TIPS RAS, Moscow, Russia
##OWNER=NIST Mass Spectrometry Data Center
Collection (C) 2014 copyright by the U.S. Secretary of Commerce
on behalf of the United States of America. All rights reserved.
##$NIST MASS SPEC NO=307271
##MOLFORM=C11 H12 Br N O
##MW=253
##$NIST SOURCE=MSDC
##XUNITS=M/Z
##YUNITS=RELATIVE INTENSITY
##XFACTOR=1
##YFACTOR=1
##FIRSTX=27
##LASTX=256
##FIRSTY=220
##MAXX=256
##MINX=27
##MAXY=9999
##MINY=30
##NPOINTS=51
##PEAK TABLE=(XY..XY)
27,220 28,200 29,520 38,60
39,470 40,60 41,60 50,70
51,60 52,50 53,250 54,100
55,1992 56,90 62,40 63,230
64,180 65,270 66,40 67,70
75,70 76,80 77,40 80,30
82,180 83,9999 84,520 85,30
90,100 91,350 92,310 93,50
117,40 119,40 130,70 131,50
133,50 143,120 144,60 145,120
155,60 157,60 170,70 171,3023
172,280 173,3063 174,220 253,1762
254,240 255,1762 256,230
##END=
