##TITLE=1-Cyclohexyldimethylsilyloxy-3,5-dimethylbenzene
##JCAMP-DX=4.24
##DATA TYPE=MASS SPECTRUM
##ORIGIN=Zaikin V.G., TIPS RAS, Moscow, Russia
##OWNER=NIST Mass Spectrometry Data Center
Collection (C) 2014 copyright by the U.S. Secretary of Commerce
on behalf of the United States of America. All rights reserved.
##$NIST MASS SPEC NO=307882
##MOLFORM=C16 H26 O Si
##MW=262
##$NIST SOURCE=MSDC
##XUNITS=M/Z
##YUNITS=RELATIVE INTENSITY
##XFACTOR=1
##YFACTOR=1
##FIRSTX=59
##LASTX=264
##FIRSTY=110
##MAXX=264
##MINX=59
##MAXY=9999
##MINY=30
##NPOINTS=31
##PEAK TABLE=(XY..XY)
59,110 75,190 77,50 79,70
91,30 103,40 105,961 106,120
109,30 119,100 133,30 135,30
139,30 149,270 150,40 163,430
164,100 165,931 166,140 167,30
177,100 178,50 179,9999 180,4014
181,891 182,160 247,170 248,30
262,4304 263,991 264,250
##END=
