##TITLE=Benzamide, N-(3-chlorophenyl)-2,3,4,5,6-pentafluoro-
##JCAMP-DX=4.24
##DATA TYPE=MASS SPECTRUM
##ORIGIN=Zaikin V.G., TIPS RAS, Moscow, Russia
##OWNER=NIST Mass Spectrometry Data Center
Collection (C) 2014 copyright by the U.S. Secretary of Commerce
on behalf of the United States of America. All rights reserved.
##$NIST MASS SPEC NO=307377
##MOLFORM=C13 H5 Cl F5 N O
##MW=321
##$NIST SOURCE=MSDC
##XUNITS=M/Z
##YUNITS=RELATIVE INTENSITY
##XFACTOR=1
##YFACTOR=1
##FIRSTX=28
##LASTX=324
##FIRSTY=10
##MAXX=324
##MINX=28
##MAXY=9999
##MINY=10
##NPOINTS=37
##PEAK TABLE=(XY..XY)
28,10 39,40 44,30 62,30
63,130 64,80 65,40 73,60
75,80 90,60 91,70 93,60
98,40 99,230 101,60 111,50
117,400 126,30 127,110 128,200
129,50 130,60 148,90 153,30
167,1752 168,180 176,30 194,30
195,9999 196,691 197,40 258,40
286,30 321,3433 322,490 323,1101
324,150
##END=
