##TITLE=Isonicotinic acid, morpholide
##JCAMP-DX=4.24
##DATA TYPE=MASS SPECTRUM
##ORIGIN=Zaikin V.G., TIPS RAS, Moscow, Russia
##OWNER=NIST Mass Spectrometry Data Center
Collection (C) 2014 copyright by the U.S. Secretary of Commerce
on behalf of the United States of America. All rights reserved.
##$NIST MASS SPEC NO=307411
##MOLFORM=C10 H12 N2 O2
##MW=192
##$NIST SOURCE=MSDC
##XUNITS=M/Z
##YUNITS=RELATIVE INTENSITY
##XFACTOR=1
##YFACTOR=1
##FIRSTX=26
##LASTX=194
##FIRSTY=180
##MAXX=194
##MINX=26
##MAXY=9999
##MINY=20
##NPOINTS=75
##PEAK TABLE=(XY..XY)
26,180 27,490 28,1191 29,661
30,340 31,50 38,60 39,90
40,60 41,230 42,961 45,40
49,50 50,901 51,4064 52,500
53,110 54,290 55,380 56,6946
57,400 58,30 59,20 62,20
64,30 65,50 69,50 70,360
72,50 75,50 76,120 77,160
78,6846 79,821 80,60 86,3863
87,170 92,80 93,691 94,40
104,30 105,270 106,9999 107,951
108,90 114,30 117,30 118,50
119,120 120,160 121,80 122,110
123,60 132,60 133,470 134,220
135,601 136,180 147,130 148,30
149,731 150,470 151,50 161,1451
162,260 163,180 164,170 177,5145
178,561 179,40 190,180 191,5465
192,3453 193,410 194,30
##END=
