##TITLE=3,5-Dimethyl-1-dimethyl(pentafluorophenyl)silyloxybenzene
##JCAMP-DX=4.24
##DATA TYPE=MASS SPECTRUM
##ORIGIN=Zaikin V.G., TIPS RAS, Moscow, Russia
##OWNER=NIST Mass Spectrometry Data Center
Collection (C) 2014 copyright by the U.S. Secretary of Commerce
on behalf of the United States of America. All rights reserved.
##$NIST MASS SPEC NO=307937
##MOLFORM=C16 H15 F5 O Si
##MW=346
##$NIST SOURCE=MSDC
##XUNITS=M/Z
##YUNITS=RELATIVE INTENSITY
##XFACTOR=1
##YFACTOR=1
##FIRSTX=36
##LASTX=349
##FIRSTY=60
##MAXX=349
##MINX=36
##MAXY=9999
##MINY=30
##NPOINTS=77
##PEAK TABLE=(XY..XY)
36,60 49,30 63,30 75,120
77,1201 78,90 79,200 81,320
91,100 103,100 105,460 115,80
119,300 125,100 137,50 144,310
145,30 149,30 151,280 152,50
153,30 155,150 159,50 163,210
164,30 167,50 168,90 169,30
177,100 178,50 179,100 181,60
183,370 184,40 187,80 188,220
201,140 203,671 204,70 215,40
216,280 217,30 219,100 230,100
231,621 232,160 233,120 235,90
237,70 245,30 249,270 250,60
251,30 253,80 273,180 287,30
295,50 296,40 297,120 299,240
300,50 301,120 311,340 312,70
315,1121 316,3493 317,701 318,130
329,60 330,30 331,410 332,60
345,50 346,9999 347,2162 348,500
349,30
##END=
