##TITLE=3-Chloropropionic acid, morpholide
##JCAMP-DX=4.24
##DATA TYPE=MASS SPECTRUM
##ORIGIN=Zaikin V.G., TIPS RAS, Moscow, Russia
##OWNER=NIST Mass Spectrometry Data Center
Collection (C) 2014 copyright by the U.S. Secretary of Commerce
on behalf of the United States of America. All rights reserved.
##$NIST MASS SPEC NO=307223
##MOLFORM=C7 H12 Cl N O2
##MW=177
##$NIST SOURCE=MSDC
##XUNITS=M/Z
##YUNITS=RELATIVE INTENSITY
##XFACTOR=1
##YFACTOR=1
##FIRSTX=25
##LASTX=180
##FIRSTY=30
##MAXX=180
##MINX=25
##MAXY=9999
##MINY=30
##NPOINTS=96
##PEAK TABLE=(XY..XY)
25,30 26,450 27,3043 28,450
29,1121 30,891 31,170 35,90
36,561 38,170 39,70 40,110
41,520 42,2682 43,480 44,871
45,310 49,120 51,40 52,60
53,70 54,550 55,1992 56,7937
57,8938 58,1141 59,200 60,30
61,130 62,140 63,4604 64,150
65,1471 66,30 68,110 69,260
70,2242 71,120 72,2062 73,90
77,70 82,40 83,60 84,300
85,250 86,9398 87,2512 88,1561
89,220 90,60 91,3713 92,150
93,1161 94,40 96,100 98,871
99,360 100,200 105,50 107,110
109,50 110,90 111,110 112,4474
113,330 114,1471 115,170 120,410
122,130 126,150 128,741 129,50
132,200 133,120 134,1231 135,180
136,370 137,50 140,50 141,130
142,9999 143,851 144,60 146,310
147,410 148,140 149,130 162,3023
163,210 164,961 165,70 176,340
177,5475 178,631 179,1842 180,160
##END=
