##TITLE=4-Benzyloxy-1-diphenylmethylsilyloxybenzene
##JCAMP-DX=4.24
##DATA TYPE=MASS SPECTRUM
##ORIGIN=Zaikin V.G., TIPS RAS, Moscow, Russia
##OWNER=NIST Mass Spectrometry Data Center
Collection (C) 2014 copyright by the U.S. Secretary of Commerce
on behalf of the United States of America. All rights reserved.
##$NIST MASS SPEC NO=307879
##MOLFORM=C26 H24 O2 Si
##MW=396
##$NIST SOURCE=MSDC
##XUNITS=M/Z
##YUNITS=RELATIVE INTENSITY
##XFACTOR=1
##YFACTOR=1
##FIRSTX=28
##LASTX=399
##FIRSTY=30
##MAXX=399
##MINX=28
##MAXY=9999
##MINY=30
##NPOINTS=35
##PEAK TABLE=(XY..XY)
28,30 36,40 44,40 65,40
91,1291 92,90 93,30 105,180
119,140 165,80 181,170 182,30
193,30 195,340 196,80 197,9999
198,1892 199,530 200,50 227,90
228,40 290,90 291,50 305,2182
306,611 307,150 317,80 318,40
355,30 381,120 395,90 396,4544
397,1481 398,400 399,50
##END=
