##TITLE=Cyclopentanecarboxamide, N-(1-naphthyl)-
##JCAMP-DX=4.24
##DATA TYPE=MASS SPECTRUM
##ORIGIN=Zaikin V.G., TIPS RAS, Moscow, Russia
##OWNER=NIST Mass Spectrometry Data Center
Collection (C) 2014 copyright by the U.S. Secretary of Commerce
on behalf of the United States of America. All rights reserved.
##$NIST MASS SPEC NO=307032
##MOLFORM=C16 H17 N O
##MW=239
##$NIST SOURCE=MSDC
##XUNITS=M/Z
##YUNITS=RELATIVE INTENSITY
##XFACTOR=1
##YFACTOR=1
##FIRSTX=27
##LASTX=241
##FIRSTY=40
##MAXX=241
##MINX=27
##MAXY=9999
##MINY=10
##NPOINTS=38
##PEAK TABLE=(XY..XY)
27,40 28,10 39,120 40,30
41,651 42,30 55,80 63,50
65,50 67,130 68,30 69,1541
70,80 77,40 88,20 89,80
97,140 99,30 113,50 114,100
115,951 116,260 117,40 126,60
127,200 128,60 140,130 141,90
142,180 143,9999 144,1011 145,50
169,110 170,70 198,50 239,1782
240,310 241,30
##END=
