##TITLE=3,4-Dichloro-1-diphenylmethylsilyloxybenzene
##JCAMP-DX=4.24
##DATA TYPE=MASS SPECTRUM
##ORIGIN=Zaikin V.G., TIPS RAS, Moscow, Russia
##OWNER=NIST Mass Spectrometry Data Center
Collection (C) 2014 copyright by the U.S. Secretary of Commerce
on behalf of the United States of America. All rights reserved.
##$NIST MASS SPEC NO=307877
##MOLFORM=C19 H16 Cl2 O Si
##MW=358
##$NIST SOURCE=MSDC
##XUNITS=M/Z
##YUNITS=RELATIVE INTENSITY
##XFACTOR=1
##YFACTOR=1
##FIRSTX=28
##LASTX=364
##FIRSTY=10
##MAXX=364
##MINX=28
##MAXY=9999
##MINY=10
##NPOINTS=98
##PEAK TABLE=(XY..XY)
28,10 43,30 53,30 63,50
77,70 91,140 93,120 105,420
106,40 113,30 115,100 119,330
120,30 121,40 136,40 139,250
140,30 143,30 145,60 147,30
151,40 152,100 153,40 154,90
155,220 156,30 157,50 165,330
166,50 167,60 169,30 172,130
173,90 175,60 177,40 179,30
180,140 181,581 182,120 183,30
186,100 188,30 189,90 191,60
193,110 195,761 196,160 197,9999
198,2022 199,550 200,50 202,60
203,260 204,50 205,160 215,100
217,220 219,50 222,70 224,40
230,30 231,120 233,30 245,110
246,30 247,50 255,40 265,1011
266,190 267,711 268,120 269,120
279,90 280,30 282,110 283,330
284,50 285,50 300,60 307,120
308,30 309,60 325,30 341,30
343,9789 344,2402 345,6746 346,1631
347,1421 348,290 349,50 358,8488
359,2152 360,5695 361,1441 362,1201
363,250 364,40
##END=
