##TITLE=Cyclopropanecarboxylic acid, 2-naphthyl ester
##JCAMP-DX=4.24
##DATA TYPE=MASS SPECTRUM
##ORIGIN=Zaikin V.G., TIPS RAS, Moscow, Russia
##OWNER=NIST Mass Spectrometry Data Center
Collection (C) 2014 copyright by the U.S. Secretary of Commerce
on behalf of the United States of America. All rights reserved.
##$NIST MASS SPEC NO=307528
##MOLFORM=C14 H12 O2
##MW=212
##$NIST SOURCE=MSDC
##XUNITS=M/Z
##YUNITS=RELATIVE INTENSITY
##XFACTOR=1
##YFACTOR=1
##FIRSTX=26
##LASTX=214
##FIRSTY=60
##MAXX=214
##MINX=26
##MAXY=9999
##MINY=30
##NPOINTS=54
##PEAK TABLE=(XY..XY)
26,60 27,90 28,190 35,50
36,550 38,220 39,941 40,120
41,3203 42,100 44,370 50,130
51,150 52,60 55,80 62,140
63,430 64,70 65,260 68,80
69,9438 70,380 74,80 75,140
76,50 77,140 79,80 86,30
87,90 88,130 89,510 90,40
91,110 101,40 105,30 109,40
113,140 114,200 115,3473 116,601
117,40 119,110 126,120 127,360
128,100 143,90 144,9999 145,1071
146,50 184,310 185,30 212,4024
213,581 214,40
##END=
