##TITLE=1-Adamantanecarboxylic acid, 4-cyanophenyl ester
##JCAMP-DX=4.24
##DATA TYPE=MASS SPECTRUM
##ORIGIN=Zaikin V.G., TIPS RAS, Moscow, Russia
##OWNER=NIST Mass Spectrometry Data Center
Collection (C) 2014 copyright by the U.S. Secretary of Commerce
on behalf of the United States of America. All rights reserved.
##$NIST MASS SPEC NO=307663
##MOLFORM=C18 H19 N O2
##MW=281
##$NIST SOURCE=MSDC
##XUNITS=M/Z
##YUNITS=RELATIVE INTENSITY
##XFACTOR=1
##YFACTOR=1
##FIRSTX=39
##LASTX=164
##FIRSTY=30
##MAXX=164
##MINX=39
##MAXY=9999
##MINY=30
##NPOINTS=25
##PEAK TABLE=(XY..XY)
39,30 41,120 53,50 55,130
65,30 67,270 69,50 77,200
78,50 79,831 80,60 81,230
90,40 91,260 92,90 93,831
94,60 105,60 107,420 119,50
135,9999 136,1171 137,50 163,621
164,60
##END=
