##TITLE=m-Toluic acid, 2-naphthyl ester
##JCAMP-DX=4.24
##DATA TYPE=MASS SPECTRUM
##ORIGIN=Zaikin V.G., TIPS RAS, Moscow, Russia
##OWNER=NIST Mass Spectrometry Data Center
Collection (C) 2014 copyright by the U.S. Secretary of Commerce
on behalf of the United States of America. All rights reserved.
##$NIST MASS SPEC NO=307572
##MOLFORM=C18 H14 O2
##MW=262
##$NIST SOURCE=MSDC
##XUNITS=M/Z
##YUNITS=RELATIVE INTENSITY
##XFACTOR=1
##YFACTOR=1
##FIRSTX=28
##LASTX=264
##FIRSTY=260
##MAXX=264
##MINX=28
##MAXY=9999
##MINY=30
##NPOINTS=36
##PEAK TABLE=(XY..XY)
28,260 36,40 39,180 40,40
41,70 44,110 50,50 51,90
62,50 63,230 64,50 65,871
66,40 74,30 75,50 76,30
77,40 88,30 89,330 90,190
91,3203 92,270 113,40 114,50
115,731 116,100 118,60 119,9999
120,841 121,50 126,30 127,40
144,160 262,1401 263,270 264,30
##END=
