##TITLE=Benzamide, N-(4-fluorophenyl)-4-trifluoromethyl-
##JCAMP-DX=4.24
##DATA TYPE=MASS SPECTRUM
##ORIGIN=Zaikin V.G., TIPS RAS, Moscow, Russia
##OWNER=NIST Mass Spectrometry Data Center
Collection (C) 2014 copyright by the U.S. Secretary of Commerce
on behalf of the United States of America. All rights reserved.
##$NIST MASS SPEC NO=307246
##MOLFORM=C14 H9 F4 N O
##MW=283
##$NIST SOURCE=MSDC
##XUNITS=M/Z
##YUNITS=RELATIVE INTENSITY
##XFACTOR=1
##YFACTOR=1
##FIRSTX=28
##LASTX=285
##FIRSTY=30
##MAXX=285
##MINX=28
##MAXY=9999
##MINY=20
##NPOINTS=39
##PEAK TABLE=(XY..XY)
28,30 50,90 51,40 57,160
63,50 69,40 74,40 75,240
76,70 81,50 82,50 83,380
84,60 94,30 95,470 96,40
99,30 109,50 110,90 111,190
112,40 119,50 125,290 126,230
143,20 144,80 145,4784 146,380
154,50 173,9999 174,821 175,50
185,40 264,390 265,70 282,50
283,4314 284,681 285,60
##END=
