##TITLE=Benzamide, N-(3-chlorophenyl)-2-methoxy-
##JCAMP-DX=4.24
##DATA TYPE=MASS SPECTRUM
##ORIGIN=Zaikin V.G., TIPS RAS, Moscow, Russia
##OWNER=NIST Mass Spectrometry Data Center
Collection (C) 2014 copyright by the U.S. Secretary of Commerce
on behalf of the United States of America. All rights reserved.
##$NIST MASS SPEC NO=307059
##MOLFORM=C14 H12 Cl N O2
##MW=261
##$NIST SOURCE=MSDC
##XUNITS=M/Z
##YUNITS=RELATIVE INTENSITY
##XFACTOR=1
##YFACTOR=1
##FIRSTX=28
##LASTX=264
##FIRSTY=10
##MAXX=264
##MINX=28
##MAXY=9999
##MINY=10
##NPOINTS=33
##PEAK TABLE=(XY..XY)
28,10 39,50 50,50 51,90
63,140 64,180 65,80 75,50
76,70 77,1071 78,90 79,80
90,30 91,50 92,641 93,60
99,80 105,90 111,30 113,50
120,130 121,60 127,190 129,60
131,30 135,9999 136,731 137,60
153,30 261,1491 262,230 263,510
264,70
##END=
