##TITLE=3,4-Dichloro-1-diphenyl(tert-butyl)silyloxybenzene
##JCAMP-DX=4.24
##DATA TYPE=MASS SPECTRUM
##ORIGIN=Zaikin V.G., TIPS RAS, Moscow, Russia
##OWNER=NIST Mass Spectrometry Data Center
Collection (C) 2014 copyright by the U.S. Secretary of Commerce
on behalf of the United States of America. All rights reserved.
##$NIST MASS SPEC NO=307868
##MOLFORM=C22 H22 Cl2 O Si
##MW=400
##$NIST SOURCE=MSDC
##XUNITS=M/Z
##YUNITS=RELATIVE INTENSITY
##XFACTOR=1
##YFACTOR=1
##FIRSTX=28
##LASTX=404
##FIRSTY=20
##MAXX=404
##MINX=28
##MAXY=9999
##MINY=20
##NPOINTS=48
##PEAK TABLE=(XY..XY)
28,20 36,50 91,30 105,70
135,40 139,140 151,30 152,30
155,30 175,40 177,30 180,40
181,260 182,40 183,70 186,70
189,30 197,70 199,50 202,40
215,90 217,170 219,40 223,30
230,30 231,60 265,1091 266,210
267,761 268,130 269,130 283,30
307,140 308,150 309,110 310,50
343,9999 344,2672 345,7136 346,1732
347,1481 348,320 349,50 400,320
401,70 402,240 403,50 404,30
##END=
