##TITLE=2-Chlorobenzoic acid, 4-methoxyphenyl ester
##JCAMP-DX=4.24
##DATA TYPE=MASS SPECTRUM
##ORIGIN=Zaikin V.G., TIPS RAS, Moscow, Russia
##OWNER=NIST Mass Spectrometry Data Center
Collection (C) 2014 copyright by the U.S. Secretary of Commerce
on behalf of the United States of America. All rights reserved.
##$NIST MASS SPEC NO=307817
##MOLFORM=C14 H11 Cl O3
##MW=262
##$NIST SOURCE=MSDC
##XUNITS=M/Z
##YUNITS=RELATIVE INTENSITY
##XFACTOR=1
##YFACTOR=1
##FIRSTX=41
##LASTX=265
##FIRSTY=60
##MAXX=265
##MINX=41
##MAXY=9999
##MINY=20
##NPOINTS=24
##PEAK TABLE=(XY..XY)
41,60 50,50 51,40 52,40
65,30 75,370 76,120 80,30
85,30 95,130 104,40 110,20
111,1421 112,100 113,480 123,220
139,9999 140,801 141,3363 142,240
262,1561 263,220 264,530 265,70
##END=
