##TITLE=Dichloroacetamide, N,N-dibutyl-
##JCAMP-DX=4.24
##DATA TYPE=MASS SPECTRUM
##ORIGIN=Zaikin V.G., TIPS RAS, Moscow, Russia
##OWNER=NIST Mass Spectrometry Data Center
Collection (C) 2014 copyright by the U.S. Secretary of Commerce
on behalf of the United States of America. All rights reserved.
##$NIST MASS SPEC NO=308632
##MOLFORM=C10 H19 Cl2 N O
##MW=239
##$NIST SOURCE=MSDC
##XUNITS=M/Z
##YUNITS=RELATIVE INTENSITY
##XFACTOR=1
##YFACTOR=1
##FIRSTX=25
##LASTX=212
##FIRSTY=30
##MAXX=212
##MINX=25
##MAXY=9999
##MINY=30
##NPOINTS=124
##PEAK TABLE=(XY..XY)
25,30 26,250 27,1181 28,911
29,2282 30,761 35,250 36,811
37,120 38,360 39,931 40,170
41,3303 42,1752 43,801 44,1371
45,80 47,100 48,350 49,360
50,160 51,180 52,120 53,230
54,250 55,1121 56,1051 57,5995
58,340 63,50 64,100 65,40
66,30 67,70 68,120 69,190
70,350 71,90 72,220 73,30
74,40 75,110 76,711 77,210
78,270 79,140 80,30 82,170
83,991 84,1221 85,701 86,1581
87,170 90,50 91,90 92,50
93,40 94,30 95,30 96,40
98,290 99,80 100,1762 101,80
104,30 105,50 106,270 108,80
110,120 111,140 112,400 113,100
114,771 115,50 119,40 120,240
122,80 126,230 127,30 128,320
130,70 132,140 134,60 135,140
138,60 139,220 140,1461 141,200
142,1071 143,80 144,240 148,220
150,70 154,9999 155,591 156,7066
157,881 158,1111 159,60 160,40
162,811 163,60 164,260 168,130
170,40 171,120 176,50 183,30
184,140 185,40 186,70 196,1962
197,200 198,1251 199,120 200,230
202,30 204,2582 205,280 206,861
207,210 208,30 210,80 212,50
##END=
