##TITLE=Pentanamide, N,N-dihexyl-5-bromo-
##JCAMP-DX=4.24
##DATA TYPE=MASS SPECTRUM
##ORIGIN=Zaikin V.G., TIPS RAS, Moscow, Russia
##OWNER=NIST Mass Spectrometry Data Center
Collection (C) 2014 copyright by the U.S. Secretary of Commerce
on behalf of the United States of America. All rights reserved.
##$NIST MASS SPEC NO=308260
##MOLFORM=C17 H34 Br N O
##MW=347
##$NIST SOURCE=MSDC
##XUNITS=M/Z
##YUNITS=RELATIVE INTENSITY
##XFACTOR=1
##YFACTOR=1
##FIRSTX=28
##LASTX=350
##FIRSTY=30
##MAXX=350
##MINX=28
##MAXY=9999
##MINY=30
##NPOINTS=77
##PEAK TABLE=(XY..XY)
28,30 29,70 30,150 41,140
42,50 43,601 44,841 55,621
56,90 57,160 58,60 69,30
70,50 72,40 83,40 84,50
85,200 86,50 98,50 100,230
112,90 114,9999 115,811 126,40
127,40 128,821 129,50 135,240
137,250 140,40 142,921 143,70
156,480 157,40 163,190 165,190
168,30 170,320 184,691 185,90
186,60 196,30 198,380 199,30
206,40 207,80 208,60 209,80
212,3873 213,540 214,30 226,40
234,40 236,40 240,791 241,120
254,80 262,30 264,70 266,40
268,3924 269,711 270,60 276,450
277,80 278,460 279,70 290,100
292,70 304,150 306,140 318,80
320,90 347,130 348,100 349,150
350,80
##END=
