##TITLE=Cyclopentanecarboxamide, N,N-dioctyl-
##JCAMP-DX=4.24
##DATA TYPE=MASS SPECTRUM
##ORIGIN=Zaikin V.G., TIPS RAS, Moscow, Russia
##OWNER=NIST Mass Spectrometry Data Center
Collection (C) 2014 copyright by the U.S. Secretary of Commerce
on behalf of the United States of America. All rights reserved.
##$NIST MASS SPEC NO=308615
##MOLFORM=C22 H43 N O
##MW=337
##$NIST SOURCE=MSDC
##XUNITS=M/Z
##YUNITS=RELATIVE INTENSITY
##XFACTOR=1
##YFACTOR=1
##FIRSTX=25
##LASTX=338
##FIRSTY=70
##MAXX=338
##MINX=25
##MAXY=9999
##MINY=30
##NPOINTS=108
##PEAK TABLE=(XY..XY)
25,70 26,410 27,911 28,370
29,931 30,370 36,80 37,70
38,140 39,981 40,340 41,3183
42,1011 43,2002 44,1551 45,40
50,60 51,80 52,40 53,260
54,160 55,1071 56,601 57,1091
58,180 65,90 66,70 67,651
68,340 69,6906 70,811 71,480
72,120 73,30 79,50 81,80
82,70 83,80 84,350 85,100
86,200 95,160 96,240 97,1621
98,410 99,140 100,320 110,40
111,30 112,230 113,90 114,200
124,30 126,200 127,190 128,200
138,50 140,490 141,330 142,9999
143,1051 144,40 152,30 154,240
155,110 156,871 157,80 168,230
169,60 170,931 171,90 182,270
183,40 184,601 185,70 196,200
197,90 198,290 199,30 210,100
211,30 212,210 224,150 225,200
226,230 227,30 238,280 239,150
240,320 241,60 252,160 266,400
267,80 268,3113 269,591 270,40
280,200 281,30 294,220 295,40
296,1151 297,230 308,210 309,50
322,50 336,90 337,320 338,100
##END=
