##TITLE=Propanamide, N,N-bis(2-ethylhexyl)-3-phenyl-
##JCAMP-DX=4.24
##DATA TYPE=MASS SPECTRUM
##ORIGIN=Zaikin V.G., TIPS RAS, Moscow, Russia
##OWNER=NIST Mass Spectrometry Data Center
Collection (C) 2014 copyright by the U.S. Secretary of Commerce
on behalf of the United States of America. All rights reserved.
##$NIST MASS SPEC NO=308216
##MOLFORM=C25 H43 N O
##MW=373
##$NIST SOURCE=MSDC
##XUNITS=M/Z
##YUNITS=RELATIVE INTENSITY
##XFACTOR=1
##YFACTOR=1
##FIRSTX=30
##LASTX=374
##FIRSTY=40
##MAXX=374
##MINX=30
##MAXY=9999
##MINY=30
##NPOINTS=57
##PEAK TABLE=(XY..XY)
30,40 41,30 43,90 44,440
55,40 57,160 69,50 70,30
71,110 91,671 92,40 100,40
103,40 104,110 105,701 106,70
111,70 128,50 131,100 132,70
133,290 140,40 142,9999 143,1071
144,40 149,30 150,180 156,540
157,40 163,230 164,30 170,530
171,50 176,140 177,100 184,50
204,70 205,100 212,90 218,30
232,110 240,120 245,50 246,30
261,90 262,150 268,1772 269,320
274,2983 275,601 276,60 316,70
330,70 344,110 372,30 373,821
374,260
##END=
