##TITLE=Benzamide, N,N-diundecyl-3-fluoro-
##JCAMP-DX=4.24
##DATA TYPE=MASS SPECTRUM
##ORIGIN=Zaikin V.G., TIPS RAS, Moscow, Russia
##OWNER=NIST Mass Spectrometry Data Center
Collection (C) 2014 copyright by the U.S. Secretary of Commerce
on behalf of the United States of America. All rights reserved.
##$NIST MASS SPEC NO=308404
##MOLFORM=C29 H50 F N O
##MW=447
##$NIST SOURCE=MSDC
##XUNITS=M/Z
##YUNITS=RELATIVE INTENSITY
##XFACTOR=1
##YFACTOR=1
##FIRSTX=27
##LASTX=449
##FIRSTY=60
##MAXX=449
##MINX=27
##MAXY=9999
##MINY=20
##NPOINTS=96
##PEAK TABLE=(XY..XY)
27,60 28,30 29,80 30,40
39,50 41,230 42,120 43,340
44,170 55,260 56,140 57,230
58,30 67,30 69,140 70,110
71,60 83,60 84,90 85,40
95,450 96,100 97,40 98,50
109,160 112,40 122,30 123,9999
124,711 125,40 126,30 140,160
152,230 153,240 154,50 164,40
166,901 167,440 168,50 180,170
181,70 182,210 183,30 184,150
192,30 194,270 195,80 197,30
198,20 206,30 208,260 209,70
210,40 212,100 222,110 223,30
236,80 250,90 264,80 277,110
278,60 292,330 293,100 294,240
295,40 304,60 306,4784 307,1461
308,240 318,30 320,390 321,120
322,40 324,110 334,300 335,80
348,160 349,50 352,230 353,50
362,180 363,50 376,160 377,50
390,160 391,40 404,140 405,40
418,130 419,40 432,70 445,30
446,1702 447,1872 448,591 449,100
##END=
