##TITLE=Chloroacetamide, N-ethyl-N-(3-methylphenyl)-
##JCAMP-DX=4.24
##DATA TYPE=MASS SPECTRUM
##ORIGIN=Zaikin V.G., TIPS RAS, Moscow, Russia
##OWNER=NIST Mass Spectrometry Data Center
Collection (C) 2014 copyright by the U.S. Secretary of Commerce
on behalf of the United States of America. All rights reserved.
##$NIST MASS SPEC NO=308475
##MOLFORM=C11 H14 Cl N O
##MW=211
##$NIST SOURCE=MSDC
##XUNITS=M/Z
##YUNITS=RELATIVE INTENSITY
##XFACTOR=1
##YFACTOR=1
##FIRSTX=26
##LASTX=214
##FIRSTY=100
##MAXX=214
##MINX=26
##MAXY=9999
##MINY=30
##NPOINTS=92
##PEAK TABLE=(XY..XY)
26,100 27,320 28,190 29,480
30,30 36,200 38,140 39,621
40,90 41,270 42,180 43,90
44,30 48,40 49,370 50,180
51,500 52,250 53,160 54,40
55,50 56,50 58,170 59,40
62,110 63,470 64,200 65,1912
66,170 67,40 69,50 70,80
74,40 75,70 76,741 77,1181
78,601 79,410 80,110 89,510
90,360 91,5125 92,681 93,280
94,30 102,60 103,180 104,2823
105,500 106,1631 107,941 108,380
109,30 115,80 116,110 117,350
118,2122 119,1341 120,9999 121,921
122,30 130,90 131,70 132,1011
133,1161 134,9348 135,1241 136,80
146,210 147,100 148,230 149,50
160,110 161,70 162,1672 163,190
174,60 175,360 176,5355 177,791
178,60 183,1161 184,120 185,310
186,30 196,260 198,90 210,140
211,4664 212,631 213,1541 214,180
##END=
