##TITLE=Acetoxyacetamide, N-ethyl-N-(3-methylphenyl)-
##JCAMP-DX=4.24
##DATA TYPE=MASS SPECTRUM
##ORIGIN=Zaikin V.G., TIPS RAS, Moscow, Russia
##OWNER=NIST Mass Spectrometry Data Center
Collection (C) 2014 copyright by the U.S. Secretary of Commerce
on behalf of the United States of America. All rights reserved.
##$NIST MASS SPEC NO=308292
##MOLFORM=C13 H17 N O3
##MW=235
##$NIST SOURCE=MSDC
##XUNITS=M/Z
##YUNITS=RELATIVE INTENSITY
##XFACTOR=1
##YFACTOR=1
##FIRSTX=26
##LASTX=237
##FIRSTY=50
##MAXX=237
##MINX=26
##MAXY=9999
##MINY=20
##NPOINTS=104
##PEAK TABLE=(XY..XY)
26,50 27,240 29,530 30,530
39,220 40,20 41,420 42,220
43,3423 44,661 50,30 51,110
52,50 53,60 54,30 55,210
56,320 57,90 60,30 63,110
64,40 65,701 66,50 67,20
70,100 72,200 73,1021 76,30
77,440 78,200 79,160 80,40
84,50 85,20 86,30 87,240
89,180 90,170 91,2943 92,360
93,140 98,280 99,20 100,110
101,801 102,60 103,60 104,250
105,200 106,621 107,901 108,120
112,40 114,4644 115,340 116,40
117,130 118,1271 119,831 120,9008
121,901 122,90 127,30 128,1101
129,80 130,40 131,30 132,651
133,3553 134,9999 135,9609 136,1111
137,30 142,260 143,20 144,70
146,130 147,30 148,130 149,30
156,961 157,80 160,70 161,40
162,4354 163,530 164,70 165,150
170,20 173,50 174,220 175,340
176,150 177,40 184,40 192,320
193,150 194,20 207,360 208,80
234,70 235,7557 236,1181 237,120
##END=
