##TITLE=Methoxyacetamide, N,N-didecyl-
##JCAMP-DX=4.24
##DATA TYPE=MASS SPECTRUM
##ORIGIN=Zaikin V.G., TIPS RAS, Moscow, Russia
##OWNER=NIST Mass Spectrometry Data Center
Collection (C) 2014 copyright by the U.S. Secretary of Commerce
on behalf of the United States of America. All rights reserved.
##$NIST MASS SPEC NO=308498
##MOLFORM=C23 H47 N O2
##MW=369
##$NIST SOURCE=MSDC
##XUNITS=M/Z
##YUNITS=RELATIVE INTENSITY
##XFACTOR=1
##YFACTOR=1
##FIRSTX=25
##LASTX=370
##FIRSTY=50
##MAXX=370
##MINX=25
##MAXY=9999
##MINY=20
##NPOINTS=181
##PEAK TABLE=(XY..XY)
25,50 26,340 27,661 28,100
29,1021 30,340 31,110 39,651
40,170 41,2252 42,921 43,3623
44,1541 45,4104 46,90 50,90
51,90 52,60 53,190 54,220
55,2092 56,951 57,4354 58,550
59,30 60,80 65,50 66,40
67,420 68,210 69,1031 70,641
71,2752 72,300 73,270 74,60
75,30 77,110 78,60 79,200
80,60 81,340 82,190 83,571
84,460 85,2853 86,320 87,240
88,741 89,30 90,40 91,100
92,20 93,80 94,40 95,260
96,340 97,350 98,420 99,661
100,180 101,80 102,180 103,60
104,40 105,50 107,50 108,30
109,150 110,100 111,130 112,370
113,140 114,170 115,60 116,1031
117,180 119,40 121,30 123,80
124,60 125,70 126,310 127,70
128,190 129,30 130,60 131,30
133,140 135,40 137,50 138,40
139,30 140,250 141,110 142,120
144,50 149,30 151,30 154,210
155,40 156,150 158,100 166,30
168,540 169,80 170,1371 171,150
172,50 177,60 182,150 183,110
184,1501 185,190 186,50 191,180
192,30 193,100 196,190 197,30
198,1571 199,230 200,130 210,150
211,30 212,2602 213,430 214,1661
215,230 224,80 226,280 227,30
228,280 229,70 230,190 231,30
238,80 240,410 241,60 242,1491
243,400 244,40 252,70 254,220
255,30 256,240 257,40 265,30
266,40 267,80 268,180 270,350
271,70 280,30 282,210 283,70
284,170 285,30 294,90 296,360
297,80 298,100 308,60 310,170
311,30 312,150 322,220 323,50
324,9999 325,2302 326,480 327,70
338,50 339,80 340,230 341,70
354,1061 355,240 368,190 369,761
370,180
##END=
