##TITLE=Heptafluorobutanamide, N-(2-fluorophenyl)-
##JCAMP-DX=4.24
##DATA TYPE=MASS SPECTRUM
##ORIGIN=Zaikin V.G., TIPS RAS, Moscow, Russia
##OWNER=NIST Mass Spectrometry Data Center
Collection (C) 2014 copyright by the U.S. Secretary of Commerce
on behalf of the United States of America. All rights reserved.
##$NIST MASS SPEC NO=308268
##MOLFORM=C10 H5 F8 N O
##MW=307
##$NIST SOURCE=MSDC
##XUNITS=M/Z
##YUNITS=RELATIVE INTENSITY
##XFACTOR=1
##YFACTOR=1
##FIRSTX=57
##LASTX=309
##FIRSTY=190
##MAXX=309
##MINX=57
##MAXY=9999
##MINY=30
##NPOINTS=28
##PEAK TABLE=(XY..XY)
57,190 63,50 69,210 75,130
81,30 82,100 83,1301 84,70
90,550 91,30 94,40 95,200
109,180 110,3023 111,220 112,130
118,210 137,200 138,5075 139,380
140,40 240,30 260,90 288,591
289,40 307,9999 308,1091 309,50
##END=
