##TITLE=Benzamide, N,N-dibutyl-3-methoxy-
##JCAMP-DX=4.24
##DATA TYPE=MASS SPECTRUM
##ORIGIN=Zaikin V.G., TIPS RAS, Moscow, Russia
##OWNER=NIST Mass Spectrometry Data Center
Collection (C) 2014 copyright by the U.S. Secretary of Commerce
on behalf of the United States of America. All rights reserved.
##$NIST MASS SPEC NO=308147
##MOLFORM=C16 H25 N O2
##MW=263
##$NIST SOURCE=MSDC
##XUNITS=M/Z
##YUNITS=RELATIVE INTENSITY
##XFACTOR=1
##YFACTOR=1
##FIRSTX=29
##LASTX=265
##FIRSTY=40
##MAXX=265
##MINX=29
##MAXY=9999
##MINY=20
##NPOINTS=45
##PEAK TABLE=(XY..XY)
29,40 41,30 57,50 64,40
76,20 77,430 78,40 79,30
84,60 86,30 92,260 99,30
100,50 107,921 108,110 120,30
121,1011 122,90 128,30 134,40
135,9999 136,981 137,70 151,50
152,70 156,60 162,30 164,410
165,390 166,30 178,420 179,220
191,60 192,40 206,180 207,40
220,1321 221,430 222,50 234,80
248,80 262,1381 263,2732 264,490
265,40
##END=
