##TITLE=Propanamide, N-ethyl-N-(3-methylphenyl)-2-chloro-
##JCAMP-DX=4.24
##DATA TYPE=MASS SPECTRUM
##ORIGIN=Zaikin V.G., TIPS RAS, Moscow, Russia
##OWNER=NIST Mass Spectrometry Data Center
Collection (C) 2014 copyright by the U.S. Secretary of Commerce
on behalf of the United States of America. All rights reserved.
##$NIST MASS SPEC NO=308384
##MOLFORM=C12 H16 Cl N O
##MW=225
##$NIST SOURCE=MSDC
##XUNITS=M/Z
##YUNITS=RELATIVE INTENSITY
##XFACTOR=1
##YFACTOR=1
##FIRSTX=27
##LASTX=228
##FIRSTY=80
##MAXX=228
##MINX=27
##MAXY=9999
##MINY=10
##NPOINTS=57
##PEAK TABLE=(XY..XY)
27,80 29,140 30,10 39,40
41,40 42,20 43,20 51,20
55,100 57,40 63,300 65,340
77,200 78,80 79,20 89,30
90,350 91,1872 92,220 93,60
104,110 105,70 106,480 107,160
108,50 115,20 117,100 118,2392
119,811 120,4204 121,350 132,320
133,1892 134,9999 135,1341 136,90
146,80 160,70 161,20 162,6936
163,751 164,30 174,60 175,60
188,20 189,470 190,3853 191,430
197,591 198,30 199,150 210,90
224,40 225,7257 226,1031 227,2502
228,270
##END=
