##TITLE=Benzamide, N,N-didecyl-4-bromo-
##JCAMP-DX=4.24
##DATA TYPE=MASS SPECTRUM
##ORIGIN=Zaikin V.G., TIPS RAS, Moscow, Russia
##OWNER=NIST Mass Spectrometry Data Center
Collection (C) 2014 copyright by the U.S. Secretary of Commerce
on behalf of the United States of America. All rights reserved.
##$NIST MASS SPEC NO=308460
##MOLFORM=C27 H46 Br N O
##MW=479
##$NIST SOURCE=MSDC
##XUNITS=M/Z
##YUNITS=RELATIVE INTENSITY
##XFACTOR=1
##YFACTOR=1
##FIRSTX=25
##LASTX=483
##FIRSTY=20
##MAXX=483
##MINX=25
##MAXY=9999
##MINY=10
##NPOINTS=243
##PEAK TABLE=(XY..XY)
25,20 26,130 27,310 28,150
29,380 30,150 37,20 38,30
39,320 40,70 41,1021 42,510
43,1161 44,400 49,10 50,110
51,70 52,20 53,70 54,90
55,761 56,460 57,561 58,90
63,10 65,20 66,10 67,120
68,70 69,310 70,310 71,130
72,10 74,50 75,130 76,340
77,210 78,40 79,70 80,90
81,100 82,150 83,120 84,270
85,100 86,10 89,10 90,10
91,70 92,10 93,10 95,30
96,40 97,70 98,150 99,40
100,10 102,10 103,50 104,901
105,911 106,80 107,10 109,10
110,20 111,10 112,120 113,10
114,20 115,10 116,10 117,20
118,20 119,10 120,20 122,10
124,10 126,110 127,10 128,10
129,10 130,10 131,10 132,40
134,30 135,10 138,10 140,70
141,10 145,20 146,60 147,10
148,50 149,20 154,40 155,671
156,130 157,661 158,80 159,10
160,20 162,10 166,10 168,480
169,110 170,290 171,80 174,10
182,50 183,9999 184,891 185,9769
186,741 187,40 188,10 189,10
190,10 196,90 197,20 198,120
199,30 200,120 201,20 202,100
203,10 210,40 211,20 212,250
213,270 214,250 215,250 216,30
224,60 225,20 226,631 227,340
228,601 229,330 230,30 238,40
239,10 240,180 241,70 242,160
243,60 244,10 252,50 253,10
254,250 255,70 256,220 257,60
260,20 266,30 268,250 269,50
270,210 271,40 272,30 273,10
274,110 275,30 280,20 282,130
283,20 284,110 285,20 286,10
288,10 294,60 295,10 296,320
297,70 298,110 299,20 308,10
310,80 311,10 312,60 313,10
322,10 323,100 324,210 325,120
326,50 336,10 338,270 339,70
340,350 341,80 342,110 343,10
350,50 351,10 352,2742 353,831
354,2702 355,821 356,110 357,10
364,30 366,270 367,70 368,240
369,60 380,220 381,50 382,210
383,50 394,130 395,30 396,120
397,30 400,110 401,50 402,10
408,150 409,30 410,150 411,30
422,130 423,30 424,130 425,30
436,130 437,30 438,120 439,30
450,100 451,20 452,90 453,20
462,10 464,60 465,10 466,40
477,20 478,1281 479,1071 480,1501
481,1061 482,270 483,40
##END=
