##TITLE=Acetoxyacetamide, N,N-dinonyl-
##JCAMP-DX=4.24
##DATA TYPE=MASS SPECTRUM
##ORIGIN=Zaikin V.G., TIPS RAS, Moscow, Russia
##OWNER=NIST Mass Spectrometry Data Center
Collection (C) 2014 copyright by the U.S. Secretary of Commerce
on behalf of the United States of America. All rights reserved.
##$NIST MASS SPEC NO=308299
##MOLFORM=C22 H43 N O3
##MW=369
##$NIST SOURCE=MSDC
##XUNITS=M/Z
##YUNITS=RELATIVE INTENSITY
##XFACTOR=1
##YFACTOR=1
##FIRSTX=26
##LASTX=370
##FIRSTY=40
##MAXX=370
##MINX=26
##MAXY=9999
##MINY=10
##NPOINTS=136
##PEAK TABLE=(XY..XY)
26,40 27,100 28,70 29,180
30,180 36,20 39,80 40,20
41,450 42,230 43,2252 44,771
45,40 53,20 54,40 55,470
56,260 57,691 58,90 60,60
67,60 68,50 69,280 70,270
71,651 72,100 73,791 74,110
76,30 81,50 82,70 83,140
84,200 85,500 86,80 87,20
88,50 95,30 96,50 97,50
98,170 99,100 100,50 101,1942
102,140 103,50 110,30 111,20
112,290 113,110 114,40 124,50
125,20 126,320 127,120 128,40
130,30 138,20 140,210 141,70
142,90 144,120 145,20 152,20
154,1011 155,150 156,9999 157,1041
158,70 168,240 169,60 170,781
171,90 172,30 182,300 183,50
184,891 185,110 186,380 187,40
196,2752 197,530 198,170 199,20
200,90 201,90 202,270 203,30
210,370 211,120 212,80 214,180
215,40 224,210 225,70 226,180
227,20 228,40 238,110 239,30
240,70 242,160 243,20 244,40
252,90 253,20 254,30 256,510
257,90 266,300 267,60 268,390
269,70 270,100 277,10 280,80
282,40 284,230 285,40 294,190
295,40 296,7507 297,1441 298,350
299,50 309,50 310,50 312,90
326,991 327,280 328,40 340,80
354,50 368,50 369,40 370,70
##END=
