##TITLE=Benzamide, N,N-dibutyl-3-fluoro-
##JCAMP-DX=4.24
##DATA TYPE=MASS SPECTRUM
##ORIGIN=Zaikin V.G., TIPS RAS, Moscow, Russia
##OWNER=NIST Mass Spectrometry Data Center
Collection (C) 2014 copyright by the U.S. Secretary of Commerce
on behalf of the United States of America. All rights reserved.
##$NIST MASS SPEC NO=308394
##MOLFORM=C15 H22 F N O
##MW=251
##$NIST SOURCE=MSDC
##XUNITS=M/Z
##YUNITS=RELATIVE INTENSITY
##XFACTOR=1
##YFACTOR=1
##FIRSTX=27
##LASTX=252
##FIRSTY=40
##MAXX=252
##MINX=27
##MAXY=9999
##MINY=30
##NPOINTS=36
##PEAK TABLE=(XY..XY)
27,40 28,30 29,90 39,30
41,100 42,100 43,50 55,40
56,30 57,60 75,130 84,70
94,50 95,1381 96,140 109,150
122,50 123,9999 124,651 125,40
140,50 152,290 153,230 156,30
166,410 167,190 179,40 180,30
194,100 208,1521 209,380 210,30
222,80 250,420 251,741 252,120
##END=
