##TITLE=trans-Cinnamamide, N,N-bis(2-ethylhexyl)-3-trifluoromethyl-
##JCAMP-DX=4.24
##DATA TYPE=MASS SPECTRUM
##ORIGIN=Zaikin V.G., TIPS RAS, Moscow, Russia
##OWNER=NIST Mass Spectrometry Data Center
Collection (C) 2014 copyright by the U.S. Secretary of Commerce
on behalf of the United States of America. All rights reserved.
##$NIST MASS SPEC NO=308073
##MOLFORM=C26 H40 F3 N O
##MW=439
##$NIST SOURCE=MSDC
##XUNITS=M/Z
##YUNITS=RELATIVE INTENSITY
##XFACTOR=1
##YFACTOR=1
##FIRSTX=28
##LASTX=440
##FIRSTY=10
##MAXX=440
##MINX=28
##MAXY=9999
##MINY=10
##NPOINTS=64
##PEAK TABLE=(XY..XY)
28,10 29,40 30,70 41,120
42,70 43,230 44,410 55,130
56,30 57,230 69,120 70,70
71,110 84,80 98,70 102,40
110,30 112,80 126,40 127,50
128,40 140,170 141,50 142,6156
143,611 151,370 152,60 168,120
169,40 170,30 171,931 172,100
180,60 182,70 198,40 199,9999
200,1031 201,50 215,90 216,180
228,120 229,110 240,50 242,460
243,190 270,40 280,30 284,40
298,220 299,30 311,40 312,130
326,30 327,30 328,80 340,3033
341,791 342,80 382,60 396,80
410,90 420,50 439,270 440,70
##END=
