##TITLE=Thiophene-2-carboxamide, N,N-diheptyl-
##JCAMP-DX=4.24
##DATA TYPE=MASS SPECTRUM
##ORIGIN=Zaikin V.G., TIPS RAS, Moscow, Russia
##OWNER=NIST Mass Spectrometry Data Center
Collection (C) 2014 copyright by the U.S. Secretary of Commerce
on behalf of the United States of America. All rights reserved.
##$NIST MASS SPEC NO=308195
##MOLFORM=C19 H33 N O S
##MW=323
##$NIST SOURCE=MSDC
##XUNITS=M/Z
##YUNITS=RELATIVE INTENSITY
##XFACTOR=1
##YFACTOR=1
##FIRSTX=29
##LASTX=325
##FIRSTY=30
##MAXX=325
##MINX=29
##MAXY=9999
##MINY=30
##NPOINTS=60
##PEAK TABLE=(XY..XY)
29,30 39,50 41,80 43,90
44,50 55,80 56,30 57,140
58,70 83,70 97,90 98,30
111,9999 112,661 113,500 122,40
126,190 127,30 128,230 136,30
140,140 141,420 142,390 143,30
154,611 155,330 156,50 168,110
169,30 182,350 183,70 192,160
196,200 197,50 206,490 207,40
210,80 212,110 220,90 224,300
225,60 226,80 234,50 238,3653
239,711 240,230 252,170 266,140
267,40 280,80 290,2863 291,631
292,60 294,130 295,30 308,30
322,90 323,1201 324,300 325,80
##END=
