##TITLE=Propanamide, N,N-diundecyl-2,2-dimethyl-
##JCAMP-DX=4.24
##DATA TYPE=MASS SPECTRUM
##ORIGIN=Zaikin V.G., TIPS RAS, Moscow, Russia
##OWNER=NIST Mass Spectrometry Data Center
Collection (C) 2014 copyright by the U.S. Secretary of Commerce
on behalf of the United States of America. All rights reserved.
##$NIST MASS SPEC NO=308133
##MOLFORM=C27 H55 N O
##MW=409
##$NIST SOURCE=MSDC
##XUNITS=M/Z
##YUNITS=RELATIVE INTENSITY
##XFACTOR=1
##YFACTOR=1
##FIRSTX=28
##LASTX=411
##FIRSTY=30
##MAXX=411
##MINX=28
##MAXY=9999
##MINY=30
##NPOINTS=83
##PEAK TABLE=(XY..XY)
28,30 29,80 30,110 41,240
42,60 43,901 44,480 55,320
56,120 57,9999 58,470 69,230
70,110 71,2352 72,130 73,80
83,130 84,110 85,7927 86,460
87,110 97,80 98,70 99,981
100,130 102,60 112,70 113,450
114,190 115,470 116,30 126,70
128,330 129,220 140,60 142,150
143,90 154,50 155,170 156,230
157,40 168,30 170,370 171,80
182,140 184,1742 185,240 196,30
198,1391 199,210 200,30 210,90
212,1061 213,200 226,330 227,60
240,220 241,30 254,561 255,420
256,280 268,4054 269,801 270,60
282,210 296,190 297,30 310,130
322,30 324,891 325,200 338,100
352,9469 353,2432 354,320 366,120
380,100 394,320 395,70 408,350
409,621 410,250 411,40
##END=
