##TITLE=Benzamide, N,N-dioctyl-4-butyl-
##JCAMP-DX=4.24
##DATA TYPE=MASS SPECTRUM
##ORIGIN=Zaikin V.G., TIPS RAS, Moscow, Russia
##OWNER=NIST Mass Spectrometry Data Center
Collection (C) 2014 copyright by the U.S. Secretary of Commerce
on behalf of the United States of America. All rights reserved.
##$NIST MASS SPEC NO=308573
##MOLFORM=C27 H47 N O
##MW=401
##$NIST SOURCE=MSDC
##XUNITS=M/Z
##YUNITS=RELATIVE INTENSITY
##XFACTOR=1
##YFACTOR=1
##FIRSTX=26
##LASTX=403
##FIRSTY=50
##MAXX=403
##MINX=26
##MAXY=9999
##MINY=20
##NPOINTS=99
##PEAK TABLE=(XY..XY)
26,50 27,100 28,30 29,90
36,40 39,90 41,260 42,110
43,250 44,140 55,170 56,90
57,150 58,40 65,40 67,30
69,80 70,60 71,40 73,30
77,60 79,40 81,20 84,50
89,40 90,190 91,811 92,100
96,30 98,30 103,60 104,80
105,160 112,20 115,40 117,50
118,400 119,230 120,30 131,170
132,50 133,130 134,40 135,50
136,30 140,120 142,80 147,50
148,30 156,190 159,110 160,60
161,9999 162,1271 163,100 175,40
178,60 190,180 191,220 192,30
204,420 205,280 206,30 218,150
219,50 232,180 233,60 240,80
244,30 246,350 247,80 258,40
260,150 261,30 268,70 273,60
274,60 288,210 289,70 290,60
300,30 302,1591 303,561 304,100
316,220 317,60 330,290 331,80
344,200 345,50 358,300 359,80
372,170 373,50 386,60 400,2142
401,1752 402,470 403,70
##END=
