##TITLE=Butanamide, N,N-diheptyl-
##JCAMP-DX=4.24
##DATA TYPE=MASS SPECTRUM
##ORIGIN=Zaikin V.G., TIPS RAS, Moscow, Russia
##OWNER=NIST Mass Spectrometry Data Center
Collection (C) 2014 copyright by the U.S. Secretary of Commerce
on behalf of the United States of America. All rights reserved.
##$NIST MASS SPEC NO=308679
##MOLFORM=C18 H37 N O
##MW=283
##$NIST SOURCE=MSDC
##XUNITS=M/Z
##YUNITS=RELATIVE INTENSITY
##XFACTOR=1
##YFACTOR=1
##FIRSTX=25
##LASTX=284
##FIRSTY=30
##MAXX=284
##MINX=25
##MAXY=9999
##MINY=30
##NPOINTS=77
##PEAK TABLE=(XY..XY)
25,30 26,180 27,480 28,160
29,400 30,290 36,60 37,30
38,60 39,380 40,100 41,1101
42,490 43,1842 44,1221 45,30
53,70 54,70 55,581 56,340
57,681 58,120 67,60 68,50
69,170 70,330 71,951 72,120
73,120 82,30 83,30 84,210
85,50 86,120 87,200 88,70
98,140 99,50 100,260 101,210
112,100 113,40 114,320 115,240
126,210 127,40 128,9999 129,891
130,40 140,70 142,841 143,110
154,90 156,1081 157,160 168,30
170,440 171,60 182,40 184,240
185,50 186,120 198,681 199,120
210,30 212,360 213,60 226,310
227,40 240,2362 241,400 242,30
254,130 268,150 282,40 283,130
284,30
##END=
