##TITLE=1-Naphthamide, N,N-bis(2-ethylhexyl)-
##JCAMP-DX=4.24
##DATA TYPE=MASS SPECTRUM
##ORIGIN=Zaikin V.G., TIPS RAS, Moscow, Russia
##OWNER=NIST Mass Spectrometry Data Center
Collection (C) 2014 copyright by the U.S. Secretary of Commerce
on behalf of the United States of America. All rights reserved.
##$NIST MASS SPEC NO=308690
##MOLFORM=C27 H41 N O
##MW=395
##$NIST SOURCE=MSDC
##XUNITS=M/Z
##YUNITS=RELATIVE INTENSITY
##XFACTOR=1
##YFACTOR=1
##FIRSTX=27
##LASTX=396
##FIRSTY=50
##MAXX=396
##MINX=27
##MAXY=9999
##MINY=30
##NPOINTS=60
##PEAK TABLE=(XY..XY)
27,50 29,60 39,90 41,310
42,160 43,240 44,60 53,30
55,200 56,120 57,190 69,70
70,110 71,40 77,30 84,60
112,70 126,140 127,2182 128,550
129,80 140,70 141,180 142,40
153,40 154,70 155,9999 156,1081
157,80 170,40 171,631 172,140
182,40 183,30 184,310 185,430
186,60 196,50 198,150 199,100
213,80 226,160 227,130 240,60
254,140 255,30 268,30 282,30
283,140 284,80 294,30 296,831
297,340 298,60 338,40 352,30
366,50 394,80 395,591 396,180
##END=
