##TITLE=Cyclobutanecarboxamide, N,N-dinonyl-
##JCAMP-DX=4.24
##DATA TYPE=MASS SPECTRUM
##ORIGIN=Zaikin V.G., TIPS RAS, Moscow, Russia
##OWNER=NIST Mass Spectrometry Data Center
Collection (C) 2014 copyright by the U.S. Secretary of Commerce
on behalf of the United States of America. All rights reserved.
##$NIST MASS SPEC NO=308604
##MOLFORM=C23 H45 N O
##MW=351
##$NIST SOURCE=MSDC
##XUNITS=M/Z
##YUNITS=RELATIVE INTENSITY
##XFACTOR=1
##YFACTOR=1
##FIRSTX=25
##LASTX=352
##FIRSTY=70
##MAXX=352
##MINX=25
##MAXY=9999
##MINY=20
##NPOINTS=129
##PEAK TABLE=(XY..XY)
25,70 26,470 27,911 28,360
29,901 30,360 35,50 36,330
37,60 38,200 39,841 40,200
41,1882 42,831 43,2102 44,1862
45,40 50,90 51,110 52,60
53,340 54,300 55,6606 56,991
57,801 58,140 65,30 67,190
68,120 69,430 70,460 71,300
72,130 73,30 77,30 79,70
81,130 82,230 83,1952 84,500
85,230 86,70 95,40 96,90
97,70 98,430 99,160 100,130
110,60 111,30 112,470 113,240
114,60 124,70 126,400 127,210
128,40 130,30 135,30 138,50
140,290 141,70 142,200 152,60
154,1161 155,160 156,9999 157,1231
158,60 166,30 168,430 169,90
170,801 171,210 180,60 182,721
183,130 184,1992 185,250 186,30
191,30 194,50 196,480 197,130
198,260 199,20 210,1692 211,350
212,240 213,30 222,70 224,821
225,220 226,801 227,120 228,190
229,30 236,50 238,2722 239,601
240,220 250,50 252,891 253,170
254,120 264,20 266,1371 267,290
268,2062 269,440 270,50 280,1672
281,210 282,40 294,911 295,200
296,8548 297,1932 298,210 308,500
309,120 322,1201 323,310 324,40
336,280 337,70 350,300 351,450
352,150
##END=
