##TITLE=Propanamide, N,N-dioctyl-3-cyclopentyl-
##JCAMP-DX=4.24
##DATA TYPE=MASS SPECTRUM
##ORIGIN=Zaikin V.G., TIPS RAS, Moscow, Russia
##OWNER=NIST Mass Spectrometry Data Center
Collection (C) 2014 copyright by the U.S. Secretary of Commerce
on behalf of the United States of America. All rights reserved.
##$NIST MASS SPEC NO=308286
##MOLFORM=C24 H47 N O
##MW=365
##$NIST SOURCE=MSDC
##XUNITS=M/Z
##YUNITS=RELATIVE INTENSITY
##XFACTOR=1
##YFACTOR=1
##FIRSTX=26
##LASTX=367
##FIRSTY=20
##MAXX=367
##MINX=26
##MAXY=9999
##MINY=20
##NPOINTS=119
##PEAK TABLE=(XY..XY)
26,20 27,70 29,110 30,140
39,70 41,390 42,110 43,380
44,631 53,30 54,50 55,881
56,190 57,480 58,80 60,20
67,200 68,60 69,410 70,170
71,240 72,120 73,150 79,200
80,60 81,260 82,60 83,60
84,120 85,30 86,210 87,320
88,20 95,60 96,30 97,160
98,150 99,40 100,230 101,140
107,330 108,30 112,120 113,30
114,230 115,50 124,20 125,220
126,120 127,30 128,350 129,50
140,250 141,40 142,9999 143,1061
144,40 154,80 155,140 156,751
157,70 166,20 168,140 169,40
170,1391 171,330 172,160 182,70
184,7977 185,1221 186,110 196,120
197,30 198,981 199,130 210,180
211,40 212,611 213,110 224,100
226,330 227,50 238,90 239,20
240,861 241,160 242,90 252,180
253,30 254,370 255,60 266,400
267,100 268,8097 269,1601 270,160
280,180 282,20 283,891 284,190
285,20 294,430 295,80 296,3984
297,881 298,90 308,210 309,50
316,240 322,230 323,50 336,280
337,70 350,110 351,30 364,340
365,200 366,80 367,20
##END=
