##TITLE=Acetoxyacetic acid, nonyl ester
##JCAMP-DX=4.24
##DATA TYPE=MASS SPECTRUM
##ORIGIN=Zaikin V.G., TIPS RAS, Moscow, Russia
##OWNER=NIST Mass Spectrometry Data Center
Collection (C) 2014 copyright by the U.S. Secretary of Commerce
on behalf of the United States of America. All rights reserved.
##$NIST MASS SPEC NO=308314
##MOLFORM=C13 H24 O4
##MW=244
##$NIST SOURCE=MSDC
##XUNITS=M/Z
##YUNITS=RELATIVE INTENSITY
##XFACTOR=1
##YFACTOR=1
##FIRSTX=26
##LASTX=171
##FIRSTY=160
##MAXX=171
##MINX=26
##MAXY=9999
##MINY=30
##NPOINTS=63
##PEAK TABLE=(XY..XY)
26,160 27,711 28,70 29,1601
30,80 31,140 36,70 39,561
40,140 41,3303 42,1351 43,9999
44,480 45,70 51,40 52,30
53,190 54,350 55,2973 56,2762
57,2632 58,110 60,30 61,621
65,30 66,30 67,380 68,510
69,1481 70,1621 71,1561 72,100
73,1141 74,300 76,60 77,90
78,40 79,120 81,130 82,400
83,861 84,771 85,691 86,80
91,1451 92,40 93,80 95,50
96,90 97,641 98,561 99,30
101,811 102,30 106,30 107,30
119,1021 120,30 123,30 124,30
126,230 149,110 171,70
##END=
