##TITLE=But-2-enamide, N,N-dioctyl-3-methyl-
##JCAMP-DX=4.24
##DATA TYPE=MASS SPECTRUM
##ORIGIN=Zaikin V.G., TIPS RAS, Moscow, Russia
##OWNER=NIST Mass Spectrometry Data Center
Collection (C) 2014 copyright by the U.S. Secretary of Commerce
on behalf of the United States of America. All rights reserved.
##$NIST MASS SPEC NO=308242
##MOLFORM=C21 H41 N O
##MW=323
##$NIST SOURCE=MSDC
##XUNITS=M/Z
##YUNITS=RELATIVE INTENSITY
##XFACTOR=1
##YFACTOR=1
##FIRSTX=29
##LASTX=325
##FIRSTY=90
##MAXX=325
##MINX=29
##MAXY=9999
##MINY=30
##NPOINTS=69
##PEAK TABLE=(XY..XY)
29,90 30,70 41,110 42,30
43,210 44,270 55,510 56,60
57,230 58,40 69,130 70,60
71,150 72,30 82,100 83,9999
84,571 85,80 98,100 99,30
100,40 112,240 113,250 126,350
127,370 128,120 140,340 141,120
142,3713 143,370 154,360 155,90
156,460 157,40 168,300 169,80
170,90 182,210 183,90 184,130
196,370 197,80 198,40 210,671
211,210 212,100 224,1712 225,530
226,80 238,1111 239,200 240,280
241,40 252,811 253,140 266,360
267,70 268,370 269,60 280,400
281,80 294,170 295,30 308,1301
309,240 322,90 323,1091 324,270
325,30
##END=
