##TITLE=Cyclohexanecarboxamide, N,N-diheptyl-
##JCAMP-DX=4.24
##DATA TYPE=MASS SPECTRUM
##ORIGIN=Zaikin V.G., TIPS RAS, Moscow, Russia
##OWNER=NIST Mass Spectrometry Data Center
Collection (C) 2014 copyright by the U.S. Secretary of Commerce
on behalf of the United States of America. All rights reserved.
##$NIST MASS SPEC NO=308524
##MOLFORM=C21 H41 N O
##MW=323
##$NIST SOURCE=MSDC
##XUNITS=M/Z
##YUNITS=RELATIVE INTENSITY
##XFACTOR=1
##YFACTOR=1
##FIRSTX=25
##LASTX=324
##FIRSTY=20
##MAXX=324
##MINX=25
##MAXY=9999
##MINY=20
##NPOINTS=119
##PEAK TABLE=(XY..XY)
25,20 26,180 27,500 28,230
29,591 30,230 37,30 38,70
39,581 40,130 41,1772 42,611
43,1231 44,901 50,50 51,70
52,40 53,220 54,290 55,2442
56,500 57,1261 58,150 65,50
66,30 67,530 68,130 69,200
70,280 71,70 72,90 73,70
77,60 79,120 80,30 81,300
82,140 83,5245 84,671 85,100
86,130 87,90 95,50 96,40
97,40 98,230 99,100 100,230
101,50 109,80 110,180 111,921
112,260 113,80 114,250 115,40
124,40 126,380 127,60 128,9999
129,881 130,30 138,30 140,200
141,240 142,1071 143,100 152,50
154,330 155,370 156,1131 157,150
166,30 168,260 169,120 170,831
171,100 180,40 182,280 183,120
184,510 185,60 194,40 196,540
197,120 198,420 199,50 210,280
211,50 212,470 213,90 214,60
224,310 225,360 226,230 227,20
238,460 239,300 240,4434 241,711
242,70 250,30 252,290 253,50
266,621 267,120 268,1591 269,290
280,400 281,90 282,210 283,30
294,320 295,60 308,230 309,40
322,150 323,681 324,180
##END=
