##TITLE=Cyclopentanecarboxamide, N,N-diheptyl-
##JCAMP-DX=4.24
##DATA TYPE=MASS SPECTRUM
##ORIGIN=Zaikin V.G., TIPS RAS, Moscow, Russia
##OWNER=NIST Mass Spectrometry Data Center
Collection (C) 2014 copyright by the U.S. Secretary of Commerce
on behalf of the United States of America. All rights reserved.
##$NIST MASS SPEC NO=308613
##MOLFORM=C20 H39 N O
##MW=309
##$NIST SOURCE=MSDC
##XUNITS=M/Z
##YUNITS=RELATIVE INTENSITY
##XFACTOR=1
##YFACTOR=1
##FIRSTX=25
##LASTX=310
##FIRSTY=30
##MAXX=310
##MINX=25
##MAXY=9999
##MINY=20
##NPOINTS=94
##PEAK TABLE=(XY..XY)
25,30 26,200 27,611 28,280
29,701 30,210 37,40 38,80
39,661 40,210 41,2142 42,631
43,1131 44,871 50,30 51,50
53,150 54,100 55,631 56,320
57,851 58,110 65,50 66,50
67,430 68,220 69,4404 70,460
71,50 72,70 79,30 81,40
82,30 83,30 84,250 85,70
86,150 95,110 96,170 97,1211
98,280 99,90 100,240 110,20
112,140 113,70 114,270 124,30
126,350 127,200 128,9999 129,891
130,60 138,50 140,320 141,360
142,921 143,80 152,30 154,310
155,130 156,941 157,90 168,210
169,60 170,781 171,80 182,340
183,120 184,300 185,30 196,110
197,30 198,210 210,170 211,200
212,410 213,60 224,300 225,140
238,160 239,30 240,2272 241,360
252,280 253,50 266,100 268,591
269,90 280,80 294,30 308,30
309,210 310,50
##END=
