##TITLE=Benzamide, N,N-dinonyl-4-methyl-
##JCAMP-DX=4.24
##DATA TYPE=MASS SPECTRUM
##ORIGIN=Zaikin V.G., TIPS RAS, Moscow, Russia
##OWNER=NIST Mass Spectrometry Data Center
Collection (C) 2014 copyright by the U.S. Secretary of Commerce
on behalf of the United States of America. All rights reserved.
##$NIST MASS SPEC NO=308468
##MOLFORM=C26 H45 N O
##MW=387
##$NIST SOURCE=MSDC
##XUNITS=M/Z
##YUNITS=RELATIVE INTENSITY
##XFACTOR=1
##YFACTOR=1
##FIRSTX=28
##LASTX=389
##FIRSTY=10
##MAXX=389
##MINX=28
##MAXY=9999
##MINY=10
##NPOINTS=61
##PEAK TABLE=(XY..XY)
28,10 41,40 43,70 44,40
55,50 57,50 58,80 69,20
91,490 92,30 105,40 118,60
119,9999 120,901 121,50 136,80
148,180 149,300 154,120 156,100
162,510 163,370 169,30 170,280
176,170 177,70 184,20 190,220
191,90 204,270 205,70 218,240
219,50 232,90 245,90 246,40
260,240 261,80 262,70 268,100
274,2542 275,931 276,120 288,250
289,60 296,100 302,280 303,70
316,170 317,40 330,200 331,50
344,170 345,40 358,150 359,30
372,40 386,2232 387,2002 388,520
389,60
##END=
