##TITLE=Propanamide, N-heptyl-N-octyl-3-cyclopentyl-
##JCAMP-DX=4.24
##DATA TYPE=MASS SPECTRUM
##ORIGIN=Zaikin V.G., TIPS RAS, Moscow, Russia
##OWNER=NIST Mass Spectrometry Data Center
Collection (C) 2014 copyright by the U.S. Secretary of Commerce
on behalf of the United States of America. All rights reserved.
##$NIST MASS SPEC NO=308285
##MOLFORM=C23 H45 N O
##MW=351
##$NIST SOURCE=MSDC
##XUNITS=M/Z
##YUNITS=RELATIVE INTENSITY
##XFACTOR=1
##YFACTOR=1
##FIRSTX=26
##LASTX=352
##FIRSTY=100
##MAXX=352
##MINX=26
##MAXY=9999
##MINY=10
##NPOINTS=150
##PEAK TABLE=(XY..XY)
26,100 27,270 28,160 29,410
30,490 38,20 39,290 40,80
41,1411 42,370 43,1151 44,2192
45,40 51,20 53,120 54,180
55,2803 56,540 57,1601 58,240
60,90 65,40 66,40 67,561
68,170 69,1021 70,430 71,390
72,300 73,410 74,40 79,561
80,160 81,681 82,170 83,190
84,290 85,80 86,500 87,681
88,30 91,20 93,30 94,20
95,190 97,450 98,310 99,90
100,500 101,300 105,10 107,791
108,80 109,30 110,40 111,40
112,240 113,80 114,581 123,50
124,60 125,420 126,390 127,80
128,8998 129,841 130,30 136,20
138,40 140,330 141,160 142,9038
143,881 144,40 152,30 153,20
154,200 155,160 156,1752 157,340
158,130 166,50 167,30 168,210
169,70 170,6966 171,1111 172,170
180,30 182,170 183,120 184,6786
185,981 186,90 191,40 192,20
194,30 196,170 197,40 198,1161
199,130 201,20 210,240 211,40
212,641 213,100 222,20 224,170
225,30 226,1121 227,200 228,140
236,30 237,10 238,200 239,40
240,430 241,70 250,30 252,460
253,110 254,9999 255,1802 256,180
264,40 266,350 267,80 268,50
269,1201 270,240 271,20 277,30
278,30 280,400 282,4724 283,861
284,70 294,380 295,70 308,290
309,60 322,300 323,70 324,20
336,120 337,40 349,30 350,300
351,200 352,60
##END=
