##TITLE=Benzamide, N-ethyl-N-(3-methylphenyl)-3-bromo-
##JCAMP-DX=4.24
##DATA TYPE=MASS SPECTRUM
##ORIGIN=Zaikin V.G., TIPS RAS, Moscow, Russia
##OWNER=NIST Mass Spectrometry Data Center
Collection (C) 2014 copyright by the U.S. Secretary of Commerce
on behalf of the United States of America. All rights reserved.
##$NIST MASS SPEC NO=308621
##MOLFORM=C16 H16 Br N O
##MW=317
##$NIST SOURCE=MSDC
##XUNITS=M/Z
##YUNITS=RELATIVE INTENSITY
##XFACTOR=1
##YFACTOR=1
##FIRSTX=25
##LASTX=320
##FIRSTY=70
##MAXX=320
##MINX=25
##MAXY=9999
##MINY=30
##NPOINTS=141
##PEAK TABLE=(XY..XY)
25,70 26,340 27,550 28,110
29,280 35,50 36,230 37,160
38,360 39,931 40,140 41,400
42,170 43,60 44,340 49,160
50,1692 51,1071 52,390 53,180
54,40 55,50 56,30 57,90
61,70 62,200 63,661 64,270
65,1792 66,160 67,50 69,100
73,110 74,701 75,2052 76,2512
77,1742 78,561 79,520 80,380
81,220 82,370 83,110 86,40
87,60 88,40 89,520 90,320
91,4094 92,500 93,100 101,30
102,200 103,200 104,500 105,500
106,150 107,160 108,40 111,70
113,30 114,30 115,170 116,70
117,170 118,2112 119,1181 120,480
121,30 126,40 127,60 128,90
129,50 130,160 131,150 132,360
133,510 134,821 135,200 139,160
140,90 141,70 151,100 152,440
153,140 154,60 155,3453 156,340
157,3343 158,290 163,40 164,70
165,520 166,230 167,210 168,50
177,40 178,120 179,80 180,350
181,150 182,160 183,9999 184,931
185,9709 186,771 187,30 190,40
191,50 192,270 193,100 194,200
195,280 196,30 200,90 202,80
207,30 208,210 209,691 210,781
211,90 212,410 213,50 222,100
223,40 236,120 237,140 238,3493
239,621 240,50 289,240 290,40
291,210 293,40 295,30 302,30
316,661 317,1261 318,891 319,1221
320,220
##END=
