##TITLE=Benzamide, N,N-diundecyl-4-methyl-
##JCAMP-DX=4.24
##DATA TYPE=MASS SPECTRUM
##ORIGIN=Zaikin V.G., TIPS RAS, Moscow, Russia
##OWNER=NIST Mass Spectrometry Data Center
Collection (C) 2014 copyright by the U.S. Secretary of Commerce
on behalf of the United States of America. All rights reserved.
##$NIST MASS SPEC NO=308470
##MOLFORM=C30 H53 N O
##MW=443
##$NIST SOURCE=MSDC
##XUNITS=M/Z
##YUNITS=RELATIVE INTENSITY
##XFACTOR=1
##YFACTOR=1
##FIRSTX=41
##LASTX=446
##FIRSTY=10
##MAXX=446
##MINX=41
##MAXY=9999
##MINY=10
##NPOINTS=74
##PEAK TABLE=(XY..XY)
41,10 43,60 44,20 55,50
57,50 58,60 65,10 69,20
71,20 73,10 83,10 91,250
92,10 105,10 118,20 119,9999
120,861 121,10 136,90 148,110
149,250 162,400 163,320 176,110
177,20 182,110 184,80 190,190
191,20 197,10 198,320 199,20
204,190 205,30 207,70 218,60
219,10 232,70 246,120 247,20
260,40 273,50 274,30 281,20
288,240 289,80 290,70 302,3053
303,1181 304,160 305,10 316,230
317,50 324,80 330,270 331,70
341,10 344,160 345,30 352,100
355,10 358,210 359,40 372,180
373,20 386,150 400,100 401,20
415,100 429,20 443,2843 444,2602
445,731 446,50
##END=
