##TITLE=Benzamide, N,N-diundecyl-3-bromo-
##JCAMP-DX=4.24
##DATA TYPE=MASS SPECTRUM
##ORIGIN=Zaikin V.G., TIPS RAS, Moscow, Russia
##OWNER=NIST Mass Spectrometry Data Center
Collection (C) 2014 copyright by the U.S. Secretary of Commerce
on behalf of the United States of America. All rights reserved.
##$NIST MASS SPEC NO=308630
##MOLFORM=C29 H50 Br N O
##MW=507
##$NIST SOURCE=MSDC
##XUNITS=M/Z
##YUNITS=RELATIVE INTENSITY
##XFACTOR=1
##YFACTOR=1
##FIRSTX=25
##LASTX=510
##FIRSTY=100
##MAXX=510
##MINX=25
##MAXY=9999
##MINY=20
##NPOINTS=235
##PEAK TABLE=(XY..XY)
25,100 26,691 27,1041 28,380
29,951 30,300 35,60 36,400
37,110 38,310 39,991 40,230
41,2362 42,1071 43,2412 44,1051
49,40 50,380 51,320 52,130
53,230 54,260 55,1591 56,951
57,1151 58,100 62,30 63,70
65,110 66,40 67,340 68,210
69,671 70,611 71,280 73,150
74,120 75,260 76,360 77,931
78,240 79,400 80,490 81,390
82,581 83,290 84,420 85,160
89,60 90,50 91,360 92,80
93,60 94,30 95,120 96,130
97,160 98,200 99,60 102,60
103,130 104,200 105,3123 106,280
107,40 109,50 110,50 111,50
112,150 115,90 116,50 117,110
118,80 119,100 120,40 122,50
124,30 126,130 128,70 129,40
130,100 131,80 132,120 133,190
134,150 135,100 139,80 140,90
141,30 145,70 146,510 147,150
148,250 149,60 154,60 155,581
156,130 157,611 158,90 159,40
160,100 161,40 162,110 163,60
168,40 169,50 171,60 174,60
176,40 177,60 180,20 182,550
183,9999 184,981 185,9709 186,751
187,40 188,50 190,40 191,160
192,30 193,90 200,210 202,220
204,40 210,100 212,350 213,160
214,310 215,170 216,30 218,30
224,30 226,661 227,330 228,671
229,320 230,50 240,170 241,50
242,160 243,40 254,170 255,40
256,150 257,40 266,30 267,60
268,240 269,40 270,190 272,20
274,170 275,30 276,130 282,130
283,80 284,130 286,290 287,70
288,1101 289,240 296,90 298,80
300,200 301,40 302,180 303,30
310,80 312,80 314,60 316,100
322,50 324,250 326,80 330,70
338,50 340,50 344,60 352,230
353,50 354,330 355,110 356,220
357,40 358,70 366,1381 367,500
368,1381 369,490 370,100 372,40
380,250 381,50 382,220 383,50
386,40 394,330 395,70 396,310
397,50 408,200 409,40 410,180
411,40 422,190 423,40 424,180
425,50 426,70 427,80 428,5535
429,1792 430,280 436,140 437,30
438,150 439,30 450,160 451,40
452,160 453,40 464,150 465,30
466,150 467,30 478,100 480,110
492,40 494,30 506,1411 507,911
508,1651 509,901 510,220
##END=
