##TITLE=Hexanamide, N,N-didecyl-6-bromo-
##JCAMP-DX=4.24
##DATA TYPE=MASS SPECTRUM
##ORIGIN=Zaikin V.G., TIPS RAS, Moscow, Russia
##OWNER=NIST Mass Spectrometry Data Center
Collection (C) 2014 copyright by the U.S. Secretary of Commerce
on behalf of the United States of America. All rights reserved.
##$NIST MASS SPEC NO=308654
##MOLFORM=C26 H52 Br N O
##MW=473
##$NIST SOURCE=MSDC
##XUNITS=M/Z
##YUNITS=RELATIVE INTENSITY
##XFACTOR=1
##YFACTOR=1
##FIRSTX=25
##LASTX=475
##FIRSTY=80
##MAXX=475
##MINX=25
##MAXY=9999
##MINY=20
##NPOINTS=186
##PEAK TABLE=(XY..XY)
25,80 26,571 27,1051 28,330
29,841 30,561 35,80 36,470
37,80 38,310 39,1021 40,250
41,2702 42,1001 43,2512 44,2572
45,90 50,130 51,160 52,120
53,240 54,250 55,1982 56,841
57,1181 58,200 59,20 60,90
63,30 65,70 66,40 67,370
68,220 69,2692 70,701 71,430
72,190 73,290 74,30 75,40
77,100 78,70 79,420 80,500
81,400 82,571 83,280 84,420
85,270 86,220 87,270 91,90
93,50 94,30 95,130 96,140
97,300 98,330 99,150 100,230
101,100 105,40 106,50 107,100
109,110 110,60 111,80 112,260
113,70 114,250 115,70 119,40
123,40 124,40 126,240 127,60
128,220 129,40 130,30 133,110
135,40 138,30 140,190 141,60
142,200 143,30 147,30 149,60
151,40 154,140 155,30 156,280
157,30 168,420 169,60 170,9999
171,1301 172,70 177,310 178,30
179,260 182,120 183,60 184,821
185,100 191,110 193,60 194,20
196,170 197,30 198,1341 199,280
200,50 210,90 212,2152 213,360
224,90 226,460 227,70 238,80
240,420 241,60 248,30 250,50
252,80 254,440 255,70 262,50
264,50 266,90 267,40 268,400
269,60 276,30 278,30 280,50
282,180 283,70 290,30 294,70
296,561 297,120 298,40 308,60
310,70 322,100 324,5625 325,1351
326,150 334,110 336,110 338,30
339,80 346,200 347,30 348,180
349,30 350,50 352,721 353,180
360,70 362,60 366,160 367,30
374,140 375,30 376,150 388,80
390,80 392,30 393,30 394,1241
395,350 396,40 402,70 404,60
416,80 418,70 430,90 432,90
444,50 446,60 472,60 473,40
474,80 475,40
##END=
