##TITLE=Benzamide, N,N-dinonyl-2-trifluoromethyl-
##JCAMP-DX=4.24
##DATA TYPE=MASS SPECTRUM
##ORIGIN=Zaikin V.G., TIPS RAS, Moscow, Russia
##OWNER=NIST Mass Spectrometry Data Center
Collection (C) 2014 copyright by the U.S. Secretary of Commerce
on behalf of the United States of America. All rights reserved.
##$NIST MASS SPEC NO=308539
##MOLFORM=C26 H42 F3 N O
##MW=441
##$NIST SOURCE=MSDC
##XUNITS=M/Z
##YUNITS=RELATIVE INTENSITY
##XFACTOR=1
##YFACTOR=1
##FIRSTX=26
##LASTX=442
##FIRSTY=40
##MAXX=442
##MINX=26
##MAXY=9999
##MINY=20
##NPOINTS=103
##PEAK TABLE=(XY..XY)
26,40 27,80 28,30 29,80
39,90 41,290 42,150 43,310
44,80 50,30 54,30 55,260
56,130 57,160 67,50 69,130
70,100 71,70 75,30 77,30
81,40 83,70 84,80 85,50
95,60 96,40 97,40 98,30
112,30 125,40 126,90 127,40
130,110 144,30 145,931 146,160
148,100 150,30 154,150 155,30
162,50 170,110 172,50 173,9999
174,771 175,50 182,160 183,50
190,80 196,70 197,50 202,190
203,150 204,40 210,20 214,30
216,861 217,470 218,60 230,200
231,70 244,140 245,40 246,30
258,210 259,50 260,260 261,50
272,160 273,40 274,70 286,70
288,40 296,50 300,40 302,30
314,80 316,110 328,991 329,460
330,100 342,260 343,60 356,240
357,60 370,160 371,40 372,1461
373,410 374,60 384,130 385,30
398,120 399,30 412,110 413,30
420,40 422,110 423,30 426,30
440,641 441,510 442,130
##END=
