##TITLE=Propanamide, N,N-dinonyl-2-chloro-
##JCAMP-DX=4.24
##DATA TYPE=MASS SPECTRUM
##ORIGIN=Zaikin V.G., TIPS RAS, Moscow, Russia
##OWNER=NIST Mass Spectrometry Data Center
Collection (C) 2014 copyright by the U.S. Secretary of Commerce
on behalf of the United States of America. All rights reserved.
##$NIST MASS SPEC NO=308391
##MOLFORM=C21 H42 Cl N O
##MW=359
##$NIST SOURCE=MSDC
##XUNITS=M/Z
##YUNITS=RELATIVE INTENSITY
##XFACTOR=1
##YFACTOR=1
##FIRSTX=27
##LASTX=362
##FIRSTY=20
##MAXX=362
##MINX=27
##MAXY=9999
##MINY=20
##NPOINTS=125
##PEAK TABLE=(XY..XY)
27,20 29,140 30,220 41,300
42,100 43,851 44,1431 45,20
55,400 56,150 57,751 58,60
63,280 65,80 67,20 68,20
69,420 70,200 71,881 72,80
74,40 83,210 84,120 85,591
86,100 87,20 91,90 98,100
99,40 100,150 101,30 108,60
112,130 113,40 114,30 120,180
121,40 122,280 124,60 126,110
127,50 128,60 134,5805 135,410
136,1952 137,110 140,80 141,30
142,90 148,20 154,450 155,60
156,4094 157,460 162,20 168,190
169,70 170,791 171,80 176,40
182,90 183,20 184,2082 185,240
190,50 196,60 198,641 199,80
200,340 201,30 204,20 210,520
211,120 212,681 213,80 218,90
224,220 225,90 226,170 232,40
234,470 235,50 236,150 238,130
239,30 240,100 246,4564 247,681
248,1491 249,190 252,40 254,30
260,190 261,20 262,60 266,80
268,751 269,160 274,240 275,20
276,30 280,40 282,20 288,140
294,400 295,80 296,9999 297,2022
298,190 302,60 316,50 323,100
324,9248 325,2162 326,240 330,801
331,150 332,250 333,30 344,50
358,120 359,200 360,190 361,90
362,40
##END=
