##TITLE=Propanamide, N,N-dioctyl-2-chloro-
##JCAMP-DX=4.24
##DATA TYPE=MASS SPECTRUM
##ORIGIN=Zaikin V.G., TIPS RAS, Moscow, Russia
##OWNER=NIST Mass Spectrometry Data Center
Collection (C) 2014 copyright by the U.S. Secretary of Commerce
on behalf of the United States of America. All rights reserved.
##$NIST MASS SPEC NO=308390
##MOLFORM=C19 H38 Cl N O
##MW=331
##$NIST SOURCE=MSDC
##XUNITS=M/Z
##YUNITS=RELATIVE INTENSITY
##XFACTOR=1
##YFACTOR=1
##FIRSTX=27
##LASTX=334
##FIRSTY=50
##MAXX=334
##MINX=27
##MAXY=9999
##MINY=20
##NPOINTS=127
##PEAK TABLE=(XY..XY)
27,50 28,70 29,170 30,250
36,50 41,410 42,140 43,811
44,1772 45,30 55,470 56,180
57,1421 58,110 63,360 65,100
67,30 69,631 70,260 71,1321
72,80 74,30 80,30 81,30
82,20 83,70 84,110 85,50
86,130 87,20 91,90 97,30
98,130 99,60 100,160 101,20
108,70 110,30 111,70 112,120
113,70 114,50 120,200 121,60
122,280 124,60 126,100 127,40
128,140 134,6696 135,470 136,2292
137,140 140,520 141,60 142,5715
143,550 148,20 154,210 155,90
156,871 157,60 162,20 168,220
169,20 170,1872 171,180 176,80
178,30 180,20 182,70 184,811
185,80 186,360 187,20 190,20
196,480 197,130 198,1071 199,130
204,60 210,250 211,70 212,180
218,40 220,410 221,50 222,130
224,110 226,80 232,4664 233,621
234,1551 235,170 238,90 240,821
241,150 246,230 247,20 248,60
252,40 254,50 260,240 261,20
262,70 266,400 267,70 268,9198
269,1692 270,140 274,120 276,50
278,30 288,40 295,70 296,9999
297,2052 298,180 302,490 303,80
304,150 316,30 330,80 331,220
332,160 333,80 334,30
##END=
