##TITLE=Acetoxyacetic acid, 4-tetradecyl ester
##JCAMP-DX=4.24
##DATA TYPE=MASS SPECTRUM
##ORIGIN=Zaikin V.G., TIPS RAS, Moscow, Russia
##OWNER=NIST Mass Spectrometry Data Center
Collection (C) 2014 copyright by the U.S. Secretary of Commerce
on behalf of the United States of America. All rights reserved.
##$NIST MASS SPEC NO=308809
##MOLFORM=C18 H34 O4
##MW=314
##$NIST SOURCE=MSDC
##XUNITS=M/Z
##YUNITS=RELATIVE INTENSITY
##XFACTOR=1
##YFACTOR=1
##FIRSTX=26
##LASTX=213
##FIRSTY=130
##MAXX=213
##MINX=26
##MAXY=9999
##MINY=30
##NPOINTS=82
##PEAK TABLE=(XY..XY)
26,130 27,470 28,40 29,1041
30,40 31,60 38,80 39,440
40,90 41,2612 42,801 43,5875
44,380 45,80 51,40 52,30
53,170 54,380 55,3043 56,1631
57,4614 58,230 60,30 61,130
65,30 66,50 67,530 68,400
69,2152 70,1501 71,2863 72,170
73,2843 74,400 75,40 77,40
79,90 81,310 82,500 83,1641
84,901 85,1822 86,240 87,40
91,500 95,170 96,350 97,1341
98,520 99,540 100,40 101,9999
102,420 103,60 109,60 110,210
111,741 112,330 113,340 114,30
119,1051 120,40 124,140 125,400
126,250 127,250 128,40 138,50
139,150 140,90 141,160 152,40
153,100 154,50 155,60 167,30
168,130 169,140 173,50 196,581
197,230 213,50
##END=
