##TITLE=Acetoxyacetamide, N,N-diundecyl-
##JCAMP-DX=4.24
##DATA TYPE=MASS SPECTRUM
##ORIGIN=Zaikin V.G., TIPS RAS, Moscow, Russia
##OWNER=NIST Mass Spectrometry Data Center
Collection (C) 2014 copyright by the U.S. Secretary of Commerce
on behalf of the United States of America. All rights reserved.
##$NIST MASS SPEC NO=308301
##MOLFORM=C26 H51 N O3
##MW=425
##$NIST SOURCE=MSDC
##XUNITS=M/Z
##YUNITS=RELATIVE INTENSITY
##XFACTOR=1
##YFACTOR=1
##FIRSTX=26
##LASTX=426
##FIRSTY=70
##MAXX=426
##MINX=26
##MAXY=9999
##MINY=10
##NPOINTS=172
##PEAK TABLE=(XY..XY)
26,70 27,150 28,10 29,250
30,250 36,50 39,130 40,30
41,611 42,270 43,2602 44,1151
45,80 53,40 54,60 55,741
56,370 57,1311 58,140 60,110
67,120 68,70 69,450 70,370
71,601 72,120 73,891 74,150
76,50 77,20 79,40 81,100
82,110 83,230 84,270 85,500
86,110 87,50 88,70 89,20
91,20 93,20 95,80 96,120
97,150 98,220 99,190 100,70
101,2102 102,160 103,50 109,50
110,60 111,60 112,340 113,160
114,60 115,20 116,20 123,30
124,40 125,30 126,380 127,130
128,60 130,30 131,20 133,30
138,30 140,270 141,100 142,50
144,130 145,20 152,70 154,210
155,60 156,40 158,20 166,20
168,180 169,40 170,120 172,40
180,30 182,1271 183,200 184,9999
185,1381 186,100 191,40 193,20
196,250 197,70 198,921 199,120
200,30 210,380 211,70 212,1181
213,170 214,691 215,100 222,20
224,3793 225,781 226,340 227,40
228,100 229,80 230,330 231,50
238,430 239,170 240,100 241,20
242,190 243,50 252,240 253,90
254,200 255,30 256,40 266,150
267,70 268,100 270,170 271,30
272,50 280,140 282,130 283,30
284,530 285,100 294,140 295,30
296,70 298,90 308,90 309,20
310,80 312,220 313,40 322,300
323,70 324,500 325,120 326,210
327,40 336,60 338,50 340,130
341,20 350,280 351,90 352,9449
353,2352 354,430 355,50 365,80
366,90 367,20 368,140 369,30
382,1411 383,430 384,60 396,40
410,50 424,80 425,50 426,30
##END=
