##TITLE=2,3,4-Trifluorobenzoic acid, 4-benzyloxyphenyl ester
##JCAMP-DX=4.24
##DATA TYPE=MASS SPECTRUM
##ORIGIN=Zaikin V.G., TIPS RAS, Moscow, Russia
##OWNER=NIST Mass Spectrometry Data Center
Collection (C) 2014 copyright by the U.S. Secretary of Commerce
on behalf of the United States of America. All rights reserved.
##$NIST MASS SPEC NO=308038
##MOLFORM=C20 H13 F3 O3
##MW=358
##$NIST SOURCE=MSDC
##XUNITS=M/Z
##YUNITS=RELATIVE INTENSITY
##XFACTOR=1
##YFACTOR=1
##FIRSTX=39
##LASTX=360
##FIRSTY=50
##MAXX=360
##MINX=39
##MAXY=9999
##MINY=30
##NPOINTS=17
##PEAK TABLE=(XY..XY)
39,50 51,30 54,30 63,40
65,350 81,170 89,60 90,50
91,9999 92,731 131,571 132,60
159,2502 160,190 358,1672 359,360
360,50
##END=
