##TITLE=Benzamide, N-decyl-N-methyl-2-fluoro-
##JCAMP-DX=4.24
##DATA TYPE=MASS SPECTRUM
##ORIGIN=Zaikin V.G., TIPS RAS, Moscow, Russia
##OWNER=NIST Mass Spectrometry Data Center
Collection (C) 2014 copyright by the U.S. Secretary of Commerce
on behalf of the United States of America. All rights reserved.
##$NIST MASS SPEC NO=308095
##MOLFORM=C18 H28 F N O
##MW=293
##$NIST SOURCE=MSDC
##XUNITS=M/Z
##YUNITS=RELATIVE INTENSITY
##XFACTOR=1
##YFACTOR=1
##FIRSTX=29
##LASTX=295
##FIRSTY=30
##MAXX=295
##MINX=29
##MAXY=9999
##MINY=30
##NPOINTS=56
##PEAK TABLE=(XY..XY)
29,30 41,80 42,50 43,100
44,180 55,90 57,120 58,70
69,30 70,40 75,50 95,480
96,40 105,40 119,30 122,30
123,9999 124,751 125,40 134,80
136,70 146,310 147,110 148,170
152,631 153,170 154,420 155,30
160,80 161,120 162,50 166,4664
167,2092 168,200 170,70 180,831
181,140 194,510 195,100 198,140
222,270 223,50 236,220 237,40
250,200 251,30 264,160 273,70
274,210 275,30 276,30 278,110
292,991 293,1631 294,370 295,40
##END=
