##TITLE=Furan-2-carboxamide, N,N-dinonyl-
##JCAMP-DX=4.24
##DATA TYPE=MASS SPECTRUM
##ORIGIN=Zaikin V.G., TIPS RAS, Moscow, Russia
##OWNER=NIST Mass Spectrometry Data Center
Collection (C) 2014 copyright by the U.S. Secretary of Commerce
on behalf of the United States of America. All rights reserved.
##$NIST MASS SPEC NO=308210
##MOLFORM=C23 H41 N O2
##MW=363
##$NIST SOURCE=MSDC
##XUNITS=M/Z
##YUNITS=RELATIVE INTENSITY
##XFACTOR=1
##YFACTOR=1
##FIRSTX=29
##LASTX=365
##FIRSTY=40
##MAXX=365
##MINX=29
##MAXY=9999
##MINY=20
##NPOINTS=92
##PEAK TABLE=(XY..XY)
29,40 30,30 41,130 42,40
43,280 44,190 55,170 56,60
57,170 58,90 69,160 70,60
71,80 81,190 82,30 83,90
84,40 85,40 95,8518 96,490
97,60 98,60 100,40 110,80
111,50 112,290 123,30 124,480
125,430 126,220 138,5975 139,1131
140,90 142,50 152,280 153,90
154,390 155,40 156,480 157,40
164,30 166,751 167,150 169,90
170,440 171,40 180,480 181,160
182,100 194,440 195,90 208,310
209,70 210,20 220,50 221,210
222,270 223,120 224,70 234,30
236,981 237,250 238,360 239,40
250,9999 251,2272 252,280 264,1501
265,290 266,50 268,310 269,60
278,1471 279,500 280,70 292,490
293,300 294,40 306,540 307,170
320,801 321,190 334,871 335,290
336,30 345,30 346,100 348,100
362,290 363,3303 364,931 365,130
##END=
