##TITLE=Pentafluoropropanoic acid, 2-naphthyl ester
##JCAMP-DX=4.24
##DATA TYPE=MASS SPECTRUM
##ORIGIN=Zaikin V.G., TIPS RAS, Moscow, Russia
##OWNER=NIST Mass Spectrometry Data Center
Collection (C) 2014 copyright by the U.S. Secretary of Commerce
on behalf of the United States of America. All rights reserved.
##$NIST MASS SPEC NO=308007
##MOLFORM=C13 H7 F5 O2
##MW=290
##$NIST SOURCE=MSDC
##XUNITS=M/Z
##YUNITS=RELATIVE INTENSITY
##XFACTOR=1
##YFACTOR=1
##FIRSTX=36
##LASTX=292
##FIRSTY=10
##MAXX=292
##MINX=36
##MAXY=9999
##MINY=10
##NPOINTS=42
##PEAK TABLE=(XY..XY)
36,10 39,40 44,10 45,10
50,10 51,20 62,20 63,140
64,50 65,110 69,100 74,10
75,40 77,30 87,10 88,50
89,220 100,30 101,10 108,10
109,70 113,60 114,210 115,4754
116,450 119,260 124,50 125,10
126,50 127,691 128,120 130,10
142,30 143,1822 144,180 223,30
243,90 254,30 289,50 290,9999
291,1391 292,110
##END=
