##TITLE=Phenylacetamide, N,N-diheptyl-
##JCAMP-DX=4.24
##DATA TYPE=MASS SPECTRUM
##ORIGIN=Zaikin V.G., TIPS RAS, Moscow, Russia
##OWNER=NIST Mass Spectrometry Data Center
Collection (C) 2014 copyright by the U.S. Secretary of Commerce
on behalf of the United States of America. All rights reserved.
##$NIST MASS SPEC NO=308411
##MOLFORM=C22 H37 N O
##MW=331
##$NIST SOURCE=MSDC
##XUNITS=M/Z
##YUNITS=RELATIVE INTENSITY
##XFACTOR=1
##YFACTOR=1
##FIRSTX=26
##LASTX=333
##FIRSTY=60
##MAXX=333
##MINX=26
##MAXY=9999
##MINY=30
##NPOINTS=115
##PEAK TABLE=(XY..XY)
26,60 27,180 28,150 29,390
30,370 36,30 39,190 40,40
41,931 42,350 43,1511 44,1211
45,30 51,40 53,40 54,40
55,751 56,310 57,8107 58,420
63,60 65,250 67,50 68,30
69,190 70,210 71,120 72,110
77,30 81,30 83,40 84,180
85,70 86,90 89,180 90,280
91,4554 92,1021 93,80 97,50
98,180 99,280 100,80 104,130
105,120 106,70 107,30 112,120
113,40 114,160 117,50 118,490
119,120 120,70 126,230 127,30
128,9999 129,841 130,30 134,30
135,30 136,50 140,40 142,1361
143,120 148,130 149,220 150,30
154,100 156,891 157,100 158,180
162,150 163,300 164,30 168,40
170,170 174,340 175,60 176,90
177,60 182,30 184,120 190,110
191,30 198,200 204,230 205,30
212,420 213,70 217,30 218,70
232,270 233,240 234,170 238,30
240,8077 241,1241 242,110 246,741
247,450 248,70 260,220 261,50
274,470 275,100 288,240 289,50
302,190 303,40 316,120 330,160
331,2332 332,621 333,80
##END=
