##TITLE=Propanamide, N,N-dihexyl-2-methyl-
##JCAMP-DX=4.24
##DATA TYPE=MASS SPECTRUM
##ORIGIN=Zaikin V.G., TIPS RAS, Moscow, Russia
##OWNER=NIST Mass Spectrometry Data Center
Collection (C) 2014 copyright by the U.S. Secretary of Commerce
on behalf of the United States of America. All rights reserved.
##$NIST MASS SPEC NO=308082
##MOLFORM=C16 H33 N O
##MW=255
##$NIST SOURCE=MSDC
##XUNITS=M/Z
##YUNITS=RELATIVE INTENSITY
##XFACTOR=1
##YFACTOR=1
##FIRSTX=27
##LASTX=256
##FIRSTY=30
##MAXX=256
##MINX=27
##MAXY=9999
##MINY=10
##NPOINTS=45
##PEAK TABLE=(XY..XY)
27,30 28,10 29,30 30,90
36,30 41,200 42,50 43,2082
44,721 55,100 56,30 57,120
58,60 70,60 71,1111 72,110
73,70 84,30 85,310 86,40
87,100 88,30 100,230 101,220
112,70 114,9999 115,1051 116,30
128,911 129,150 142,751 143,60
156,170 170,150 171,140 172,70
184,781 185,160 198,110 212,2302
213,280 226,120 240,30 255,480
256,90
##END=
