##TITLE=Acetoxyacetic acid, undecyl ester
##JCAMP-DX=4.24
##DATA TYPE=MASS SPECTRUM
##ORIGIN=Zaikin V.G., TIPS RAS, Moscow, Russia
##OWNER=NIST Mass Spectrometry Data Center
Collection (C) 2014 copyright by the U.S. Secretary of Commerce
on behalf of the United States of America. All rights reserved.
##$NIST MASS SPEC NO=308318
##MOLFORM=C15 H28 O4
##MW=272
##$NIST SOURCE=MSDC
##XUNITS=M/Z
##YUNITS=RELATIVE INTENSITY
##XFACTOR=1
##YFACTOR=1
##FIRSTX=26
##LASTX=273
##FIRSTY=140
##MAXX=273
##MINX=26
##MAXY=9999
##MINY=30
##NPOINTS=85
##PEAK TABLE=(XY..XY)
26,140 27,520 28,50 29,1271
30,80 31,110 36,30 38,30
39,480 40,120 41,3083 42,1381
43,9999 44,550 45,60 51,30
53,190 54,581 55,4534 56,3833
57,6466 58,330 59,50 60,40
61,1051 65,30 66,60 67,771
68,1181 69,4384 70,3994 71,3013
72,300 73,2292 74,591 75,50
76,310 77,220 79,70 81,340
82,1641 83,3813 84,2803 85,1992
86,400 87,30 90,30 91,4844
92,170 93,50 95,170 96,651
97,3313 98,1672 99,420 100,320
101,3793 102,180 103,40 109,60
110,240 111,1601 112,821 113,180
114,190 118,220 119,9699 120,430
121,80 124,110 125,761 126,1722
127,170 128,50 140,60 145,40
152,50 154,1371 155,170 159,90
199,1571 200,190 230,1081 231,140
273,50
##END=
