##TITLE=Propanamide, N-ethyl-N-(3-methylphenyl)-3-phenyl-
##JCAMP-DX=4.24
##DATA TYPE=MASS SPECTRUM
##ORIGIN=Zaikin V.G., TIPS RAS, Moscow, Russia
##OWNER=NIST Mass Spectrometry Data Center
Collection (C) 2014 copyright by the U.S. Secretary of Commerce
on behalf of the United States of America. All rights reserved.
##$NIST MASS SPEC NO=308213
##MOLFORM=C18 H21 N O
##MW=267
##$NIST SOURCE=MSDC
##XUNITS=M/Z
##YUNITS=RELATIVE INTENSITY
##XFACTOR=1
##YFACTOR=1
##FIRSTX=29
##LASTX=269
##FIRSTY=30
##MAXX=269
##MINX=29
##MAXY=9999
##MINY=30
##NPOINTS=55
##PEAK TABLE=(XY..XY)
29,30 46,120 65,250 77,300
78,60 79,280 80,40 86,130
89,30 91,3123 92,310 93,120
103,200 104,120 105,1732 106,370
107,380 108,30 117,50 118,420
119,470 120,8077 121,1802 122,140
131,30 132,160 133,140 134,971
135,7747 136,901 137,30 148,70
149,30 160,310 161,30 162,190
163,60 174,30 175,40 176,270
179,50 181,921 182,130 190,30
194,981 195,320 196,260 222,120
223,40 238,40 239,90 266,210
267,9999 268,2042 269,190
##END=
