##TITLE=Pentafluoropropanamide, N,N-diundecyl-
##JCAMP-DX=4.24
##DATA TYPE=MASS SPECTRUM
##ORIGIN=Zaikin V.G., TIPS RAS, Moscow, Russia
##OWNER=NIST Mass Spectrometry Data Center
Collection (C) 2014 copyright by the U.S. Secretary of Commerce
on behalf of the United States of America. All rights reserved.
##$NIST MASS SPEC NO=308518
##MOLFORM=C25 H46 F5 N O
##MW=471
##$NIST SOURCE=MSDC
##XUNITS=M/Z
##YUNITS=RELATIVE INTENSITY
##XFACTOR=1
##YFACTOR=1
##FIRSTX=26
##LASTX=472
##FIRSTY=130
##MAXX=472
##MINX=26
##MAXY=9999
##MINY=20
##NPOINTS=125
##PEAK TABLE=(XY..XY)
26,130 27,270 28,130 29,340
30,60 38,30 39,300 40,80
41,1111 42,440 43,1672 44,180
50,50 51,50 53,90 54,160
55,1411 56,561 57,1371 58,130
67,260 68,190 69,1151 70,440
71,581 72,80 78,30 79,40
81,180 82,160 83,1001 84,290
85,290 86,30 95,130 96,90
97,1001 98,230 99,90 100,70
101,30 109,40 110,50 111,310
112,150 113,60 119,190 124,30
126,110 140,90 147,50 152,30
153,30 154,70 164,110 168,40
172,50 176,290 177,200 178,390
182,160 183,30 184,260 185,30
189,30 190,6116 191,591 192,100
196,30 198,450 199,60 202,60
204,90 205,30 210,100 211,30
212,1822 213,280 216,90 218,290
219,30 224,40 226,80 230,40
232,120 238,30 239,60 240,30
244,30 246,90 252,70 253,40
254,40 260,90 266,50 268,30
274,90 280,30 288,40 310,30
316,120 318,881 319,140 322,70
324,100 330,3593 331,601 332,90
344,140 350,130 351,40 352,9999
353,2352 354,310 358,310 359,60
372,50 386,30 400,30 442,20
452,210 453,50 470,50 471,30
472,30
##END=
