##TITLE=Acetoxyacetic acid, 4-tridecyl ester
##JCAMP-DX=4.24
##DATA TYPE=MASS SPECTRUM
##ORIGIN=Zaikin V.G., TIPS RAS, Moscow, Russia
##OWNER=NIST Mass Spectrometry Data Center
Collection (C) 2014 copyright by the U.S. Secretary of Commerce
on behalf of the United States of America. All rights reserved.
##$NIST MASS SPEC NO=308807
##MOLFORM=C17 H32 O4
##MW=300
##$NIST SOURCE=MSDC
##XUNITS=M/Z
##YUNITS=RELATIVE INTENSITY
##XFACTOR=1
##YFACTOR=1
##FIRSTX=26
##LASTX=199
##FIRSTY=60
##MAXX=199
##MINX=26
##MAXY=9999
##MINY=10
##NPOINTS=76
##PEAK TABLE=(XY..XY)
26,60 27,140 28,10 29,290
39,170 40,30 41,1011 42,310
43,4124 44,360 45,40 51,30
52,30 53,90 54,180 55,1541
56,851 57,2332 58,120 61,60
67,310 68,240 69,1301 70,991
71,1902 72,120 73,1972 74,290
75,30 77,40 79,90 81,200
82,340 83,1191 84,681 85,1381
86,200 87,30 91,370 95,110
96,250 97,1021 98,450 99,500
100,40 101,9999 102,450 103,70
109,40 110,220 111,681 112,400
113,410 114,30 119,921 120,30
124,90 125,430 126,180 127,290
128,60 138,60 139,210 140,120
141,130 142,30 153,70 154,230
155,230 156,40 173,90 182,1201
183,500 184,40 198,40 199,140
##END=
