##TITLE=Benzamide, N-heptyl-N-octyl-2,3,4-trifluoro-
##JCAMP-DX=4.24
##DATA TYPE=MASS SPECTRUM
##ORIGIN=Zaikin V.G., TIPS RAS, Moscow, Russia
##OWNER=NIST Mass Spectrometry Data Center
Collection (C) 2014 copyright by the U.S. Secretary of Commerce
on behalf of the United States of America. All rights reserved.
##$NIST MASS SPEC NO=308424
##MOLFORM=C22 H34 F3 N O
##MW=385
##$NIST SOURCE=MSDC
##XUNITS=M/Z
##YUNITS=RELATIVE INTENSITY
##XFACTOR=1
##YFACTOR=1
##FIRSTX=27
##LASTX=387
##FIRSTY=30
##MAXX=387
##MINX=27
##MAXY=9999
##MINY=10
##NPOINTS=87
##PEAK TABLE=(XY..XY)
27,30 28,10 29,40 36,30
41,130 42,70 43,130 44,50
55,130 56,60 57,110 69,80
70,40 81,60 84,30 126,50
128,30 131,350 132,60 140,90
141,50 142,30 154,20 158,30
159,9999 160,701 161,40 170,40
176,140 182,110 183,50 184,70
188,240 189,190 190,70 196,70
197,40 202,1832 203,520 204,50
210,30 214,110 215,40 216,230
217,70 224,40 226,60 230,220
231,50 238,30 244,160 254,40
255,30 257,40 258,70 266,110
267,40 268,30 271,40 272,140
273,30 274,110 280,210 281,70
282,40 286,1732 287,510 288,150
294,110 295,30 300,1852 301,550
302,70 314,290 315,70 328,120
329,30 342,90 356,100 365,40
366,230 367,50 370,40 384,250
385,1321 386,330 387,40
##END=
