##TITLE=Phosphoric acid, trihexyl ester
##JCAMP-DX=4.24
##DATA TYPE=MASS SPECTRUM
##ORIGIN=Zaikin V.G., Institute of Petrochemical Synthesis RAS
##OWNER=NIST Mass Spectrometry Data Center
Collection (C) 2014 copyright by the U.S. Secretary of Commerce
on behalf of the United States of America. All rights reserved.
##$NIST MASS SPEC NO=308911
##MOLFORM=C18 H39 O4 P
##MW=350
##$NIST SOURCE=MSDC
##XUNITS=M/Z
##YUNITS=RELATIVE INTENSITY
##XFACTOR=1
##YFACTOR=1
##FIRSTX=27
##LASTX=351
##FIRSTY=100
##MAXX=351
##MINX=27
##MAXY=9999
##MINY=30
##NPOINTS=41
##PEAK TABLE=(XY..XY)
27,100 29,120 39,110 41,420
42,180 43,731 53,40 54,70
55,510 56,270 57,110 67,100
68,30 69,130 81,40 82,70
83,180 84,100 85,180 99,9999
101,70 111,50 112,60 113,160
125,250 126,30 127,270 139,90
141,30 153,110 165,50 167,30
181,50 183,2082 184,140 211,180
267,2092 268,270 269,30 321,30
351,90
##END=
