##TITLE=Nicotinamide, N-(4-fluorophenyl)-
##JCAMP-DX=4.24
##DATA TYPE=MASS SPECTRUM
##ORIGIN=Zaikin V.G., TIPS RAS, Moscow, Russia
##OWNER=NIST Mass Spectrometry Data Center
Collection (C) 2014 copyright by the U.S. Secretary of Commerce
on behalf of the United States of America. All rights reserved.
##$NIST MASS SPEC NO=308104
##MOLFORM=C12 H9 F N2 O
##MW=216
##$NIST SOURCE=MSDC
##XUNITS=M/Z
##YUNITS=RELATIVE INTENSITY
##XFACTOR=1
##YFACTOR=1
##FIRSTX=26
##LASTX=218
##FIRSTY=30
##MAXX=218
##MINX=26
##MAXY=9999
##MINY=10
##NPOINTS=39
##PEAK TABLE=(XY..XY)
26,30 27,80 28,10 38,30
39,60 50,240 51,1321 52,220
53,60 57,240 62,30 63,80
64,40 75,130 76,60 77,110
78,4994 79,350 81,60 82,100
83,581 84,150 89,30 95,120
105,50 106,9999 107,691 108,60
109,100 110,150 111,330 112,60
133,30 137,40 198,30 215,330
216,6136 217,851 218,60
##END=
