##TITLE=Methoxyacetamide, N,N-dihexyl-
##JCAMP-DX=4.24
##DATA TYPE=MASS SPECTRUM
##ORIGIN=Zaikin V.G., TIPS RAS, Moscow, Russia
##OWNER=NIST Mass Spectrometry Data Center
Collection (C) 2014 copyright by the U.S. Secretary of Commerce
on behalf of the United States of America. All rights reserved.
##$NIST MASS SPEC NO=308492
##MOLFORM=C15 H31 N O2
##MW=257
##$NIST SOURCE=MSDC
##XUNITS=M/Z
##YUNITS=RELATIVE INTENSITY
##XFACTOR=1
##YFACTOR=1
##FIRSTX=26
##LASTX=258
##FIRSTY=120
##MAXX=258
##MINX=26
##MAXY=9999
##MINY=20
##NPOINTS=117
##PEAK TABLE=(XY..XY)
26,120 27,350 28,100 29,671
30,190 31,100 35,100 39,360
40,90 41,1541 42,871 43,5355
44,1231 45,5495 46,130 50,70
51,60 52,60 53,120 54,120
55,1141 56,601 57,1601 58,520
59,30 60,80 67,140 68,100
69,300 70,440 71,170 72,280
73,170 74,60 77,50 78,30
79,110 80,30 81,60 82,100
83,160 84,540 85,6456 86,581
87,380 88,1101 89,50 91,30
95,30 96,60 97,30 98,450
99,220 100,240 101,130 102,250
103,70 104,20 110,40 111,30
112,861 113,160 114,1742 115,160
116,1271 117,220 123,30 124,80
126,220 127,120 128,3303 129,280
130,80 131,30 140,240 141,40
142,1571 143,200 144,130 153,30
154,170 155,30 156,2612 157,340
158,2562 159,260 168,90 170,280
171,40 172,410 173,60 174,160
182,90 183,40 184,530 185,70
186,2552 187,420 188,30 196,50
198,220 200,320 201,40 210,120
212,9999 213,1521 214,631 215,70
226,40 227,220 228,300 229,30
242,1391 243,210 256,90 257,1091
258,200
##END=
