##TITLE=Benzamide, N,N-bis(2-ethylhexyl)-4-chloro-
##JCAMP-DX=4.24
##DATA TYPE=MASS SPECTRUM
##ORIGIN=Zaikin V.G., TIPS RAS, Moscow, Russia
##OWNER=NIST Mass Spectrometry Data Center
Collection (C) 2014 copyright by the U.S. Secretary of Commerce
on behalf of the United States of America. All rights reserved.
##$NIST MASS SPEC NO=308589
##MOLFORM=C23 H38 Cl N O
##MW=379
##$NIST SOURCE=MSDC
##XUNITS=M/Z
##YUNITS=RELATIVE INTENSITY
##XFACTOR=1
##YFACTOR=1
##FIRSTX=26
##LASTX=379
##FIRSTY=40
##MAXX=379
##MINX=26
##MAXY=9999
##MINY=20
##NPOINTS=80
##PEAK TABLE=(XY..XY)
26,40 27,110 28,50 29,130
30,30 36,90 38,20 39,130
40,40 41,450 42,200 43,340
44,270 50,70 51,50 53,40
54,30 55,290 56,150 57,280
67,50 68,30 69,150 70,170
71,80 74,40 75,160 76,120
77,90 81,30 83,30 84,80
85,30 98,40 104,200 105,80
111,921 112,200 113,300 114,30
125,60 133,20 137,30 138,40
139,9999 140,781 141,3423 142,240
156,150 158,40 168,220 169,230
170,120 171,70 180,30 182,931
183,180 184,300 185,50 191,30
196,40 210,110 211,40 212,30
224,30 238,150 240,50 249,50
250,30 251,70 252,30 266,40
267,30 268,100 278,40 280,2392
281,490 282,831 283,160 379,50
##END=
