##TITLE=3-Phenylpropionic acid, morpholide
##JCAMP-DX=4.24
##DATA TYPE=MASS SPECTRUM
##ORIGIN=Zaikin V.G., TIPS RAS, Moscow, Russia
##OWNER=NIST Mass Spectrometry Data Center
Collection (C) 2014 copyright by the U.S. Secretary of Commerce
on behalf of the United States of America. All rights reserved.
##$NIST MASS SPEC NO=308112
##MOLFORM=C13 H17 N O2
##MW=219
##$NIST SOURCE=MSDC
##XUNITS=M/Z
##YUNITS=RELATIVE INTENSITY
##XFACTOR=1
##YFACTOR=1
##FIRSTX=26
##LASTX=221
##FIRSTY=60
##MAXX=221
##MINX=26
##MAXY=9999
##MINY=20
##NPOINTS=91
##PEAK TABLE=(XY..XY)
26,60 27,240 28,90 29,240
30,220 31,30 39,180 41,140
42,591 43,210 44,450 45,90
50,80 51,330 52,90 53,100
54,90 55,290 56,1511 57,3093
58,310 59,60 63,120 64,30
65,571 66,40 67,70 68,30
69,90 70,771 71,50 72,200
74,30 75,30 76,50 77,871
78,410 79,480 80,30 84,50
85,100 86,2983 87,2272 88,1221
89,170 90,70 91,5335 92,520
98,180 99,30 100,60 102,100
103,711 104,1451 105,3713 106,370
107,30 110,80 112,50 114,791
115,140 116,20 117,50 118,60
119,40 120,70 128,2873 129,220
130,40 131,420 132,561 133,681
134,100 142,110 145,30 146,60
148,40 160,90 162,320 163,90
174,220 175,50 176,180 188,310
189,80 190,60 204,40 218,360
219,9999 220,1501 221,150
##END=
