##TITLE=Acetoxyacetamide, N,N-bis(2-ethylhexyl)-
##JCAMP-DX=4.24
##DATA TYPE=MASS SPECTRUM
##ORIGIN=Zaikin V.G., TIPS RAS, Moscow, Russia
##OWNER=NIST Mass Spectrometry Data Center
Collection (C) 2014 copyright by the U.S. Secretary of Commerce
on behalf of the United States of America. All rights reserved.
##$NIST MASS SPEC NO=308295
##MOLFORM=C20 H39 N O3
##MW=341
##$NIST SOURCE=MSDC
##XUNITS=M/Z
##YUNITS=RELATIVE INTENSITY
##XFACTOR=1
##YFACTOR=1
##FIRSTX=27
##LASTX=342
##FIRSTY=30
##MAXX=342
##MINX=27
##MAXY=9999
##MINY=10
##NPOINTS=112
##PEAK TABLE=(XY..XY)
27,30 29,80 30,60 36,110
38,30 39,50 41,250 42,110
43,1031 44,641 45,50 53,20
55,250 56,110 57,410 58,40
60,60 67,30 68,20 69,200
70,150 71,280 72,50 73,550
74,40 76,30 77,20 79,20
81,30 82,30 83,70 84,90
85,70 86,30 88,40 90,20
93,30 95,20 96,30 97,30
98,90 100,30 101,1581 102,100
103,20 109,20 110,30 111,50
112,110 113,40 114,20 118,20
124,10 126,70 127,20 128,50
130,20 131,30 132,20 140,260
141,40 142,9999 143,1061 144,410
145,40 154,110 155,30 156,591
157,60 158,20 168,80 169,20
170,661 171,80 172,40 173,40
182,641 183,150 184,80 186,50
187,30 188,330 189,40 196,20
198,20 200,190 201,20 204,20
210,20 212,50 224,90 225,30
230,160 231,20 238,40 240,90
242,1802 243,270 244,30 252,100
266,50 268,2172 269,440 270,70
284,30 298,130 299,20 312,50
326,20 340,20 341,20 342,20
##END=
