##TITLE=1-Naphthoic acid, hex-4-yn-3-yl ester
##JCAMP-DX=4.24
##DATA TYPE=MASS SPECTRUM
##ORIGIN=Zaikin V.G., TIPS RAS, Moscow, Russia
##OWNER=NIST Mass Spectrometry Data Center
Collection (C) 2014 copyright by the U.S. Secretary of Commerce
on behalf of the United States of America. All rights reserved.
##$NIST MASS SPEC NO=308821
##MOLFORM=C17 H16 O2
##MW=252
##$NIST SOURCE=MSDC
##XUNITS=M/Z
##YUNITS=RELATIVE INTENSITY
##XFACTOR=1
##YFACTOR=1
##FIRSTX=26
##LASTX=253
##FIRSTY=40
##MAXX=253
##MINX=26
##MAXY=9999
##MINY=20
##NPOINTS=80
##PEAK TABLE=(XY..XY)
26,40 27,110 28,20 29,50
39,210 40,50 41,390 44,70
50,110 51,190 52,80 53,540
54,30 55,70 62,30 63,170
64,30 65,120 66,90 67,40
74,90 75,160 76,90 77,550
78,70 79,1001 80,390 81,440
82,30 86,30 87,40 89,30
97,190 98,40 99,30 100,30
101,250 102,60 112,40 115,150
116,60 125,40 126,661 127,3633
128,871 129,130 144,100 154,230
155,9999 156,1271 157,100 165,80
166,40 167,50 168,50 171,120
172,4404 173,591 174,50 178,130
179,310 180,120 181,100 191,30
192,50 193,260 194,50 195,110
196,80 206,30 209,30 219,40
223,480 224,510 225,80 234,30
237,180 238,30 252,1121 253,210
##END=
