##TITLE=Methanesulfonamide, N,N-diundecyl-
##JCAMP-DX=4.24
##DATA TYPE=MASS SPECTRUM
##ORIGIN=Zaikin V.G., TIPS RAS, Moscow, Russia
##OWNER=NIST Mass Spectrometry Data Center
Collection (C) 2014 copyright by the U.S. Secretary of Commerce
on behalf of the United States of America. All rights reserved.
##$NIST MASS SPEC NO=308437
##MOLFORM=C23 H49 N O2 S
##MW=403
##$NIST SOURCE=MSDC
##XUNITS=M/Z
##YUNITS=RELATIVE INTENSITY
##XFACTOR=1
##YFACTOR=1
##FIRSTX=26
##LASTX=325
##FIRSTY=150
##MAXX=325
##MINX=26
##MAXY=9999
##MINY=20
##NPOINTS=77
##PEAK TABLE=(XY..XY)
26,150 27,310 28,140 29,360
30,320 36,90 38,70 39,330
40,80 41,1141 42,571 43,1591
44,801 48,80 50,30 51,40
52,30 53,90 54,110 55,1101
56,561 57,1181 58,120 64,150
67,180 68,110 69,641 70,430
71,430 72,30 77,30 79,190
81,120 82,90 83,520 84,781
85,260 91,30 95,80 96,150
97,520 98,340 99,40 108,500
109,40 110,170 111,190 112,160
122,9999 123,440 124,480 125,30
126,160 133,20 134,20 140,160
148,40 154,70 168,30 170,30
182,330 183,60 184,190 191,30
210,40 224,160 238,30 250,350
251,40 260,40 262,4064 263,631
264,240 265,30 322,40 324,310
325,70
##END=
