##TITLE=Butanamide, N,N-didecyl-
##JCAMP-DX=4.24
##DATA TYPE=MASS SPECTRUM
##ORIGIN=Zaikin V.G., TIPS RAS, Moscow, Russia
##OWNER=NIST Mass Spectrometry Data Center
Collection (C) 2014 copyright by the U.S. Secretary of Commerce
on behalf of the United States of America. All rights reserved.
##$NIST MASS SPEC NO=308683
##MOLFORM=C24 H49 N O
##MW=367
##$NIST SOURCE=MSDC
##XUNITS=M/Z
##YUNITS=RELATIVE INTENSITY
##XFACTOR=1
##YFACTOR=1
##FIRSTX=26
##LASTX=367
##FIRSTY=160
##MAXX=367
##MINX=26
##MAXY=9999
##MINY=30
##NPOINTS=105
##PEAK TABLE=(XY..XY)
26,160 27,430 28,150 29,370
30,240 37,30 38,60 39,410
40,90 41,1101 42,460 43,1972
44,1121 45,30 51,30 53,90
54,90 55,751 56,450 57,591
58,110 67,120 68,80 69,340
70,420 71,981 72,110 73,100
79,40 81,70 82,60 83,140
84,270 85,150 86,110 87,160
88,90 95,40 96,50 97,80
98,190 99,80 100,230 101,210
110,30 111,30 112,180 113,60
114,240 115,230 126,150 127,30
128,180 129,80 140,110 142,170
143,50 154,80 156,340 157,50
168,270 169,40 170,9999 171,1151
172,60 182,50 184,841 185,110
196,90 198,1191 199,180 210,40
211,30 212,400 213,60 224,50
225,30 226,250 227,70 228,180
238,50 240,711 241,140 252,40
254,280 255,40 268,380 269,70
282,230 283,40 296,410 297,90
308,40 310,170 311,30 322,30
324,3363 325,781 326,90 338,120
339,30 352,120 353,30 366,100
367,90
##END=
