##TITLE=Benzamide, N,N-didecyl-4-fluoro-
##JCAMP-DX=4.24
##DATA TYPE=MASS SPECTRUM
##ORIGIN=Zaikin V.G., TIPS RAS, Moscow, Russia
##OWNER=NIST Mass Spectrometry Data Center
Collection (C) 2014 copyright by the U.S. Secretary of Commerce
on behalf of the United States of America. All rights reserved.
##$NIST MASS SPEC NO=308312
##MOLFORM=C27 H46 F N O
##MW=419
##$NIST SOURCE=MSDC
##XUNITS=M/Z
##YUNITS=RELATIVE INTENSITY
##XFACTOR=1
##YFACTOR=1
##FIRSTX=26
##LASTX=421
##FIRSTY=20
##MAXX=421
##MINX=26
##MAXY=9999
##MINY=10
##NPOINTS=105
##PEAK TABLE=(XY..XY)
26,20 27,40 28,20 29,50
30,20 36,30 39,30 41,150
42,70 43,200 44,130 55,160
56,80 57,140 58,40 67,20
69,80 70,60 71,40 75,20
81,20 83,40 84,60 85,30
95,360 96,70 97,30 98,40
109,40 112,40 122,30 123,9999
124,751 125,50 126,30 140,120
152,190 153,240 154,40 164,30
165,20 166,571 167,350 168,210
169,20 170,140 178,20 180,160
181,60 183,60 184,60 191,20
192,20 194,230 195,70 196,30
198,30 206,20 208,210 209,40
220,20 222,120 223,30 236,120
237,30 250,70 263,100 264,50
276,20 278,280 279,90 280,150
282,20 290,40 292,3673 293,1101
294,180 295,20 296,110 297,20
304,20 306,310 307,80 320,270
321,70 324,90 325,20 334,160
335,40 348,190 349,40 362,170
363,40 376,160 377,40 390,130
391,30 402,20 404,70 405,10
417,20 418,1551 419,1451 420,420
421,60
##END=
