##TITLE=Propanamide, N,N-diundecyl-2-chloro-
##JCAMP-DX=4.24
##DATA TYPE=MASS SPECTRUM
##ORIGIN=Zaikin V.G., TIPS RAS, Moscow, Russia
##OWNER=NIST Mass Spectrometry Data Center
Collection (C) 2014 copyright by the U.S. Secretary of Commerce
on behalf of the United States of America. All rights reserved.
##$NIST MASS SPEC NO=308393
##MOLFORM=C25 H50 Cl N O
##MW=415
##$NIST SOURCE=MSDC
##XUNITS=M/Z
##YUNITS=RELATIVE INTENSITY
##XFACTOR=1
##YFACTOR=1
##FIRSTX=28
##LASTX=416
##FIRSTY=30
##MAXX=416
##MINX=28
##MAXY=9999
##MINY=20
##NPOINTS=131
##PEAK TABLE=(XY..XY)
28,30 29,80 30,170 36,20
41,220 42,30 43,661 44,1231
55,410 56,160 57,961 58,60
63,100 69,370 70,260 71,490
73,20 74,40 81,80 83,220
84,110 85,470 86,70 87,20
88,30 91,20 95,40 97,250
98,130 99,160 100,120 101,40
108,30 109,30 111,30 112,170
113,80 114,60 120,60 122,120
126,140 128,40 134,4544 135,290
136,1551 137,40 140,80 142,30
154,120 155,50 156,20 168,140
170,110 173,130 178,20 180,40
182,681 183,100 184,3914 185,510
196,180 197,50 198,731 199,50
210,430 211,100 212,1852 213,230
218,50 224,120 225,30 226,540
227,60 228,731 229,110 238,821
239,240 240,981 241,130 246,50
250,20 252,470 253,90 254,180
260,30 262,410 263,20 264,130
266,210 267,60 268,70 274,3653
275,561 276,1141 277,140 280,40
288,130 294,140 295,30 296,80
302,90 308,130 310,30 316,80
318,40 320,30 322,180 323,20
324,851 325,170 336,70 342,40
344,20 350,801 351,250 352,9999
353,2572 354,240 355,40 356,20
378,50 379,240 380,8848 381,2432
382,260 386,971 387,170 388,350
414,60 415,150 416,60
##END=
