##TITLE=Acetoxyacetamide, N-(2-fluorophenyl)-
##JCAMP-DX=4.24
##DATA TYPE=MASS SPECTRUM
##ORIGIN=Zaikin V.G., TIPS RAS, Moscow, Russia
##OWNER=NIST Mass Spectrometry Data Center
Collection (C) 2014 copyright by the U.S. Secretary of Commerce
on behalf of the United States of America. All rights reserved.
##$NIST MASS SPEC NO=308290
##MOLFORM=C10 H10 F N O3
##MW=211
##$NIST SOURCE=MSDC
##XUNITS=M/Z
##YUNITS=RELATIVE INTENSITY
##XFACTOR=1
##YFACTOR=1
##FIRSTX=26
##LASTX=212
##FIRSTY=50
##MAXX=212
##MINX=26
##MAXY=9999
##MINY=10
##NPOINTS=99
##PEAK TABLE=(XY..XY)
26,50 27,70 28,50 29,150
30,30 31,70 35,70 36,661
37,20 38,250 39,120 40,70
41,100 42,280 43,4814 44,741
45,280 50,90 51,120 52,160
53,20 55,40 56,40 57,290
58,50 59,30 60,220 62,30
63,110 64,100 65,80 66,20
67,20 69,50 70,20 72,20
73,1111 74,370 75,180 76,40
77,160 78,70 79,250 80,50
81,70 82,120 83,851 84,220
85,20 86,80 87,30 89,30
90,160 91,190 92,90 93,80
94,50 95,160 96,50 97,30
101,1051 102,60 104,20 105,30
106,20 107,20 108,120 109,360
110,530 111,9999 112,831 113,30
118,30 119,20 120,20 121,40
122,130 123,120 124,180 125,20
128,20 132,20 133,20 135,40
136,20 137,240 138,320 139,30
150,20 151,90 152,20 153,10
159,60 168,20 169,230 170,30
171,70 211,1982 212,220
##END=
