##TITLE=Chloroacetamide, N,N-dihexyl-
##JCAMP-DX=4.24
##DATA TYPE=MASS SPECTRUM
##ORIGIN=Zaikin V.G., TIPS RAS, Moscow, Russia
##OWNER=NIST Mass Spectrometry Data Center
Collection (C) 2014 copyright by the U.S. Secretary of Commerce
on behalf of the United States of America. All rights reserved.
##$NIST MASS SPEC NO=308476
##MOLFORM=C14 H28 Cl N O
##MW=261
##$NIST SOURCE=MSDC
##XUNITS=M/Z
##YUNITS=RELATIVE INTENSITY
##XFACTOR=1
##YFACTOR=1
##FIRSTX=25
##LASTX=262
##FIRSTY=30
##MAXX=262
##MINX=25
##MAXY=9999
##MINY=20
##NPOINTS=127
##PEAK TABLE=(XY..XY)
25,30 26,200 27,861 28,450
29,1131 30,941 35,70 36,320
37,30 38,170 39,681 40,160
41,2412 42,1511 43,3633 44,3213
45,90 48,50 49,360 50,50
51,120 52,50 53,190 54,180
55,1641 56,861 57,701 58,240
60,40 65,30 67,180 68,130
69,320 70,581 71,110 72,340
73,60 76,90 77,781 78,60
79,260 81,60 82,100 83,460
84,540 85,430 86,330 87,60
94,180 96,70 97,50 98,410
99,140 100,220 102,40 105,20
106,681 107,240 108,621 109,90
110,140 112,821 113,160 114,4764
115,390 120,9999 121,751 122,3393
123,270 124,30 126,530 127,100
128,1181 129,90 134,90 136,30
140,270 141,60 142,3353 143,320
144,90 148,130 150,40 154,330
155,60 156,891 157,90 160,40
161,40 162,70 168,120 169,70
170,140 176,60 178,450 179,40
180,140 182,110 183,30 184,571
185,70 190,3693 191,400 192,1241
193,130 196,30 198,110 204,260
205,20 206,80 210,70 212,8127
213,1151 214,90 218,360 219,40
220,110 225,30 226,5305 227,841
228,70 232,150 234,50 246,40
260,40 261,60 262,90
##END=
