##TITLE=Benzamide, N-ethyl-N-(3-methylphenyl)-4-ethyl-
##JCAMP-DX=4.24
##DATA TYPE=MASS SPECTRUM
##ORIGIN=Zaikin V.G., TIPS RAS, Moscow, Russia
##OWNER=NIST Mass Spectrometry Data Center
Collection (C) 2014 copyright by the U.S. Secretary of Commerce
on behalf of the United States of America. All rights reserved.
##$NIST MASS SPEC NO=308544
##MOLFORM=C18 H21 N O
##MW=267
##$NIST SOURCE=MSDC
##XUNITS=M/Z
##YUNITS=RELATIVE INTENSITY
##XFACTOR=1
##YFACTOR=1
##FIRSTX=27
##LASTX=269
##FIRSTY=70
##MAXX=269
##MINX=27
##MAXY=9999
##MINY=30
##NPOINTS=44
##PEAK TABLE=(XY..XY)
27,70 29,30 39,90 41,30
50,40 51,110 52,40 53,50
63,90 64,30 65,250 76,50
77,761 78,190 79,811 80,50
89,170 90,170 91,591 92,70
102,50 103,561 104,250 105,951
106,110 107,30 116,30 117,30
118,310 119,240 120,180 131,70
132,140 133,9999 134,1171 135,140
160,170 165,30 238,50 239,80
266,741 267,2552 268,540 269,50
##END=
