##TITLE=Phenylthioacetamide, N-ethyl-N-(3-methylphenyl)-
##JCAMP-DX=4.24
##DATA TYPE=MASS SPECTRUM
##ORIGIN=Zaikin V.G., TIPS RAS, Moscow, Russia
##OWNER=NIST Mass Spectrometry Data Center
Collection (C) 2014 copyright by the U.S. Secretary of Commerce
on behalf of the United States of America. All rights reserved.
##$NIST MASS SPEC NO=308159
##MOLFORM=C17 H19 N O S
##MW=285
##$NIST SOURCE=MSDC
##XUNITS=M/Z
##YUNITS=RELATIVE INTENSITY
##XFACTOR=1
##YFACTOR=1
##FIRSTX=29
##LASTX=288
##FIRSTY=260
##MAXX=288
##MINX=29
##MAXY=9999
##MINY=30
##NPOINTS=59
##PEAK TABLE=(XY..XY)
29,260 39,40 45,661 51,70
65,320 66,30 77,420 78,100
79,260 80,30 90,40 91,1641
92,200 93,130 104,100 105,280
106,400 107,150 109,150 110,100
117,50 118,621 119,520 120,2712
121,260 122,40 123,1101 124,170
125,40 132,300 133,270 134,8227
135,2142 136,190 137,90 146,160
147,30 148,470 149,50 160,30
161,170 162,9999 163,1101 164,70
168,30 174,90 175,90 176,1431
177,160 178,120 192,631 193,60
194,30 252,60 257,160 285,6756
286,1281 287,390 288,40
##END=
