##TITLE=Cyclopentanecarboxamide, N,N-didecyl-
##JCAMP-DX=4.24
##DATA TYPE=MASS SPECTRUM
##ORIGIN=Zaikin V.G., TIPS RAS, Moscow, Russia
##OWNER=NIST Mass Spectrometry Data Center
Collection (C) 2014 copyright by the U.S. Secretary of Commerce
on behalf of the United States of America. All rights reserved.
##$NIST MASS SPEC NO=308617
##MOLFORM=C26 H51 N O
##MW=393
##$NIST SOURCE=MSDC
##XUNITS=M/Z
##YUNITS=RELATIVE INTENSITY
##XFACTOR=1
##YFACTOR=1
##FIRSTX=25
##LASTX=394
##FIRSTY=90
##MAXX=394
##MINX=25
##MAXY=9999
##MINY=20
##NPOINTS=138
##PEAK TABLE=(XY..XY)
25,90 26,561 27,1271 28,490
29,1231 30,530 36,130 37,130
38,290 39,1672 40,571 41,4534
42,1601 43,3863 44,2542 45,60
50,130 51,160 52,100 53,440
54,370 55,2332 56,1351 57,1972
58,320 62,20 63,60 65,150
66,140 67,1051 68,561 69,9999
70,1391 71,571 72,180 73,110
77,80 78,40 79,160 80,50
81,230 82,160 83,330 84,631
85,460 86,320 91,70 93,60
94,50 95,340 96,430 97,2562
98,611 99,240 100,410 109,60
110,80 111,80 112,330 113,130
114,300 115,30 123,30 124,50
125,40 126,360 127,270 128,140
130,60 133,50 135,20 138,40
140,240 141,240 142,60 154,180
155,90 156,150 166,30 168,400
169,70 170,9108 171,1121 172,50
182,230 183,50 184,761 185,80
191,40 196,200 197,40 198,961
199,110 210,130 211,20 212,500
213,60 224,130 225,60 226,250
227,30 238,100 239,20 240,210
250,30 252,170 253,240 254,330
255,40 266,280 267,160 268,80
280,190 281,30 282,70 294,410
295,90 296,400 297,80 308,250
309,50 322,230 323,50 324,4284
325,1001 326,100 336,230 337,50
350,260 351,60 352,1191 353,290
364,180 365,50 378,60 392,180
393,330 394,90
##END=
