##TITLE=Methoxyacetamide, N,N-diheptyl-
##JCAMP-DX=4.24
##DATA TYPE=MASS SPECTRUM
##ORIGIN=Zaikin V.G., TIPS RAS, Moscow, Russia
##OWNER=NIST Mass Spectrometry Data Center
Collection (C) 2014 copyright by the U.S. Secretary of Commerce
on behalf of the United States of America. All rights reserved.
##$NIST MASS SPEC NO=308494
##MOLFORM=C17 H35 N O2
##MW=285
##$NIST SOURCE=MSDC
##XUNITS=M/Z
##YUNITS=RELATIVE INTENSITY
##XFACTOR=1
##YFACTOR=1
##FIRSTX=25
##LASTX=286
##FIRSTY=40
##MAXX=286
##MINX=25
##MAXY=9999
##MINY=30
##NPOINTS=121
##PEAK TABLE=(XY..XY)
25,40 26,270 27,661 28,120
29,1231 30,390 31,110 39,561
40,140 41,2372 42,1081 43,2592
44,1341 45,5855 46,140 50,70
51,70 52,50 53,150 54,160
55,1591 56,711 57,9999 58,891
59,30 60,80 65,40 67,180
68,130 69,440 70,440 71,240
72,240 73,160 74,50 77,60
78,30 79,100 80,30 81,80
82,100 83,100 84,430 85,190
86,200 87,270 88,901 89,40
90,30 91,30 95,50 96,70
97,110 98,430 99,390 100,160
101,90 102,200 103,60 104,30
110,30 112,290 113,100 114,200
115,50 116,1151 117,170 124,60
126,601 127,80 128,1281 129,110
130,50 140,150 141,90 142,1882
143,180 144,50 154,170 155,30
156,1261 157,160 158,160 168,130
170,1902 171,240 172,1611 173,160
182,70 184,240 186,280 187,50
188,130 196,40 198,400 199,40
200,1581 201,300 202,30 210,50
212,280 213,40 214,260 215,30
224,30 226,160 228,320 229,40
238,130 240,7196 241,1201 242,240
254,30 255,90 256,130 268,30
270,961 271,170 284,80 285,651
286,120
##END=
