##TITLE=Propanamide, N-ethyl-N-(3-methylphenyl)-3-chloro-
##JCAMP-DX=4.24
##DATA TYPE=MASS SPECTRUM
##ORIGIN=Zaikin V.G., TIPS RAS, Moscow, Russia
##OWNER=NIST Mass Spectrometry Data Center
Collection (C) 2014 copyright by the U.S. Secretary of Commerce
on behalf of the United States of America. All rights reserved.
##$NIST MASS SPEC NO=308501
##MOLFORM=C12 H16 Cl N O
##MW=225
##$NIST SOURCE=MSDC
##XUNITS=M/Z
##YUNITS=RELATIVE INTENSITY
##XFACTOR=1
##YFACTOR=1
##FIRSTX=26
##LASTX=228
##FIRSTY=130
##MAXX=228
##MINX=26
##MAXY=9999
##MINY=30
##NPOINTS=89
##PEAK TABLE=(XY..XY)
26,130 27,530 28,60 29,150
30,30 35,60 36,380 38,160
39,260 40,40 41,130 42,90
43,30 44,180 45,30 50,110
51,230 52,170 53,80 54,50
55,340 56,30 62,50 63,1051
64,100 65,871 66,70 72,80
73,30 75,40 76,60 77,490
78,260 79,300 80,60 82,40
83,30 86,30 89,230 90,390
91,2142 92,360 93,270 103,60
104,250 105,150 106,240 107,390
108,90 111,310 115,60 116,40
117,170 118,1992 119,1051 120,9999
121,971 122,40 130,40 131,30
132,310 133,310 134,1501 135,3073
136,350 142,30 146,80 152,60
160,60 161,30 162,410 163,50
174,60 176,30 188,50 189,150
190,1601 191,220 197,550 198,70
199,180 201,30 210,130 212,40
224,70 225,2682 226,410 227,901
228,120
##END=
