##TITLE=Propanamide, N,N-bis(2-ethylhexyl)-2-bromo-
##JCAMP-DX=4.24
##DATA TYPE=MASS SPECTRUM
##ORIGIN=Zaikin V.G., TIPS RAS, Moscow, Russia
##OWNER=NIST Mass Spectrometry Data Center
Collection (C) 2014 copyright by the U.S. Secretary of Commerce
on behalf of the United States of America. All rights reserved.
##$NIST MASS SPEC NO=308375
##MOLFORM=C19 H38 Br N O
##MW=375
##$NIST SOURCE=MSDC
##XUNITS=M/Z
##YUNITS=RELATIVE INTENSITY
##XFACTOR=1
##YFACTOR=1
##FIRSTX=27
##LASTX=348
##FIRSTY=50
##MAXX=348
##MINX=27
##MAXY=9999
##MINY=20
##NPOINTS=104
##PEAK TABLE=(XY..XY)
27,50 28,110 29,280 30,581
36,150 38,30 41,591 42,300
43,1121 44,3984 45,50 55,691
56,260 57,1541 58,70 67,20
69,1031 70,430 71,1161 72,80
74,30 79,130 80,240 81,90
82,260 83,260 84,180 85,100
86,380 95,80 96,30 97,130
98,230 99,20 100,110 106,20
107,260 109,230 110,20 111,310
112,320 113,70 114,40 123,30
124,20 125,20 126,140 127,20
128,290 135,140 137,120 140,370
141,30 142,6316 143,571 152,40
154,540 155,60 156,971 157,60
164,270 166,530 168,510 169,20
170,120 178,9999 179,510 180,9719
181,510 182,110 184,1341 185,90
196,260 197,50 198,3093 199,380
210,30 212,20 220,20 222,20
226,90 238,90 240,350 252,20
262,20 264,631 265,40 266,841
267,90 268,3633 269,571 270,30
276,5135 277,561 278,4844 279,561
280,40 296,6356 297,1321 298,110
343,20 345,20 346,30 348,40
##END=
