##TITLE=4-Nitrobenzoic acid, 3,4-dichlorophenyl ester
##JCAMP-DX=4.24
##DATA TYPE=MASS SPECTRUM
##ORIGIN=Zaikin V.G., TIPS RAS, Moscow, Russia
##OWNER=NIST Mass Spectrometry Data Center
Collection (C) 2014 copyright by the U.S. Secretary of Commerce
on behalf of the United States of America. All rights reserved.
##$NIST MASS SPEC NO=308013
##MOLFORM=C13 H7 Cl2 N O4
##MW=311
##$NIST SOURCE=MSDC
##XUNITS=M/Z
##YUNITS=RELATIVE INTENSITY
##XFACTOR=1
##YFACTOR=1
##FIRSTX=28
##LASTX=315
##FIRSTY=10
##MAXX=315
##MINX=28
##MAXY=9999
##MINY=10
##NPOINTS=36
##PEAK TABLE=(XY..XY)
28,10 36,130 44,70 50,110
63,50 64,50 65,60 74,10
75,180 76,831 77,40 92,520
103,10 104,1571 105,80 111,10
119,20 120,1051 121,90 122,10
130,30 133,30 134,100 135,10
136,10 139,10 150,9999 151,781
152,40 162,10 167,70 311,480
312,20 313,270 314,10 315,50
##END=
