##TITLE=Cyclopentanecarboxamide, N,N-dinonyl-
##JCAMP-DX=4.24
##DATA TYPE=MASS SPECTRUM
##ORIGIN=Zaikin V.G., TIPS RAS, Moscow, Russia
##OWNER=NIST Mass Spectrometry Data Center
Collection (C) 2014 copyright by the U.S. Secretary of Commerce
on behalf of the United States of America. All rights reserved.
##$NIST MASS SPEC NO=308616
##MOLFORM=C24 H47 N O
##MW=365
##$NIST SOURCE=MSDC
##XUNITS=M/Z
##YUNITS=RELATIVE INTENSITY
##XFACTOR=1
##YFACTOR=1
##FIRSTX=25
##LASTX=366
##FIRSTY=70
##MAXX=366
##MINX=25
##MAXY=9999
##MINY=20
##NPOINTS=118
##PEAK TABLE=(XY..XY)
25,70 26,450 27,1131 28,460
29,1161 30,430 36,60 37,80
38,180 39,1271 40,410 41,3773
42,1211 43,2933 44,1842 45,40
50,70 51,100 52,50 53,300
54,200 55,1471 56,761 57,1051
58,180 65,100 66,80 67,731
68,380 69,7767 70,961 71,440
72,130 73,30 77,30 79,60
81,110 82,90 83,160 84,460
85,280 86,210 95,170 96,250
97,1692 98,440 99,150 100,310
110,50 111,20 112,290 113,100
114,220 124,40 126,290 127,210
128,90 138,50 140,320 141,310
142,180 152,40 154,490 155,130
156,9999 157,1191 158,50 166,30
168,220 169,60 170,881 171,90
182,330 183,60 184,1031 185,110
196,180 197,40 198,601 199,70
210,190 211,80 212,270 213,30
224,100 225,30 226,260 227,30
238,150 239,220 240,270 241,30
252,270 253,150 254,80 266,190
267,40 268,350 269,60 280,400
281,30 294,250 295,50 296,3653
297,791 298,70 308,180 309,30
322,270 323,50 324,1121 325,250
336,190 337,40 350,50 364,110
365,280 366,120
##END=
