##TITLE=Heptafluorobutanamide, N-ethyl-N-(3-methylphenyl)-
##JCAMP-DX=4.24
##DATA TYPE=MASS SPECTRUM
##ORIGIN=Zaikin V.G., TIPS RAS, Moscow, Russia
##OWNER=NIST Mass Spectrometry Data Center
Collection (C) 2014 copyright by the U.S. Secretary of Commerce
on behalf of the United States of America. All rights reserved.
##$NIST MASS SPEC NO=308270
##MOLFORM=C13 H12 F7 N O
##MW=331
##$NIST SOURCE=MSDC
##XUNITS=M/Z
##YUNITS=RELATIVE INTENSITY
##XFACTOR=1
##YFACTOR=1
##FIRSTX=29
##LASTX=333
##FIRSTY=370
##MAXX=333
##MINX=29
##MAXY=9999
##MINY=30
##NPOINTS=40
##PEAK TABLE=(XY..XY)
29,370 65,180 69,60 77,80
78,40 79,50 89,30 91,1151
92,120 104,60 105,30 106,200
107,50 108,70 118,460 119,1581
120,150 132,160 133,200 134,3583
135,320 162,1211 163,110 169,60
196,801 212,30 224,3263 225,220
239,120 284,210 289,50 302,40
303,380 312,310 316,2172 317,270
330,160 331,9999 332,1471 333,90
##END=
