##TITLE=Propanamide, N-heptyl-N-octyl-2,2-dimethyl-
##JCAMP-DX=4.24
##DATA TYPE=MASS SPECTRUM
##ORIGIN=Zaikin V.G., TIPS RAS, Moscow, Russia
##OWNER=NIST Mass Spectrometry Data Center
Collection (C) 2014 copyright by the U.S. Secretary of Commerce
on behalf of the United States of America. All rights reserved.
##$NIST MASS SPEC NO=308129
##MOLFORM=C20 H41 N O
##MW=311
##$NIST SOURCE=MSDC
##XUNITS=M/Z
##YUNITS=RELATIVE INTENSITY
##XFACTOR=1
##YFACTOR=1
##FIRSTX=28
##LASTX=312
##FIRSTY=40
##MAXX=312
##MINX=28
##MAXY=9999
##MINY=30
##NPOINTS=60
##PEAK TABLE=(XY..XY)
28,40 29,100 30,70 36,80
41,340 42,50 43,651 44,390
55,240 56,80 57,9999 58,430
69,180 70,80 71,1852 72,100
73,60 83,50 84,80 85,4864
86,280 87,90 97,50 98,50
99,160 100,60 112,50 113,100
114,160 115,320 126,70 128,771
129,220 140,60 142,1011 143,130
154,30 156,881 157,120 168,40
170,621 171,70 184,180 198,250
199,70 212,1461 213,250 214,50
226,1571 227,250 240,80 254,5295
255,881 256,80 268,60 282,50
296,190 310,60 311,510 312,100
##END=
