##TITLE=Benzamide, N,N-bis(2-ethylhexyl)-2,3,4-trifluoro-
##JCAMP-DX=4.24
##DATA TYPE=MASS SPECTRUM
##ORIGIN=Zaikin V.G., TIPS RAS, Moscow, Russia
##OWNER=NIST Mass Spectrometry Data Center
Collection (C) 2014 copyright by the U.S. Secretary of Commerce
on behalf of the United States of America. All rights reserved.
##$NIST MASS SPEC NO=308422
##MOLFORM=C23 H36 F3 N O
##MW=399
##$NIST SOURCE=MSDC
##XUNITS=M/Z
##YUNITS=RELATIVE INTENSITY
##XFACTOR=1
##YFACTOR=1
##FIRSTX=28
##LASTX=400
##FIRSTY=10
##MAXX=400
##MINX=28
##MAXY=9999
##MINY=10
##NPOINTS=74
##PEAK TABLE=(XY..XY)
28,10 29,40 36,130 38,40
39,40 41,210 42,100 43,200
44,150 55,240 56,90 57,280
67,40 69,250 70,160 71,150
79,30 81,90 83,50 84,50
91,30 95,30 97,20 98,30
111,60 112,70 131,370 132,70
140,110 141,50 145,30 158,30
159,9999 160,801 161,50 170,30
176,240 182,40 184,40 188,460
189,340 190,300 191,30 202,7467
203,1041 204,80 216,50 228,30
230,140 231,50 242,40 244,40
258,380 259,60 270,60 271,110
272,70 280,60 284,30 286,130
287,60 288,801 289,130 298,40
300,8077 301,1722 302,200 342,90
356,40 370,130 371,30 398,60
399,470 400,120
##END=
