##TITLE=2-Thiopheneacetic acid, 4-methoxyphenyl ester
##JCAMP-DX=4.24
##DATA TYPE=MASS SPECTRUM
##ORIGIN=Zaikin V.G., TIPS RAS, Moscow, Russia
##OWNER=NIST Mass Spectrometry Data Center
Collection (C) 2014 copyright by the U.S. Secretary of Commerce
on behalf of the United States of America. All rights reserved.
##$NIST MASS SPEC NO=308056
##MOLFORM=C13 H12 O3 S
##MW=248
##$NIST SOURCE=MSDC
##XUNITS=M/Z
##YUNITS=RELATIVE INTENSITY
##XFACTOR=1
##YFACTOR=1
##FIRSTX=27
##LASTX=249
##FIRSTY=40
##MAXX=249
##MINX=27
##MAXY=9999
##MINY=10
##NPOINTS=33
##PEAK TABLE=(XY..XY)
27,40 28,10 36,30 39,160
41,140 44,30 45,460 51,50
52,80 53,460 54,30 63,40
64,40 65,50 69,60 70,60
77,40 80,30 81,60 92,30
95,190 96,350 97,5415 98,330
99,230 109,871 110,50 123,350
124,9999 125,771 126,130 248,651
249,90
##END=
