##TITLE=4-Nitrobenzoic acid, 4-chlorophenyl ester
##JCAMP-DX=4.24
##DATA TYPE=MASS SPECTRUM
##ORIGIN=Zaikin V.G., TIPS RAS, Moscow, Russia
##OWNER=NIST Mass Spectrometry Data Center
Collection (C) 2014 copyright by the U.S. Secretary of Commerce
on behalf of the United States of America. All rights reserved.
##$NIST MASS SPEC NO=308010
##MOLFORM=C13 H8 Cl N O4
##MW=277
##$NIST SOURCE=MSDC
##XUNITS=M/Z
##YUNITS=RELATIVE INTENSITY
##XFACTOR=1
##YFACTOR=1
##FIRSTX=30
##LASTX=280
##FIRSTY=10
##MAXX=280
##MINX=30
##MAXY=9999
##MINY=10
##NPOINTS=40
##PEAK TABLE=(XY..XY)
30,10 36,40 39,10 44,20
50,150 51,10 63,60 64,80
65,50 73,20 74,20 75,210
76,841 77,70 91,10 92,571
93,40 99,80 101,10 103,10
104,1772 105,120 111,10 120,881
121,90 122,30 127,20 128,30
130,20 134,110 136,10 139,20
150,9999 151,801 152,70 167,40
277,831 278,110 279,290 280,20
##END=
