##TITLE=2-Thiopheneacetamide, N,N-dibutyl-
##JCAMP-DX=4.24
##DATA TYPE=MASS SPECTRUM
##ORIGIN=Zaikin V.G., TIPS RAS, Moscow, Russia
##OWNER=NIST Mass Spectrometry Data Center
Collection (C) 2014 copyright by the U.S. Secretary of Commerce
on behalf of the United States of America. All rights reserved.
##$NIST MASS SPEC NO=308135
##MOLFORM=C14 H23 N O S
##MW=253
##$NIST SOURCE=MSDC
##XUNITS=M/Z
##YUNITS=RELATIVE INTENSITY
##XFACTOR=1
##YFACTOR=1
##FIRSTX=29
##LASTX=255
##FIRSTY=641
##MAXX=255
##MINX=29
##MAXY=9999
##MINY=30
##NPOINTS=32
##PEAK TABLE=(XY..XY)
29,641 30,90 39,50 41,1041
42,90 43,60 44,160 45,100
53,100 55,120 56,50 57,9999
58,400 70,40 72,40 84,130
86,1531 87,60 96,70 97,1772
99,90 100,3223 101,170 112,50
128,80 156,9068 157,871 158,30
210,80 253,2132 254,350 255,100
##END=
