##TITLE=2-Bromopropionic acid, 2-naphthyl ester
##JCAMP-DX=4.24
##DATA TYPE=MASS SPECTRUM
##ORIGIN=Zaikin V.G., TIPS RAS, Moscow, Russia
##OWNER=NIST Mass Spectrometry Data Center
Collection (C) 2014 copyright by the U.S. Secretary of Commerce
on behalf of the United States of America. All rights reserved.
##$NIST MASS SPEC NO=308028
##MOLFORM=C13 H11 Br O2
##MW=278
##$NIST SOURCE=MSDC
##XUNITS=M/Z
##YUNITS=RELATIVE INTENSITY
##XFACTOR=1
##YFACTOR=1
##FIRSTX=27
##LASTX=280
##FIRSTY=50
##MAXX=280
##MINX=27
##MAXY=9999
##MINY=10
##NPOINTS=42
##PEAK TABLE=(XY..XY)
27,50 36,10 39,10 51,10
55,50 56,40 63,60 64,10
65,60 75,10 77,30 79,10
80,20 82,20 87,10 88,20
89,120 101,10 107,180 109,190
113,30 114,70 115,1321 116,230
117,10 119,10 126,40 127,210
128,50 135,50 137,20 143,110
144,9999 145,1111 146,60 152,10
153,10 171,40 198,20 278,861
279,110 280,841
##END=
