##TITLE=Nicotinic acid, morpholide
##JCAMP-DX=4.24
##DATA TYPE=MASS SPECTRUM
##ORIGIN=Zaikin V.G., TIPS RAS, Moscow, Russia
##OWNER=NIST Mass Spectrometry Data Center
Collection (C) 2014 copyright by the U.S. Secretary of Commerce
on behalf of the United States of America. All rights reserved.
##$NIST MASS SPEC NO=308103
##MOLFORM=C10 H12 N2 O2
##MW=192
##$NIST SOURCE=MSDC
##XUNITS=M/Z
##YUNITS=RELATIVE INTENSITY
##XFACTOR=1
##YFACTOR=1
##FIRSTX=26
##LASTX=194
##FIRSTY=120
##MAXX=194
##MINX=26
##MAXY=9999
##MINY=30
##NPOINTS=72
##PEAK TABLE=(XY..XY)
26,120 27,340 28,50 29,420
30,190 31,40 36,80 38,40
39,90 40,30 41,150 42,530
43,70 44,80 45,40 49,30
50,520 51,2292 52,390 53,150
54,170 55,240 56,4014 57,260
58,30 65,50 69,90 70,190
72,30 75,40 76,120 77,230
78,5925 79,681 80,50 85,30
86,3213 87,160 92,110 93,520
94,40 104,50 105,150 106,9999
107,931 108,100 118,30 119,70
120,90 121,100 122,110 123,30
133,340 134,210 135,440 136,160
147,180 148,90 149,971 150,320
151,30 161,931 162,200 163,270
164,240 177,3163 178,330 190,40
191,6436 192,3353 193,420 194,30
##END=
