##TITLE=Cyclohexanecarboxamide, N,N-dioctyl-
##JCAMP-DX=4.24
##DATA TYPE=MASS SPECTRUM
##ORIGIN=Zaikin V.G., TIPS RAS, Moscow, Russia
##OWNER=NIST Mass Spectrometry Data Center
Collection (C) 2014 copyright by the U.S. Secretary of Commerce
on behalf of the United States of America. All rights reserved.
##$NIST MASS SPEC NO=308526
##MOLFORM=C23 H45 N O
##MW=351
##$NIST SOURCE=MSDC
##XUNITS=M/Z
##YUNITS=RELATIVE INTENSITY
##XFACTOR=1
##YFACTOR=1
##FIRSTX=26
##LASTX=352
##FIRSTY=180
##MAXX=352
##MINX=26
##MAXY=9999
##MINY=30
##NPOINTS=116
##PEAK TABLE=(XY..XY)
26,180 27,450 28,200 29,500
30,210 37,30 38,60 39,520
40,120 41,1561 42,550 43,1281
44,861 50,50 51,70 52,40
53,190 54,280 55,2212 56,530
57,881 58,130 65,50 66,30
67,520 68,140 69,360 70,350
71,470 72,100 73,80 77,60
79,120 80,40 81,300 82,160
83,5395 84,651 85,100 86,120
87,90 95,60 96,50 97,30
98,250 99,100 100,250 101,50
109,100 110,190 111,971 112,300
113,80 114,150 124,30 126,160
127,40 128,260 129,30 138,30
140,390 141,230 142,9999 143,941
144,40 152,40 154,210 155,260
156,921 157,90 168,220 169,90
170,831 171,110 182,160 183,40
184,510 185,60 196,270 197,70
198,330 199,40 210,180 211,50
212,200 224,120 226,90 238,170
239,210 240,410 241,70 242,30
252,220 253,160 254,40 266,170
267,30 268,2632 269,490 270,50
280,310 281,30 294,190 295,40
296,761 297,150 308,190 309,40
310,100 322,200 323,40 336,140
337,30 350,130 351,400 352,100
##END=
