##TITLE=l-Phenylalanine, N-butyryl-, methyl ester
##JCAMP-DX=4.24
##DATA TYPE=MASS SPECTRUM
##ORIGIN=Zaikin V.G., TIPS RAS, Moscow, Russia
##OWNER=NIST Mass Spectrometry Data Center
Collection (C) 2014 copyright by the U.S. Secretary of Commerce
on behalf of the United States of America. All rights reserved.
##$NIST MASS SPEC NO=308817
##MOLFORM=C14 H19 N O3
##MW=249
##$NIST SOURCE=MSDC
##XUNITS=M/Z
##YUNITS=RELATIVE INTENSITY
##XFACTOR=1
##YFACTOR=1
##FIRSTX=27
##LASTX=250
##FIRSTY=210
##MAXX=250
##MINX=27
##MAXY=9999
##MINY=10
##NPOINTS=73
##PEAK TABLE=(XY..XY)
27,210 28,10 29,30 30,40
33,80 36,90 38,30 39,160
41,490 42,110 43,1982 44,220
50,40 51,110 52,50 55,100
57,30 59,130 60,50 63,60
65,370 66,20 69,70 70,60
71,2913 72,150 77,300 78,120
79,50 88,3273 89,250 90,100
91,1792 92,360 93,70 98,40
102,130 103,490 104,210 105,50
107,110 108,40 115,30 116,50
117,310 118,320 119,340 120,3683
121,490 128,120 130,771 131,2422
132,270 133,40 134,60 144,130
146,170 147,80 158,70 161,1301
162,9999 163,1201 164,110 177,30
178,160 180,40 189,40 190,490
191,70 206,30 218,40 249,130
250,30
##END=
