##TITLE=1-Naphthamide, N,N-dihexyl-
##JCAMP-DX=4.24
##DATA TYPE=MASS SPECTRUM
##ORIGIN=Zaikin V.G., TIPS RAS, Moscow, Russia
##OWNER=NIST Mass Spectrometry Data Center
Collection (C) 2014 copyright by the U.S. Secretary of Commerce
on behalf of the United States of America. All rights reserved.
##$NIST MASS SPEC NO=308688
##MOLFORM=C23 H33 N O
##MW=339
##$NIST SOURCE=MSDC
##XUNITS=M/Z
##YUNITS=RELATIVE INTENSITY
##XFACTOR=1
##YFACTOR=1
##FIRSTX=27
##LASTX=341
##FIRSTY=70
##MAXX=341
##MINX=27
##MAXY=9999
##MINY=30
##NPOINTS=66
##PEAK TABLE=(XY..XY)
27,70 29,60 39,50 41,150
42,120 43,180 55,140 56,90
57,50 70,60 77,100 84,60
101,70 102,40 112,90 126,290
127,3393 128,831 129,110 140,30
141,180 142,40 152,30 153,80
154,120 155,9999 156,1251 157,110
166,30 168,30 169,30 170,70
171,230 182,100 183,50 184,520
185,350 186,40 196,70 198,410
199,230 200,30 212,200 213,90
226,150 227,30 240,90 254,290
255,150 256,50 266,70 267,30
268,1211 269,631 270,130 282,160
283,60 296,270 297,70 310,160
311,40 324,50 338,1551 339,2012
340,540 341,70
##END=
