##TITLE=1-Naphthamide, N-(2-fluorophenyl)-
##JCAMP-DX=4.24
##DATA TYPE=MASS SPECTRUM
##ORIGIN=Zaikin V.G., TIPS RAS, Moscow, Russia
##OWNER=NIST Mass Spectrometry Data Center
Collection (C) 2014 copyright by the U.S. Secretary of Commerce
on behalf of the United States of America. All rights reserved.
##$NIST MASS SPEC NO=308685
##MOLFORM=C17 H12 F N O
##MW=265
##$NIST SOURCE=MSDC
##XUNITS=M/Z
##YUNITS=RELATIVE INTENSITY
##XFACTOR=1
##YFACTOR=1
##FIRSTX=50
##LASTX=267
##FIRSTY=30
##MAXX=267
##MINX=50
##MAXY=9999
##MINY=30
##NPOINTS=32
##PEAK TABLE=(XY..XY)
50,30 51,60 57,100 64,60
74,30 75,140 76,50 77,300
82,30 83,330 84,100 91,30
101,280 102,50 109,30 110,90
111,380 125,40 126,641 127,5475
128,831 129,50 132,30 153,40
155,9999 156,1141 157,80 245,30
264,40 265,1982 266,390 267,30
##END=
