##TITLE=Benzamide, N,N-dioctyl-2,6-difluoro-
##JCAMP-DX=4.24
##DATA TYPE=MASS SPECTRUM
##ORIGIN=Zaikin V.G., TIPS RAS, Moscow, Russia
##OWNER=NIST Mass Spectrometry Data Center
Collection (C) 2014 copyright by the U.S. Secretary of Commerce
on behalf of the United States of America. All rights reserved.
##$NIST MASS SPEC NO=308670
##MOLFORM=C23 H37 F2 N O
##MW=381
##$NIST SOURCE=MSDC
##XUNITS=M/Z
##YUNITS=RELATIVE INTENSITY
##XFACTOR=1
##YFACTOR=1
##FIRSTX=26
##LASTX=382
##FIRSTY=120
##MAXX=382
##MINX=26
##MAXY=9999
##MINY=30
##NPOINTS=87
##PEAK TABLE=(XY..XY)
26,120 27,290 28,130 29,320
30,70 36,30 38,40 39,260
40,60 41,761 42,400 43,581
44,230 50,40 51,30 53,60
54,60 55,390 56,240 57,240
63,130 67,60 68,50 69,190
70,150 71,60 74,30 75,30
81,30 82,30 83,30 84,100
94,40 95,30 96,30 98,50
112,90 113,430 114,180 123,60
127,60 136,40 140,290 141,9999
142,741 143,50 152,70 158,190
164,110 165,90 166,180 170,150
171,190 172,70 178,80 179,60
180,40 184,981 185,520 186,40
198,50 206,30 212,60 220,30
226,80 240,50 262,80 263,50
264,70 268,90 270,80 276,160
277,40 282,681 283,230 284,30
296,100 310,90 324,40 338,40
352,40 361,30 362,230 363,50
380,70 381,220 382,50
##END=
