##TITLE=Butanamide, N,N-dinonyl-
##JCAMP-DX=4.24
##DATA TYPE=MASS SPECTRUM
##ORIGIN=Zaikin V.G., TIPS RAS, Moscow, Russia
##OWNER=NIST Mass Spectrometry Data Center
Collection (C) 2014 copyright by the U.S. Secretary of Commerce
on behalf of the United States of America. All rights reserved.
##$NIST MASS SPEC NO=308682
##MOLFORM=C22 H45 N O
##MW=339
##$NIST SOURCE=MSDC
##XUNITS=M/Z
##YUNITS=RELATIVE INTENSITY
##XFACTOR=1
##YFACTOR=1
##FIRSTX=25
##LASTX=340
##FIRSTY=30
##MAXX=340
##MINX=25
##MAXY=9999
##MINY=30
##NPOINTS=100
##PEAK TABLE=(XY..XY)
25,30 26,210 27,621 28,220
29,550 30,320 36,30 37,50
38,90 39,571 40,130 41,1531
42,651 43,2793 44,1511 45,40
50,30 51,40 53,110 54,110
55,911 56,540 57,601 58,130
67,120 68,90 69,360 70,510
71,1311 72,140 73,130 79,30
81,60 82,60 83,130 84,330
85,160 86,130 87,200 88,100
96,40 97,40 98,230 99,90
100,290 101,240 112,230 113,80
114,280 115,250 126,170 127,40
128,200 129,80 140,120 142,280
143,60 154,310 155,40 156,9999
157,1091 158,50 168,70 170,961
171,120 182,100 184,1351 185,200
196,50 197,30 198,450 199,60
210,60 211,30 212,290 213,60
214,170 224,50 226,781 227,140
238,40 240,290 241,40 254,450
255,80 266,30 268,510 269,100
282,160 283,30 296,3733 297,791
298,80 310,180 311,40 324,150
325,30 338,80 339,90 340,60
##END=
