##TITLE=Isonicotinic acid, 1-cyclopentylethyl ester
##JCAMP-DX=4.24
##DATA TYPE=MASS SPECTRUM
##ORIGIN=Zaikin V.G., TIPS RAS, Moscow, Russia
##OWNER=NIST Mass Spectrometry Data Center
Collection (C) 2014 copyright by the U.S. Secretary of Commerce
on behalf of the United States of America. All rights reserved.
##$NIST MASS SPEC NO=308361
##MOLFORM=C13 H17 N O2
##MW=219
##$NIST SOURCE=MSDC
##XUNITS=M/Z
##YUNITS=RELATIVE INTENSITY
##XFACTOR=1
##YFACTOR=1
##FIRSTX=26
##LASTX=219
##FIRSTY=50
##MAXX=219
##MINX=26
##MAXY=9999
##MINY=30
##NPOINTS=55
##PEAK TABLE=(XY..XY)
26,50 27,170 28,70 29,190
36,30 39,310 40,70 41,821
42,80 43,250 44,50 45,100
50,220 51,1091 52,180 53,210
54,170 55,1842 56,90 65,60
66,310 67,2692 68,571 69,470
77,110 78,2522 79,881 80,90
81,951 82,60 95,160 96,4354
97,711 98,30 105,50 106,9999
107,721 108,150 109,30 123,210
124,3203 125,220 133,30 134,731
135,60 146,60 147,160 150,561
151,160 152,80 175,190 176,140
204,50 218,180 219,40
##END=
