##TITLE=Pentafluoropropanamide, N,N-bis(2-ethylhexyl)-
##JCAMP-DX=4.24
##DATA TYPE=MASS SPECTRUM
##ORIGIN=Zaikin V.G., TIPS RAS, Moscow, Russia
##OWNER=NIST Mass Spectrometry Data Center
Collection (C) 2014 copyright by the U.S. Secretary of Commerce
on behalf of the United States of America. All rights reserved.
##$NIST MASS SPEC NO=308512
##MOLFORM=C19 H34 F5 N O
##MW=387
##$NIST SOURCE=MSDC
##XUNITS=M/Z
##YUNITS=RELATIVE INTENSITY
##XFACTOR=1
##YFACTOR=1
##FIRSTX=26
##LASTX=290
##FIRSTY=160
##MAXX=290
##MINX=26
##MAXY=9999
##MINY=30
##NPOINTS=91
##PEAK TABLE=(XY..XY)
26,160 27,450 28,320 29,811
30,140 31,50 35,40 36,280
38,130 39,470 40,110 41,2382
42,781 43,2482 44,631 45,70
50,90 51,120 52,30 53,180
54,170 55,1872 56,851 57,3293
58,180 65,40 67,220 68,140
69,2672 70,1481 71,1672 72,130
77,40 78,50 79,80 81,190
82,110 83,310 84,280 85,50
95,60 96,100 97,70 98,190
100,130 101,60 110,50 111,791
112,941 113,150 114,60 119,340
126,140 128,370 133,30 140,130
142,90 147,60 154,30 156,170
160,50 164,70 168,50 170,1551
171,170 172,50 176,290 177,140
178,370 189,60 190,9999 191,991
192,80 202,40 204,60 216,40
218,30 230,30 232,40 246,50
266,30 268,1141 269,200 270,30
274,70 276,611 277,60 286,50
288,4624 289,601 290,220
##END=
