##TITLE=Methanesulfonamide, N-heptyl-N-octyl-
##JCAMP-DX=4.24
##DATA TYPE=MASS SPECTRUM
##ORIGIN=Zaikin V.G., TIPS RAS, Moscow, Russia
##OWNER=NIST Mass Spectrometry Data Center
Collection (C) 2014 copyright by the U.S. Secretary of Commerce
on behalf of the United States of America. All rights reserved.
##$NIST MASS SPEC NO=308433
##MOLFORM=C16 H35 N O2 S
##MW=305
##$NIST SOURCE=MSDC
##XUNITS=M/Z
##YUNITS=RELATIVE INTENSITY
##XFACTOR=1
##YFACTOR=1
##FIRSTX=26
##LASTX=305
##FIRSTY=70
##MAXX=305
##MINX=26
##MAXY=9999
##MINY=30
##NPOINTS=71
##PEAK TABLE=(XY..XY)
26,70 27,150 28,70 29,180
30,200 35,50 36,340 38,100
39,180 40,70 41,681 42,380
43,691 44,661 48,60 50,30
51,40 52,60 53,60 54,60
55,631 56,310 57,881 58,80
64,140 67,90 68,70 69,430
70,220 71,240 77,30 79,320
81,50 82,60 83,100 84,530
85,50 91,30 95,30 96,120
97,240 98,260 108,671 110,220
111,120 112,100 122,9999 123,450
124,510 126,160 127,60 128,110
140,160 141,50 142,100 148,40
154,40 156,30 162,30 168,70
182,50 194,140 206,1972 207,170
208,210 220,1782 221,210 222,90
226,210 227,30 305,60
##END=
