##TITLE=Propanamide, N,N-didecyl-2-chloro-
##JCAMP-DX=4.24
##DATA TYPE=MASS SPECTRUM
##ORIGIN=Zaikin V.G., TIPS RAS, Moscow, Russia
##OWNER=NIST Mass Spectrometry Data Center
Collection (C) 2014 copyright by the U.S. Secretary of Commerce
on behalf of the United States of America. All rights reserved.
##$NIST MASS SPEC NO=308392
##MOLFORM=C23 H46 Cl N O
##MW=387
##$NIST SOURCE=MSDC
##XUNITS=M/Z
##YUNITS=RELATIVE INTENSITY
##XFACTOR=1
##YFACTOR=1
##FIRSTX=28
##LASTX=389
##FIRSTY=30
##MAXX=389
##MINX=28
##MAXY=9999
##MINY=20
##NPOINTS=145
##PEAK TABLE=(XY..XY)
28,30 29,80 30,140 36,90
41,220 42,50 43,591 44,1111
45,20 55,400 56,210 57,871
58,60 63,160 65,30 67,30
69,290 70,190 71,550 72,40
74,50 79,20 80,60 81,50
82,90 83,320 84,110 85,581
86,120 87,20 91,50 95,50
96,20 97,190 98,140 99,100
100,170 101,60 108,50 109,20
110,20 111,40 112,130 113,60
114,30 120,110 121,40 122,210
124,50 126,110 127,40 128,40
134,4774 135,330 136,1611 137,100
138,30 140,100 141,40 142,120
154,110 155,30 156,170 168,611
169,90 170,4244 171,520 176,20
178,20 180,30 182,210 183,60
184,781 185,80 196,440 197,70
198,1872 199,230 204,60 210,110
211,40 212,721 213,90 214,641
215,70 224,671 225,170 226,961
227,140 229,40 232,90 234,20
238,530 239,130 240,180 246,30
248,480 249,50 250,130 252,230
253,40 254,90 260,4144 261,651
262,1371 263,200 266,100 268,80
274,190 276,60 280,80 282,60
288,160 290,50 294,170 295,40
296,891 297,180 302,100 304,60
306,40 308,60 316,40 322,681
323,140 324,9999 325,2182 326,250
330,40 336,20 344,50 350,30
351,150 352,9769 353,2482 354,300
358,841 359,170 360,290 361,40
372,50 386,140 387,190 388,90
389,60
##END=
