##TITLE=Propanamide, N-ethyl-N-(3-methylphenyl)-2,2-dimethyl-
##JCAMP-DX=4.24
##DATA TYPE=MASS SPECTRUM
##ORIGIN=Zaikin V.G., TIPS RAS, Moscow, Russia
##OWNER=NIST Mass Spectrometry Data Center
Collection (C) 2014 copyright by the U.S. Secretary of Commerce
on behalf of the United States of America. All rights reserved.
##$NIST MASS SPEC NO=308125
##MOLFORM=C14 H21 N O
##MW=219
##$NIST SOURCE=MSDC
##XUNITS=M/Z
##YUNITS=RELATIVE INTENSITY
##XFACTOR=1
##YFACTOR=1
##FIRSTX=27
##LASTX=221
##FIRSTY=30
##MAXX=221
##MINX=27
##MAXY=9999
##MINY=30
##NPOINTS=53
##PEAK TABLE=(XY..XY)
27,30 29,661 39,90 41,821
42,50 55,50 56,200 57,9999
58,380 65,290 77,210 78,50
79,110 85,661 86,30 91,1651
92,170 93,50 104,60 105,140
106,280 107,100 112,2272 113,120
118,591 119,550 120,7787 121,671
128,30 132,200 133,210 134,4314
135,2652 136,230 148,140 149,30
156,40 159,30 162,5625 163,1131
164,110 170,90 171,821 172,70
176,360 177,310 191,120 204,1361
205,100 218,50 219,8478 220,1351
221,50
##END=
