##TITLE=Propanamide, N,N-dihexyl-2-chloro-
##JCAMP-DX=4.24
##DATA TYPE=MASS SPECTRUM
##ORIGIN=Zaikin V.G., TIPS RAS, Moscow, Russia
##OWNER=NIST Mass Spectrometry Data Center
Collection (C) 2014 copyright by the U.S. Secretary of Commerce
on behalf of the United States of America. All rights reserved.
##$NIST MASS SPEC NO=308385
##MOLFORM=C15 H30 Cl N O
##MW=275
##$NIST SOURCE=MSDC
##XUNITS=M/Z
##YUNITS=RELATIVE INTENSITY
##XFACTOR=1
##YFACTOR=1
##FIRSTX=27
##LASTX=277
##FIRSTY=150
##MAXX=277
##MINX=27
##MAXY=9999
##MINY=10
##NPOINTS=95
##PEAK TABLE=(XY..XY)
27,150 28,130 29,330 30,480
36,20 39,30 41,591 42,250
43,2793 44,2582 45,30 55,621
56,300 57,611 58,90 63,751
65,190 67,10 69,180 70,300
71,80 72,150 80,10 82,20
83,230 84,180 85,1942 86,260
91,190 93,40 98,150 99,70
100,330 101,10 108,80 112,540
113,70 114,9999 115,701 120,270
121,90 122,300 124,60 126,210
127,140 128,1151 129,60 134,7927
135,550 136,2702 137,170 140,230
141,20 142,1672 143,110 148,70
154,50 156,971 157,60 158,90
162,40 168,330 169,60 170,931
171,80 182,90 183,40 184,691
185,90 190,30 192,280 194,70
196,40 198,20 204,3924 205,410
206,1351 207,210 210,150 212,5305
213,681 214,30 218,140 220,30
232,130 234,30 239,20 240,5575
241,831 242,30 246,70 248,30
275,150 276,40 277,40
##END=
