##TITLE=Octanamide, N,N-diheptyl-
##JCAMP-DX=4.24
##DATA TYPE=MASS SPECTRUM
##ORIGIN=Zaikin V.G., TIPS RAS, Moscow, Russia
##OWNER=NIST Mass Spectrometry Data Center
Collection (C) 2014 copyright by the U.S. Secretary of Commerce
on behalf of the United States of America. All rights reserved.
##$NIST MASS SPEC NO=308444
##MOLFORM=C22 H45 N O
##MW=339
##$NIST SOURCE=MSDC
##XUNITS=M/Z
##YUNITS=RELATIVE INTENSITY
##XFACTOR=1
##YFACTOR=1
##FIRSTX=26
##LASTX=340
##FIRSTY=120
##MAXX=340
##MINX=26
##MAXY=9999
##MINY=30
##NPOINTS=103
##PEAK TABLE=(XY..XY)
26,120 27,370 28,200 29,520
30,280 36,30 38,40 39,350
40,80 41,1261 42,510 43,1411
44,1091 45,40 53,80 54,80
55,951 56,460 57,2402 58,200
60,40 67,140 68,70 69,260
70,290 71,110 72,130 73,190
79,30 81,60 82,70 83,120
84,300 85,110 86,230 87,330
95,30 96,40 97,70 98,280
99,90 100,260 101,160 109,70
111,30 112,160 113,70 114,340
115,90 126,360 127,430 128,9999
129,871 130,30 140,120 141,90
142,731 143,80 144,30 154,140
155,30 156,1241 157,330 158,80
168,80 170,3443 171,540 172,40
182,80 183,40 184,701 185,100
196,60 197,30 198,591 199,90
210,60 212,721 213,120 214,60
224,30 226,230 227,30 238,80
240,4874 241,801 242,180 254,260
255,280 256,40 266,30 268,1371
269,240 282,530 283,90 296,300
297,60 310,320 311,60 324,100
338,140 339,160 340,60
##END=
