##TITLE=Hexanamide, N,N-dihexyl-6-chloro-
##JCAMP-DX=4.24
##DATA TYPE=MASS SPECTRUM
##ORIGIN=Zaikin V.G., TIPS RAS, Moscow, Russia
##OWNER=NIST Mass Spectrometry Data Center
Collection (C) 2014 copyright by the U.S. Secretary of Commerce
on behalf of the United States of America. All rights reserved.
##$NIST MASS SPEC NO=308658
##MOLFORM=C18 H36 Cl N O
##MW=317
##$NIST SOURCE=MSDC
##XUNITS=M/Z
##YUNITS=RELATIVE INTENSITY
##XFACTOR=1
##YFACTOR=1
##FIRSTX=25
##LASTX=319
##FIRSTY=30
##MAXX=319
##MINX=25
##MAXY=9999
##MINY=20
##NPOINTS=130
##PEAK TABLE=(XY..XY)
25,30 26,190 27,530 28,200
29,500 30,390 36,60 38,60
39,330 40,80 41,1611 42,601
43,1922 44,1631 45,30 49,30
53,90 54,90 55,921 56,310
57,270 58,120 63,110 65,30
67,100 68,80 69,1672 70,340
71,60 72,130 73,130 83,40
84,250 85,200 86,200 87,340
88,20 96,30 97,40 98,180
99,70 100,350 101,150 112,320
113,90 114,9999 115,861 116,60
126,180 127,140 128,1481 129,130
132,40 133,991 134,70 135,330
140,260 141,60 142,2022 143,571
144,80 150,30 154,110 155,30
156,3423 157,540 158,40 162,70
163,50 164,30 168,120 169,40
170,901 171,110 176,100 177,70
178,40 179,30 182,110 183,30
184,971 185,150 186,70 190,80
192,30 196,50 198,510 199,60
204,90 206,30 210,110 212,6035
213,911 214,60 217,30 218,110
220,30 224,40 226,60 227,340
228,50 232,110 234,170 236,40
238,40 240,1551 241,250 246,540
247,100 248,180 249,30 254,280
255,40 260,220 261,30 262,70
268,90 274,500 275,70 276,160
282,1271 283,250 288,270 289,40
290,80 302,50 316,70 317,150
318,90 319,50
##END=
