##TITLE=Cyclopentanecarboxamide, N-ethyl-N-(3-methylphenyl)-
##JCAMP-DX=4.24
##DATA TYPE=MASS SPECTRUM
##ORIGIN=Zaikin V.G., TIPS RAS, Moscow, Russia
##OWNER=NIST Mass Spectrometry Data Center
Collection (C) 2014 copyright by the U.S. Secretary of Commerce
on behalf of the United States of America. All rights reserved.
##$NIST MASS SPEC NO=308609
##MOLFORM=C15 H21 N O
##MW=231
##$NIST SOURCE=MSDC
##XUNITS=M/Z
##YUNITS=RELATIVE INTENSITY
##XFACTOR=1
##YFACTOR=1
##FIRSTX=25
##LASTX=233
##FIRSTY=60
##MAXX=233
##MINX=25
##MAXY=9999
##MINY=20
##NPOINTS=99
##PEAK TABLE=(XY..XY)
25,60 26,340 27,901 28,230
29,591 30,40 36,100 37,100
38,250 39,1692 40,500 41,4254
42,390 43,70 44,150 49,30
50,240 51,480 52,270 53,430
54,120 55,591 56,60 61,40
62,120 63,420 64,180 65,1541
66,270 67,971 68,270 69,7667
70,440 73,30 74,40 75,60
76,100 77,831 78,410 79,410
80,160 81,40 89,370 90,270
91,3753 92,540 93,220 94,30
95,90 96,210 97,510 98,60
100,280 102,30 103,90 104,350
105,230 106,440 107,410 108,90
111,90 113,150 115,120 116,80
117,240 118,1481 119,1181 120,7136
121,691 124,210 128,30 130,100
131,100 132,400 133,310 134,1762
135,9999 136,1091 137,40 143,30
144,90 145,50 146,100 158,70
159,60 160,100 162,330 163,30
174,80 175,40 188,80 190,1031
191,130 202,50 203,90 230,110
231,2072 232,370 233,20
##END=
