##TITLE=Benzamide, N-(2-fluorophenyl)-2,6-difluoro-
##JCAMP-DX=4.24
##DATA TYPE=MASS SPECTRUM
##ORIGIN=Zaikin V.G., TIPS RAS, Moscow, Russia
##OWNER=NIST Mass Spectrometry Data Center
Collection (C) 2014 copyright by the U.S. Secretary of Commerce
on behalf of the United States of America. All rights reserved.
##$NIST MASS SPEC NO=308663
##MOLFORM=C13 H8 F3 N O
##MW=251
##$NIST SOURCE=MSDC
##XUNITS=M/Z
##YUNITS=RELATIVE INTENSITY
##XFACTOR=1
##YFACTOR=1
##FIRSTX=26
##LASTX=252
##FIRSTY=50
##MAXX=252
##MINX=26
##MAXY=9999
##MINY=20
##NPOINTS=54
##PEAK TABLE=(XY..XY)
26,50 27,50 28,20 31,70
36,130 37,60 38,120 39,130
41,50 44,80 50,150 51,80
52,80 56,50 57,470 61,70
62,190 63,1291 64,140 65,20
68,130 69,90 70,40 73,30
74,140 75,170 79,30 80,30
81,170 82,160 83,671 84,80
87,50 88,40 92,50 93,210
94,150 95,60 109,70 110,110
111,230 112,210 113,2282 114,280
123,50 137,30 139,50 140,70
141,9999 142,791 143,40 158,90
251,2432 252,340
##END=
