##TITLE=Octanamide, N,N-dihexyl-
##JCAMP-DX=4.24
##DATA TYPE=MASS SPECTRUM
##ORIGIN=Zaikin V.G., TIPS RAS, Moscow, Russia
##OWNER=NIST Mass Spectrometry Data Center
Collection (C) 2014 copyright by the U.S. Secretary of Commerce
on behalf of the United States of America. All rights reserved.
##$NIST MASS SPEC NO=308441
##MOLFORM=C20 H41 N O
##MW=311
##$NIST SOURCE=MSDC
##XUNITS=M/Z
##YUNITS=RELATIVE INTENSITY
##XFACTOR=1
##YFACTOR=1
##FIRSTX=26
##LASTX=312
##FIRSTY=100
##MAXX=312
##MINX=26
##MAXY=9999
##MINY=20
##NPOINTS=90
##PEAK TABLE=(XY..XY)
26,100 27,360 28,180 29,460
30,250 38,30 39,330 40,70
41,1121 42,500 43,1892 44,1021
45,30 53,70 54,70 55,821
56,350 57,1481 58,160 60,30
67,120 68,60 69,170 70,260
71,80 72,130 73,170 81,50
82,60 83,130 84,270 85,220
86,240 87,370 97,40 98,260
99,80 100,360 101,200 109,60
112,320 113,80 114,9999 115,761
116,30 126,170 127,500 128,811
129,80 140,170 141,40 142,1151
143,340 144,90 154,70 156,3493
157,520 158,40 168,90 169,40
170,691 171,120 182,60 184,721
185,140 186,70 196,40 198,270
199,40 210,60 211,30 212,4274
213,621 214,40 224,20 226,110
227,320 228,130 240,1511 241,260
254,350 255,50 268,480 269,80
282,400 283,70 296,100 310,130
311,210 312,80
##END=
