##TITLE=Benzamide, N,N-dinonyl-4-ethyl-
##JCAMP-DX=4.24
##DATA TYPE=MASS SPECTRUM
##ORIGIN=Zaikin V.G., TIPS RAS, Moscow, Russia
##OWNER=NIST Mass Spectrometry Data Center
Collection (C) 2014 copyright by the U.S. Secretary of Commerce
on behalf of the United States of America. All rights reserved.
##$NIST MASS SPEC NO=308551
##MOLFORM=C27 H47 N O
##MW=401
##$NIST SOURCE=MSDC
##XUNITS=M/Z
##YUNITS=RELATIVE INTENSITY
##XFACTOR=1
##YFACTOR=1
##FIRSTX=26
##LASTX=403
##FIRSTY=90
##MAXX=403
##MINX=26
##MAXY=9999
##MINY=20
##NPOINTS=98
##PEAK TABLE=(XY..XY)
26,90 27,230 28,90 29,240
30,70 39,190 40,40 41,540
42,280 43,651 44,260 50,30
51,40 53,40 54,40 55,300
56,190 57,210 58,50 65,30
67,40 69,100 70,130 71,50
77,210 78,60 79,330 83,30
84,110 85,30 89,40 90,60
91,110 98,50 103,220 104,150
105,621 106,70 112,50 118,40
119,80 126,40 131,70 132,120
133,9999 134,941 135,70 148,40
150,50 154,150 156,90 162,170
163,200 170,150 174,40 176,360
177,230 182,20 190,130 191,60
204,150 205,50 216,30 218,210
219,50 230,30 232,170 233,40
246,80 259,50 260,40 268,70
274,170 275,50 276,60 286,40
288,1411 289,510 290,90 296,60
300,30 302,180 303,50 316,230
317,60 330,150 331,30 344,170
345,40 358,170 359,50 372,130
373,30 386,30 400,1571 401,1301
402,360 403,50
##END=
