##TITLE=Furan-2-carboxamide, N,N-diundecyl-
##JCAMP-DX=4.24
##DATA TYPE=MASS SPECTRUM
##ORIGIN=Zaikin V.G., TIPS RAS, Moscow, Russia
##OWNER=NIST Mass Spectrometry Data Center
Collection (C) 2014 copyright by the U.S. Secretary of Commerce
on behalf of the United States of America. All rights reserved.
##$NIST MASS SPEC NO=308212
##MOLFORM=C27 H49 N O2
##MW=419
##$NIST SOURCE=MSDC
##XUNITS=M/Z
##YUNITS=RELATIVE INTENSITY
##XFACTOR=1
##YFACTOR=1
##FIRSTX=29
##LASTX=421
##FIRSTY=30
##MAXX=421
##MINX=29
##MAXY=9999
##MINY=30
##NPOINTS=94
##PEAK TABLE=(XY..XY)
29,30 41,90 43,240 44,170
55,190 56,50 57,230 58,90
69,130 70,50 71,80 81,190
83,80 84,40 85,30 95,6306
96,340 97,120 98,80 110,60
111,40 112,280 124,430 125,350
126,180 128,30 138,5225 139,981
140,80 152,240 153,90 166,701
167,150 170,50 180,420 181,150
182,440 183,40 184,571 185,50
194,240 195,60 197,70 198,561
199,60 208,340 209,30 210,80
222,240 223,40 236,260 237,50
248,40 249,210 250,270 251,120
252,70 262,30 264,971 265,290
266,420 267,60 278,9999 279,2642
280,360 292,1411 293,360 294,50
306,1571 307,571 308,90 320,550
321,410 322,90 324,330 325,70
334,571 335,190 348,320 349,80
362,230 363,90 376,821 377,220
390,871 391,330 392,40 401,50
402,90 404,130 418,450 419,3563
420,1111 421,170
##END=
