##TITLE=Hexanamide, N,N-dinonyl-6-bromo-
##JCAMP-DX=4.24
##DATA TYPE=MASS SPECTRUM
##ORIGIN=Zaikin V.G., TIPS RAS, Moscow, Russia
##OWNER=NIST Mass Spectrometry Data Center
Collection (C) 2014 copyright by the U.S. Secretary of Commerce
on behalf of the United States of America. All rights reserved.
##$NIST MASS SPEC NO=308653
##MOLFORM=C24 H48 Br N O
##MW=445
##$NIST SOURCE=MSDC
##XUNITS=M/Z
##YUNITS=RELATIVE INTENSITY
##XFACTOR=1
##YFACTOR=1
##FIRSTX=26
##LASTX=447
##FIRSTY=180
##MAXX=447
##MINX=26
##MAXY=9999
##MINY=20
##NPOINTS=166
##PEAK TABLE=(XY..XY)
26,180 27,400 28,130 29,340
30,220 36,90 38,50 39,430
40,90 41,1261 42,440 43,1181
44,1101 50,40 51,40 52,30
53,100 54,80 55,771 56,300
57,390 58,80 67,120 68,80
69,1181 70,280 71,200 72,80
73,100 79,110 80,110 81,120
82,300 83,170 84,300 85,190
86,160 87,230 91,30 95,60
96,80 97,180 98,240 99,100
100,200 101,90 106,30 107,70
109,50 110,30 111,50 112,230
113,70 114,210 115,50 124,20
126,190 127,50 128,170 129,30
133,40 140,140 141,50 142,280
143,40 149,40 151,40 154,360
155,60 156,9999 157,1171 158,60
168,100 169,60 170,781 171,90
177,290 178,30 179,260 182,170
183,30 184,1291 185,290 186,50
191,40 196,90 198,2202 199,360
200,30 210,90 211,30 212,500
213,80 220,30 222,30 224,90
225,30 226,480 227,80 234,30
236,80 238,70 240,430 241,70
248,40 250,30 252,80 254,440
255,70 262,80 264,70 266,70
268,591 269,130 270,60 276,50
278,50 280,70 282,120 290,30
294,100 295,30 296,5925 297,1331
298,140 308,30 310,30 311,110
318,40 320,130 322,130 324,901
325,210 332,260 333,50 334,250
335,50 336,30 338,200 339,40
346,100 348,90 352,30 360,190
361,40 362,200 363,30 364,30
365,30 366,1561 367,420 368,50
374,120 376,120 388,80 390,70
402,120 404,110 416,100 418,100
430,30 432,30 444,70 445,50
446,80 447,50
##END=
