##TITLE=Cyclopropanecarboxamide, N-decyl-N-methyl-
##JCAMP-DX=4.24
##DATA TYPE=MASS SPECTRUM
##ORIGIN=Zaikin V.G., TIPS RAS, Moscow, Russia
##OWNER=NIST Mass Spectrometry Data Center
Collection (C) 2014 copyright by the U.S. Secretary of Commerce
on behalf of the United States of America. All rights reserved.
##$NIST MASS SPEC NO=308578
##MOLFORM=C15 H29 N O
##MW=239
##$NIST SOURCE=MSDC
##XUNITS=M/Z
##YUNITS=RELATIVE INTENSITY
##XFACTOR=1
##YFACTOR=1
##FIRSTX=25
##LASTX=240
##FIRSTY=30
##MAXX=240
##MINX=25
##MAXY=9999
##MINY=30
##NPOINTS=83
##PEAK TABLE=(XY..XY)
25,30 26,220 27,500 28,230
29,591 30,90 35,50 36,310
37,30 38,170 39,851 40,210
41,3193 42,971 43,1041 44,2903
45,70 50,30 51,50 52,40
53,110 54,80 55,791 56,320
57,581 58,621 59,30 65,30
67,100 68,260 69,9999 70,761
71,170 72,70 73,70 77,30
79,60 81,40 82,90 83,100
84,681 85,100 86,90 91,70
96,30 97,50 98,691 99,190
100,340 110,40 111,70 112,8187
113,3163 114,591 115,30 119,30
126,691 127,220 128,50 136,30
140,741 141,190 142,60 154,530
155,80 156,40 168,400 169,50
170,340 171,30 182,480 183,70
196,240 197,40 198,771 199,90
210,230 211,40 218,30 224,80
238,70 239,611 240,100
##END=
