##TITLE=Isonicotinamide, N-heptyl-N-octyl-
##JCAMP-DX=4.24
##DATA TYPE=MASS SPECTRUM
##ORIGIN=Zaikin V.G., TIPS RAS, Moscow, Russia
##OWNER=NIST Mass Spectrometry Data Center
Collection (C) 2014 copyright by the U.S. Secretary of Commerce
on behalf of the United States of America. All rights reserved.
##$NIST MASS SPEC NO=308644
##MOLFORM=C21 H36 N2 O
##MW=332
##$NIST SOURCE=MSDC
##XUNITS=M/Z
##YUNITS=RELATIVE INTENSITY
##XFACTOR=1
##YFACTOR=1
##FIRSTX=25
##LASTX=333
##FIRSTY=80
##MAXX=333
##MINX=25
##MAXY=9999
##MINY=20
##NPOINTS=118
##PEAK TABLE=(XY..XY)
25,80 26,500 27,921 28,390
29,991 30,220 38,260 39,631
40,130 41,1842 42,811 43,1381
44,561 49,50 50,270 51,751
52,240 53,170 54,130 55,901
56,440 57,611 58,20 63,40
65,60 67,150 68,80 69,300
70,220 71,130 75,40 76,50
77,180 78,2953 79,470 80,100
81,70 82,80 83,80 84,140
85,40 91,70 92,50 93,110
94,30 95,50 96,30 97,40
98,70 103,30 104,40 105,130
106,9999 107,761 108,80 109,20
111,30 112,40 118,30 119,40
120,40 121,20 122,50 123,240
126,90 128,40 130,60 133,40
134,30 135,520 136,210 137,70
139,40 140,70 142,50 147,70
148,30 149,2953 150,561 151,40
154,20 156,160 161,30 163,190
164,40 168,30 170,210 177,270
178,70 183,30 189,50 191,260
192,50 203,50 204,30 205,70
216,60 217,30 219,150 221,110
226,30 233,1692 234,340 235,110
245,30 247,1782 248,380 249,30
254,370 255,30 261,240 262,40
275,120 289,70 303,60 331,661
332,691 333,120
##END=
