##TITLE=4-Nitrobenzoic acid, 3,5-dimethylphenyl ester
##JCAMP-DX=4.24
##DATA TYPE=MASS SPECTRUM
##ORIGIN=Zaikin V.G., TIPS RAS, Moscow, Russia
##OWNER=NIST Mass Spectrometry Data Center
Collection (C) 2014 copyright by the U.S. Secretary of Commerce
on behalf of the United States of America. All rights reserved.
##$NIST MASS SPEC NO=308011
##MOLFORM=C15 H13 N O4
##MW=271
##$NIST SOURCE=MSDC
##XUNITS=M/Z
##YUNITS=RELATIVE INTENSITY
##XFACTOR=1
##YFACTOR=1
##FIRSTX=28
##LASTX=273
##FIRSTY=10
##MAXX=273
##MINX=28
##MAXY=9999
##MINY=10
##NPOINTS=36
##PEAK TABLE=(XY..XY)
28,10 36,20 39,20 44,10
50,80 51,20 53,20 63,10
64,50 65,60 75,140 76,641
77,200 78,30 79,20 91,110
92,510 93,50 103,20 104,1651
105,130 107,20 120,881 121,120
122,50 134,160 136,20 150,9999
151,801 152,90 153,10 167,30
270,30 271,2863 272,450 273,40
##END=
