##TITLE=Propanamide, N-heptyl-N-octyl-2-methyl-
##JCAMP-DX=4.24
##DATA TYPE=MASS SPECTRUM
##ORIGIN=Zaikin V.G., TIPS RAS, Moscow, Russia
##OWNER=NIST Mass Spectrometry Data Center
Collection (C) 2014 copyright by the U.S. Secretary of Commerce
on behalf of the United States of America. All rights reserved.
##$NIST MASS SPEC NO=308086
##MOLFORM=C19 H39 N O
##MW=297
##$NIST SOURCE=MSDC
##XUNITS=M/Z
##YUNITS=RELATIVE INTENSITY
##XFACTOR=1
##YFACTOR=1
##FIRSTX=28
##LASTX=298
##FIRSTY=40
##MAXX=298
##MINX=28
##MAXY=9999
##MINY=30
##NPOINTS=58
##PEAK TABLE=(XY..XY)
28,40 29,100 30,80 36,200
41,420 42,30 43,3413 44,1501
55,350 56,60 57,1431 58,50
69,340 70,100 71,2332 72,90
73,80 81,30 83,70 84,40
85,50 87,40 88,30 95,110
97,130 100,240 101,290 111,90
114,350 115,490 125,30 128,9148
129,871 135,30 142,9999 143,841
156,1862 157,140 170,951 171,30
184,120 185,90 186,30 198,811
199,150 200,30 212,691 213,70
226,681 227,70 240,220 241,30
254,4994 255,741 256,30 268,80
297,480 298,30
##END=
