##TITLE=Isonicotinic acid, (4-chlorophenyl)methyl ester
##JCAMP-DX=4.24
##DATA TYPE=MASS SPECTRUM
##ORIGIN=Zaikin V.G., TIPS RAS, Moscow, Russia
##OWNER=NIST Mass Spectrometry Data Center
Collection (C) 2014 copyright by the U.S. Secretary of Commerce
on behalf of the United States of America. All rights reserved.
##$NIST MASS SPEC NO=308348
##MOLFORM=C13 H10 Cl N O2
##MW=247
##$NIST SOURCE=MSDC
##XUNITS=M/Z
##YUNITS=RELATIVE INTENSITY
##XFACTOR=1
##YFACTOR=1
##FIRSTX=26
##LASTX=250
##FIRSTY=130
##MAXX=250
##MINX=26
##MAXY=9999
##MINY=10
##NPOINTS=75
##PEAK TABLE=(XY..XY)
26,130 27,110 28,10 29,40
36,220 37,30 38,150 39,340
40,40 44,290 49,90 50,861
51,2552 52,370 53,50 61,30
62,130 63,671 64,140 65,140
73,200 74,100 75,400 76,140
77,1041 78,2863 79,1161 80,60
85,40 86,30 87,40 89,3393
90,821 91,170 99,621 100,30
101,200 105,60 106,9689 107,871
108,90 111,360 112,100 113,360
114,40 115,80 123,250 124,1782
125,9999 126,1301 127,3143 128,240
139,300 140,120 141,470 142,70
143,120 166,40 167,140 168,50
194,210 195,30 201,30 202,190
203,40 204,60 211,100 212,190
213,40 229,60 246,540 247,3253
248,631 249,1101 250,140
##END=
