##TITLE=Furan-2-carboxamide, N-ethyl-N-(3-methylphenyl)-
##JCAMP-DX=4.24
##DATA TYPE=MASS SPECTRUM
##ORIGIN=Zaikin V.G., TIPS RAS, Moscow, Russia
##OWNER=NIST Mass Spectrometry Data Center
Collection (C) 2014 copyright by the U.S. Secretary of Commerce
on behalf of the United States of America. All rights reserved.
##$NIST MASS SPEC NO=308203
##MOLFORM=C14 H15 N O2
##MW=229
##$NIST SOURCE=MSDC
##XUNITS=M/Z
##YUNITS=RELATIVE INTENSITY
##XFACTOR=1
##YFACTOR=1
##FIRSTX=28
##LASTX=231
##FIRSTY=30
##MAXX=231
##MINX=28
##MAXY=9999
##MINY=30
##NPOINTS=54
##PEAK TABLE=(XY..XY)
28,30 36,80 39,200 51,30
65,190 67,120 77,80 79,30
91,651 92,50 94,591 95,9999
96,741 97,40 107,40 108,50
112,40 115,40 117,50 118,390
119,470 120,120 121,30 122,1231
123,110 129,30 130,30 132,140
133,140 134,2702 135,280 137,50
144,120 146,70 158,510 159,100
160,30 171,30 172,280 173,140
175,380 184,30 186,1061 187,130
200,571 201,2202 202,280 212,160
214,871 215,110 228,190 229,7887
230,1281 231,90
##END=
