##TITLE=Benzamide, N,N-bis(2-ethylhexyl)-4-bromo-
##JCAMP-DX=4.24
##DATA TYPE=MASS SPECTRUM
##ORIGIN=Zaikin V.G., TIPS RAS, Moscow, Russia
##OWNER=NIST Mass Spectrometry Data Center
Collection (C) 2014 copyright by the U.S. Secretary of Commerce
on behalf of the United States of America. All rights reserved.
##$NIST MASS SPEC NO=308455
##MOLFORM=C23 H38 Br N O
##MW=423
##$NIST SOURCE=MSDC
##XUNITS=M/Z
##YUNITS=RELATIVE INTENSITY
##XFACTOR=1
##YFACTOR=1
##FIRSTX=26
##LASTX=426
##FIRSTY=50
##MAXX=426
##MINX=26
##MAXY=9999
##MINY=20
##NPOINTS=143
##PEAK TABLE=(XY..XY)
26,50 27,90 28,40 29,110
30,40 35,30 36,210 38,90
39,130 40,30 41,430 42,190
43,520 44,350 50,120 51,60
52,30 53,40 54,40 55,390
56,190 57,360 58,30 65,30
67,90 68,40 69,230 70,230
71,250 72,30 73,80 74,60
75,160 76,310 77,170 78,40
79,90 80,100 81,110 82,140
83,90 84,130 85,80 86,30
87,40 91,50 95,60 96,90
97,50 98,90 99,100 100,40
103,40 104,631 105,410 106,40
109,30 111,40 112,140 113,30
114,40 115,20 119,50 126,40
128,40 133,50 134,20 140,150
141,20 142,90 147,30 154,50
155,871 156,1521 157,1021 158,80
169,40 170,140 171,40 182,60
183,9999 184,1051 185,9979 186,771
187,50 191,40 198,370 199,90
200,210 201,40 202,210 212,310
213,280 214,280 215,280 216,40
217,50 226,971 227,190 228,891
229,170 240,90 241,40 242,40
243,30 245,80 246,70 254,200
255,50 256,130 257,40 268,130
270,30 282,230 283,50 284,190
285,30 294,30 295,80 296,510
297,110 298,30 310,80 311,40
312,180 313,60 314,110 322,30
324,3583 325,741 326,3523 327,711
328,70 338,30 366,30 368,20
394,50 396,50 422,30 423,110
424,60 425,110 426,30
##END=
