##TITLE=Methoxyacetamide, N,N-diundecyl-
##JCAMP-DX=4.24
##DATA TYPE=MASS SPECTRUM
##ORIGIN=Zaikin V.G., TIPS RAS, Moscow, Russia
##OWNER=NIST Mass Spectrometry Data Center
Collection (C) 2014 copyright by the U.S. Secretary of Commerce
on behalf of the United States of America. All rights reserved.
##$NIST MASS SPEC NO=308499
##MOLFORM=C25 H51 N O2
##MW=397
##$NIST SOURCE=MSDC
##XUNITS=M/Z
##YUNITS=RELATIVE INTENSITY
##XFACTOR=1
##YFACTOR=1
##FIRSTX=25
##LASTX=398
##FIRSTY=50
##MAXX=398
##MINX=25
##MAXY=9999
##MINY=30
##NPOINTS=190
##PEAK TABLE=(XY..XY)
25,50 26,300 27,581 28,360
29,901 30,270 31,120 38,50
39,601 40,190 41,2022 42,801
43,3053 44,1061 45,3263 46,70
50,70 51,80 52,50 53,200
54,220 55,1972 56,931 57,4164
58,500 60,50 65,50 66,30
67,420 68,210 69,1141 70,611
71,2312 72,250 73,250 74,60
77,120 78,70 79,170 80,70
81,390 82,240 83,540 84,420
85,1892 86,240 87,160 88,571
91,100 92,30 93,110 94,50
95,300 96,350 97,380 98,380
99,591 100,160 101,70 102,150
103,100 105,60 106,30 107,60
108,40 109,210 110,110 111,190
112,340 113,290 114,130 115,40
116,831 117,140 119,40 121,40
122,40 123,130 124,70 125,80
126,270 127,80 128,160 129,30
130,50 131,30 133,80 135,30
137,60 138,40 139,40 140,220
141,60 142,100 144,30 147,70
149,50 152,40 154,180 155,80
156,90 158,70 163,50 165,30
168,150 169,30 170,130 172,30
177,90 178,30 179,30 180,30
182,500 183,90 184,1291 185,160
186,30 191,90 193,70 196,130
197,90 198,1271 199,150 200,40
210,210 211,30 212,1421 213,230
214,130 217,30 224,130 226,2452
227,370 228,1521 229,220 238,70
240,250 241,30 242,230 243,70
244,200 245,30 249,30 251,30
252,50 254,360 255,60 256,1371
257,350 258,40 265,40 266,80
267,70 268,210 269,30 270,210
271,30 280,60 282,110 283,80
284,280 285,70 294,40 296,170
298,150 310,160 312,60 322,70
324,360 325,70 326,130 327,40
336,40 338,170 340,240 341,40
350,230 351,40 352,9999 353,2522
354,661 366,40 367,50 368,150
369,30 382,921 383,230 396,230
397,801 398,180
##END=
