##TITLE=2-Thiophenecarboxylic acid, 4-nitrophenyl ester
##JCAMP-DX=4.24
##DATA TYPE=MASS SPECTRUM
##ORIGIN=Zaikin V.G., TIPS RAS, Moscow, Russia
##OWNER=NIST Mass Spectrometry Data Center
Collection (C) 2014 copyright by the U.S. Secretary of Commerce
on behalf of the United States of America. All rights reserved.
##$NIST MASS SPEC NO=308067
##MOLFORM=C11 H7 N O4 S
##MW=249
##$NIST SOURCE=MSDC
##XUNITS=M/Z
##YUNITS=RELATIVE INTENSITY
##XFACTOR=1
##YFACTOR=1
##FIRSTX=28
##LASTX=249
##FIRSTY=250
##MAXX=249
##MINX=28
##MAXY=9999
##MINY=30
##NPOINTS=11
##PEAK TABLE=(XY..XY)
28,250 39,641 57,60 63,40
82,60 83,480 84,30 111,9999
112,651 113,490 249,70
##END=
