##TITLE=2-Methylpropionic acid, 2-naphthyl ester
##JCAMP-DX=4.24
##DATA TYPE=MASS SPECTRUM
##ORIGIN=Zaikin V.G., TIPS RAS, Moscow, Russia
##OWNER=NIST Mass Spectrometry Data Center
Collection (C) 2014 copyright by the U.S. Secretary of Commerce
on behalf of the United States of America. All rights reserved.
##$NIST MASS SPEC NO=308021
##MOLFORM=C14 H14 O2
##MW=214
##$NIST SOURCE=MSDC
##XUNITS=M/Z
##YUNITS=RELATIVE INTENSITY
##XFACTOR=1
##YFACTOR=1
##FIRSTX=27
##LASTX=215
##FIRSTY=30
##MAXX=215
##MINX=27
##MAXY=9999
##MINY=10
##NPOINTS=35
##PEAK TABLE=(XY..XY)
27,30 28,10 36,30 39,40
41,90 42,10 43,1091 44,30
63,50 65,80 70,20 71,290
77,10 89,70 93,10 109,30
110,10 114,10 115,981 116,270
117,10 119,50 122,10 126,10
127,130 128,10 139,200 143,40
144,9999 145,1101 146,40 156,20
198,20 214,1281 215,170
##END=
