##TITLE=Furan-2-carboxamide, N-decyl-N-methyl-
##JCAMP-DX=4.24
##DATA TYPE=MASS SPECTRUM
##ORIGIN=Zaikin V.G., TIPS RAS, Moscow, Russia
##OWNER=NIST Mass Spectrometry Data Center
Collection (C) 2014 copyright by the U.S. Secretary of Commerce
on behalf of the United States of America. All rights reserved.
##$NIST MASS SPEC NO=308205
##MOLFORM=C16 H27 N O2
##MW=265
##$NIST SOURCE=MSDC
##XUNITS=M/Z
##YUNITS=RELATIVE INTENSITY
##XFACTOR=1
##YFACTOR=1
##FIRSTX=29
##LASTX=266
##FIRSTY=80
##MAXX=266
##MINX=29
##MAXY=9999
##MINY=30
##NPOINTS=56
##PEAK TABLE=(XY..XY)
29,80 30,50 39,120 41,200
42,120 43,250 44,530 55,210
56,30 57,280 58,340 59,50
67,70 68,60 69,80 70,120
71,40 81,130 82,200 83,50
95,9999 96,611 97,230 108,110
110,90 111,40 112,50 123,50
124,190 125,1231 126,410 135,80
138,7537 139,3513 140,270 151,30
152,1051 153,210 166,961 167,200
170,150 180,360 181,220 194,420
195,80 208,390 209,310 222,420
223,60 236,290 237,70 248,50
250,90 264,80 265,1601 266,310
##END=
