##TITLE=2,3,4-Trifluorobenzoic acid, 4-cyanophenyl ester
##JCAMP-DX=4.24
##DATA TYPE=MASS SPECTRUM
##ORIGIN=Zaikin V.G., TIPS RAS, Moscow, Russia
##OWNER=NIST Mass Spectrometry Data Center
Collection (C) 2014 copyright by the U.S. Secretary of Commerce
on behalf of the United States of America. All rights reserved.
##$NIST MASS SPEC NO=308034
##MOLFORM=C14 H6 F3 N O2
##MW=277
##$NIST SOURCE=MSDC
##XUNITS=M/Z
##YUNITS=RELATIVE INTENSITY
##XFACTOR=1
##YFACTOR=1
##FIRSTX=39
##LASTX=277
##FIRSTY=40
##MAXX=277
##MINX=39
##MAXY=9999
##MINY=30
##NPOINTS=18
##PEAK TABLE=(XY..XY)
39,40 62,40 63,60 64,70
75,40 81,571 90,90 91,30
112,40 118,50 119,60 130,50
131,1391 132,110 159,9999 160,681
161,40 277,110
##END=
