##TITLE=Propanamide, N,N-diheptyl-2,2-dimethyl-
##JCAMP-DX=4.24
##DATA TYPE=MASS SPECTRUM
##ORIGIN=Zaikin V.G., TIPS RAS, Moscow, Russia
##OWNER=NIST Mass Spectrometry Data Center
Collection (C) 2014 copyright by the U.S. Secretary of Commerce
on behalf of the United States of America. All rights reserved.
##$NIST MASS SPEC NO=308128
##MOLFORM=C19 H39 N O
##MW=297
##$NIST SOURCE=MSDC
##XUNITS=M/Z
##YUNITS=RELATIVE INTENSITY
##XFACTOR=1
##YFACTOR=1
##FIRSTX=29
##LASTX=299
##FIRSTY=100
##MAXX=299
##MINX=29
##MAXY=9999
##MINY=30
##NPOINTS=55
##PEAK TABLE=(XY..XY)
29,100 30,50 41,270 42,50
43,440 44,130 55,220 56,70
57,9999 58,490 69,50 70,60
71,40 72,30 73,70 84,60
85,4574 86,280 87,100 98,60
99,330 100,60 112,40 114,220
115,340 126,140 128,1471 129,310
142,1031 143,160 144,30 154,50
156,60 157,130 170,490 171,90
184,270 198,500 199,170 200,110
212,3843 213,631 214,50 226,130
240,7687 241,1291 242,130 254,140
268,90 282,330 283,50 296,110
297,1051 298,350 299,30
##END=
