##TITLE=1-(Trihexylsilyloxy)pentane
##JCAMP-DX=4.24
##DATA TYPE=MASS SPECTRUM
##ORIGIN=Zaikin V.G., TIPS RAS, Moscow, Russia
##OWNER=NIST Mass Spectrometry Data Center
Collection (C) 2014 copyright by the U.S. Secretary of Commerce
on behalf of the United States of America. All rights reserved.
##$NIST MASS SPEC NO=308322
##MOLFORM=C23 H50 O Si
##MW=370
##$NIST SOURCE=MSDC
##XUNITS=M/Z
##YUNITS=RELATIVE INTENSITY
##XFACTOR=1
##YFACTOR=1
##FIRSTX=26
##LASTX=288
##FIRSTY=50
##MAXX=288
##MINX=26
##MAXY=9999
##MINY=20
##NPOINTS=63
##PEAK TABLE=(XY..XY)
26,50 27,110 28,40 29,110
39,100 41,270 42,120 43,410
44,30 45,210 47,150 55,160
56,100 57,90 59,170 61,310
67,30 69,681 70,50 71,290
73,240 74,30 75,270 83,130
84,30 85,290 86,30 87,290
88,30 89,130 97,40 99,100
101,430 102,40 103,50 111,60
113,951 114,120 115,430 116,50
117,280 129,170 131,210 143,70
145,130 157,60 159,50 171,230
172,40 173,40 185,20 199,400
200,80 201,6906 202,1161 203,320
215,40 229,70 233,40 285,9999
286,2192 287,581 288,70
##END=
