##TITLE=Nicotinamide, N-(3-chlorophenyl)-
##JCAMP-DX=4.24
##DATA TYPE=MASS SPECTRUM
##ORIGIN=Zaikin V.G., TIPS RAS, Moscow, Russia
##OWNER=NIST Mass Spectrometry Data Center
Collection (C) 2014 copyright by the U.S. Secretary of Commerce
on behalf of the United States of America. All rights reserved.
##$NIST MASS SPEC NO=308106
##MOLFORM=C12 H9 Cl N2 O
##MW=232
##$NIST SOURCE=MSDC
##XUNITS=M/Z
##YUNITS=RELATIVE INTENSITY
##XFACTOR=1
##YFACTOR=1
##FIRSTX=26
##LASTX=235
##FIRSTY=30
##MAXX=235
##MINX=26
##MAXY=9999
##MINY=10
##NPOINTS=43
##PEAK TABLE=(XY..XY)
26,30 27,60 28,10 36,30
38,40 39,80 50,200 51,1141
52,180 53,50 62,40 63,160
64,110 65,100 73,70 75,130
76,60 77,90 78,3894 79,290
90,70 91,90 92,50 98,40
99,200 100,40 101,60 105,30
106,9999 107,661 108,40 111,70
113,30 116,30 126,40 127,270
128,40 129,80 231,370 232,3723
233,651 234,1311 235,170
##END=
