##TITLE=Benzamide, N,N-bis(2-ethylhexyl)-3-fluoro-
##JCAMP-DX=4.24
##DATA TYPE=MASS SPECTRUM
##ORIGIN=Zaikin V.G., TIPS RAS, Moscow, Russia
##OWNER=NIST Mass Spectrometry Data Center
Collection (C) 2014 copyright by the U.S. Secretary of Commerce
on behalf of the United States of America. All rights reserved.
##$NIST MASS SPEC NO=308398
##MOLFORM=C23 H38 F N O
##MW=363
##$NIST SOURCE=MSDC
##XUNITS=M/Z
##YUNITS=RELATIVE INTENSITY
##XFACTOR=1
##YFACTOR=1
##FIRSTX=27
##LASTX=364
##FIRSTY=30
##MAXX=364
##MINX=27
##MAXY=9999
##MINY=20
##NPOINTS=60
##PEAK TABLE=(XY..XY)
27,30 28,20 29,60 36,30
39,30 41,170 42,80 43,160
44,80 55,130 56,60 57,150
69,90 70,70 71,60 75,30
84,40 95,671 96,90 109,190
112,40 122,40 123,9999 124,711
125,40 140,190 152,290 153,260
154,90 164,30 166,2612 167,400
168,30 170,30 180,40 184,50
194,130 195,50 206,30 207,30
208,30 222,260 223,40 234,40
235,70 236,40 250,70 251,40
252,250 253,40 262,50 264,5635
265,1061 266,110 306,40 320,30
334,60 362,50 363,250 364,70
##END=
