##TITLE=2-Thiopheneacetic acid, 4-cyanophenyl ester
##JCAMP-DX=4.24
##DATA TYPE=MASS SPECTRUM
##ORIGIN=Zaikin V.G., TIPS RAS, Moscow, Russia
##OWNER=NIST Mass Spectrometry Data Center
Collection (C) 2014 copyright by the U.S. Secretary of Commerce
on behalf of the United States of America. All rights reserved.
##$NIST MASS SPEC NO=308057
##MOLFORM=C13 H9 N O2 S
##MW=243
##$NIST SOURCE=MSDC
##XUNITS=M/Z
##YUNITS=RELATIVE INTENSITY
##XFACTOR=1
##YFACTOR=1
##FIRSTX=28
##LASTX=245
##FIRSTY=50
##MAXX=245
##MINX=28
##MAXY=9999
##MINY=20
##NPOINTS=28
##PEAK TABLE=(XY..XY)
28,50 39,130 45,470 47,20
51,50 52,30 53,480 58,30
63,90 64,50 69,90 70,90
71,50 90,60 91,30 95,70
96,310 97,9999 98,671 99,470
102,60 119,140 124,3433 125,530
126,180 243,1782 244,270 245,90
##END=
