##TITLE=Propanamide, N,N-dinonyl-2-methyl-
##JCAMP-DX=4.24
##DATA TYPE=MASS SPECTRUM
##ORIGIN=Zaikin V.G., TIPS RAS, Moscow, Russia
##OWNER=NIST Mass Spectrometry Data Center
Collection (C) 2014 copyright by the U.S. Secretary of Commerce
on behalf of the United States of America. All rights reserved.
##$NIST MASS SPEC NO=308088
##MOLFORM=C22 H45 N O
##MW=339
##$NIST SOURCE=MSDC
##XUNITS=M/Z
##YUNITS=RELATIVE INTENSITY
##XFACTOR=1
##YFACTOR=1
##FIRSTX=28
##LASTX=340
##FIRSTY=10
##MAXX=340
##MINX=28
##MAXY=9999
##MINY=10
##NPOINTS=53
##PEAK TABLE=(XY..XY)
28,10 36,30 41,40 43,460
44,220 55,50 57,130 69,60
70,30 71,561 72,50 83,30
85,100 87,30 88,30 100,80
101,130 114,160 115,230 128,110
129,60 142,170 143,40 154,80
156,9999 157,1241 158,50 170,1061
171,140 184,1251 185,170 198,160
212,240 213,300 214,210 226,1111
227,280 240,350 241,50 254,480
255,80 268,681 269,150 282,180
296,6846 297,1501 298,140 310,280
311,40 324,110 338,140 339,681
340,220
##END=
