##TITLE=Acetoxyacetamide, N-heptyl-N-octyl-
##JCAMP-DX=4.24
##DATA TYPE=MASS SPECTRUM
##ORIGIN=Zaikin V.G., TIPS RAS, Moscow, Russia
##OWNER=NIST Mass Spectrometry Data Center
Collection (C) 2014 copyright by the U.S. Secretary of Commerce
on behalf of the United States of America. All rights reserved.
##$NIST MASS SPEC NO=308297
##MOLFORM=C19 H37 N O3
##MW=327
##$NIST SOURCE=MSDC
##XUNITS=M/Z
##YUNITS=RELATIVE INTENSITY
##XFACTOR=1
##YFACTOR=1
##FIRSTX=26
##LASTX=328
##FIRSTY=60
##MAXX=328
##MINX=26
##MAXY=9999
##MINY=10
##NPOINTS=154
##PEAK TABLE=(XY..XY)
26,60 27,150 28,10 29,320
30,260 36,180 38,50 39,140
40,30 41,801 42,370 43,2092
44,1411 45,130 51,20 52,20
53,40 54,60 55,771 56,380
57,2242 58,200 60,140 67,110
68,80 69,430 70,420 71,791
72,170 73,1531 74,200 76,50
77,30 79,50 80,20 81,80
82,80 83,140 84,310 85,300
86,120 87,40 88,80 89,30
91,30 93,40 95,70 96,90
97,130 98,310 99,170 100,90
101,3673 102,270 103,110 108,20
109,50 110,80 111,80 112,520
113,220 114,140 115,10 116,40
117,30 119,50 120,120 122,30
123,20 124,50 125,30 126,1271
127,290 128,8518 129,811 130,90
131,30 138,30 139,20 140,1161
141,250 142,9008 143,991 144,260
145,50 152,20 154,530 155,120
156,1481 157,150 158,280 159,30
168,2362 169,450 170,911 171,100
172,350 173,120 174,250 175,20
182,2342 183,490 184,320 185,40
186,280 187,130 188,220 189,20
196,480 197,140 198,240 199,30
200,210 201,40 210,230 211,60
212,210 213,30 214,200 215,30
216,30 218,30 224,440 225,80
226,621 227,100 228,691 229,100
230,30 238,160 239,20 240,70
242,561 243,90 252,290 253,50
254,9999 255,1852 256,480 257,50
267,80 268,170 269,30 270,310
271,50 282,60 284,1682 285,400
286,50 298,60 312,60 326,60
327,70 328,60
##END=
