##TITLE=Nicotinic acid, 3-phenylpropyl ester
##JCAMP-DX=4.24
##DATA TYPE=MASS SPECTRUM
##ORIGIN=Zaikin V.G., TIPS RAS, Moscow, Russia
##OWNER=NIST Mass Spectrometry Data Center
Collection (C) 2014 copyright by the U.S. Secretary of Commerce
on behalf of the United States of America. All rights reserved.
##$NIST MASS SPEC NO=308370
##MOLFORM=C15 H15 N O2
##MW=241
##$NIST SOURCE=MSDC
##XUNITS=M/Z
##YUNITS=RELATIVE INTENSITY
##XFACTOR=1
##YFACTOR=1
##FIRSTX=26
##LASTX=241
##FIRSTY=40
##MAXX=241
##MINX=26
##MAXY=9999
##MINY=30
##NPOINTS=38
##PEAK TABLE=(XY..XY)
26,40 27,60 28,50 39,130
41,100 44,30 50,140 51,571
52,110 53,30 63,60 65,310
76,40 77,310 78,1571 79,310
89,70 90,50 91,1932 92,220
102,30 103,290 104,140 105,380
106,1231 107,100 115,300 116,100
117,5665 118,9999 119,841 120,30
123,120 124,190 137,881 138,60
240,30 241,90
##END=
