##TITLE=Benzamide, N-ethyl-N-(3-methylphenyl)-2-trifluoromethyl-
##JCAMP-DX=4.24
##DATA TYPE=MASS SPECTRUM
##ORIGIN=Zaikin V.G., TIPS RAS, Moscow, Russia
##OWNER=NIST Mass Spectrometry Data Center
Collection (C) 2014 copyright by the U.S. Secretary of Commerce
on behalf of the United States of America. All rights reserved.
##$NIST MASS SPEC NO=308532
##MOLFORM=C17 H16 F3 N O
##MW=307
##$NIST SOURCE=MSDC
##XUNITS=M/Z
##YUNITS=RELATIVE INTENSITY
##XFACTOR=1
##YFACTOR=1
##FIRSTX=51
##LASTX=309
##FIRSTY=30
##MAXX=309
##MINX=51
##MAXY=9999
##MINY=20
##NPOINTS=51
##PEAK TABLE=(XY..XY)
51,30 63,30 65,150 75,50
77,90 78,40 89,50 90,30
91,460 92,60 95,130 104,30
107,30 117,30 118,260 119,270
120,100 125,110 126,90 127,30
132,60 133,60 134,220 135,50
144,40 145,2572 146,250 152,50
154,30 172,300 173,9999 174,851
175,60 200,871 201,110 238,861
239,150 240,40 258,20 259,70
279,490 280,80 286,170 287,50
288,210 289,40 292,40 306,831
307,2392 308,490 309,50
##END=
