##TITLE=Benzamide, N-ethyl-N-(3-methylphenyl)-3-fluoro-
##JCAMP-DX=4.24
##DATA TYPE=MASS SPECTRUM
##ORIGIN=Zaikin V.G., TIPS RAS, Moscow, Russia
##OWNER=NIST Mass Spectrometry Data Center
Collection (C) 2014 copyright by the U.S. Secretary of Commerce
on behalf of the United States of America. All rights reserved.
##$NIST MASS SPEC NO=308395
##MOLFORM=C16 H16 F N O
##MW=257
##$NIST SOURCE=MSDC
##XUNITS=M/Z
##YUNITS=RELATIVE INTENSITY
##XFACTOR=1
##YFACTOR=1
##FIRSTX=39
##LASTX=259
##FIRSTY=40
##MAXX=259
##MINX=39
##MAXY=9999
##MINY=30
##NPOINTS=39
##PEAK TABLE=(XY..XY)
39,40 51,40 63,30 65,190
75,130 77,90 78,40 89,40
90,30 91,500 92,60 94,30
95,2212 96,180 104,40 107,30
118,280 119,380 120,120 122,320
123,9999 124,641 125,40 132,70
133,90 134,641 135,90 150,871
151,90 165,30 183,30 228,30
229,330 230,50 242,120 256,1712
257,4174 258,701 259,60
##END=
