##TITLE=Propanamide, N,N-dioctyl-3-chloro-
##JCAMP-DX=4.24
##DATA TYPE=MASS SPECTRUM
##ORIGIN=Zaikin V.G., TIPS RAS, Moscow, Russia
##OWNER=NIST Mass Spectrometry Data Center
Collection (C) 2014 copyright by the U.S. Secretary of Commerce
on behalf of the United States of America. All rights reserved.
##$NIST MASS SPEC NO=308507
##MOLFORM=C19 H38 Cl N O
##MW=331
##$NIST SOURCE=MSDC
##XUNITS=M/Z
##YUNITS=RELATIVE INTENSITY
##XFACTOR=1
##YFACTOR=1
##FIRSTX=25
##LASTX=332
##FIRSTY=30
##MAXX=332
##MINX=25
##MAXY=9999
##MINY=20
##NPOINTS=133
##PEAK TABLE=(XY..XY)
25,30 26,180 27,390 28,140
29,360 30,330 35,20 36,180
38,90 39,260 40,70 41,911
42,410 43,911 44,1331 45,40
53,80 54,90 55,761 56,440
57,591 58,100 63,571 65,190
67,110 68,70 69,390 70,340
71,260 72,70 79,30 81,60
82,50 83,80 84,240 85,60
86,130 90,20 91,520 93,160
95,30 96,40 97,40 98,320
99,110 100,290 108,70 110,40
112,210 113,70 114,110 120,140
121,120 122,70 123,40 126,190
127,40 128,130 134,641 135,190
136,220 137,60 140,360 141,50
142,9999 143,911 144,40 148,60
154,170 155,30 156,530 157,60
162,90 164,30 168,160 169,30
170,671 171,70 176,140 178,40
182,60 184,761 185,100 190,50
196,440 197,110 198,1291 199,170
210,190 211,50 212,230 213,30
218,70 220,230 221,30 222,70
224,200 225,40 226,150 232,1702
233,250 234,561 235,70 238,170
239,30 240,320 241,50 246,210
247,30 248,70 252,60 254,60
260,230 261,30 262,70 266,80
268,2352 269,450 270,40 274,120
276,30 288,70 294,30 295,60
296,4964 297,1011 298,110 302,110
304,30 316,40 330,50 331,60
332,50
##END=
