##TITLE=Benzamide, N,N-diheptyl-4-chloro-
##JCAMP-DX=4.24
##DATA TYPE=MASS SPECTRUM
##ORIGIN=Zaikin V.G., TIPS RAS, Moscow, Russia
##OWNER=NIST Mass Spectrometry Data Center
Collection (C) 2014 copyright by the U.S. Secretary of Commerce
on behalf of the United States of America. All rights reserved.
##$NIST MASS SPEC NO=308590
##MOLFORM=C21 H34 Cl N O
##MW=351
##$NIST SOURCE=MSDC
##XUNITS=M/Z
##YUNITS=RELATIVE INTENSITY
##XFACTOR=1
##YFACTOR=1
##FIRSTX=26
##LASTX=354
##FIRSTY=70
##MAXX=354
##MINX=26
##MAXY=9999
##MINY=20
##NPOINTS=98
##PEAK TABLE=(XY..XY)
26,70 27,160 28,70 29,180
30,50 36,60 39,150 40,30
41,420 42,250 43,330 44,220
50,80 51,50 53,30 54,30
55,270 56,160 57,220 58,30
67,30 69,60 70,90 74,40
75,180 76,140 77,100 84,90
98,50 104,190 105,80 111,1041
112,130 113,330 114,40 125,60
126,170 128,90 138,50 139,9999
140,781 141,3413 142,240 152,20
154,40 156,100 168,210 169,220
170,90 171,70 180,30 182,540
183,330 184,200 185,110 196,160
197,50 198,50 199,40 201,30
210,220 211,60 212,90 222,40
224,220 225,30 226,60 237,60
238,70 239,20 240,70 249,30
252,190 253,40 254,120 264,30
266,1862 267,490 268,671 269,150
277,230 278,110 280,180 281,30
282,70 294,170 295,30 296,60
308,90 310,30 322,90 324,30
336,30 350,771 351,691 352,410
353,240 354,50
##END=
