##TITLE=Benzamide, N,N-dihexyl-2,3,4-trifluoro-
##JCAMP-DX=4.24
##DATA TYPE=MASS SPECTRUM
##ORIGIN=Zaikin V.G., TIPS RAS, Moscow, Russia
##OWNER=NIST Mass Spectrometry Data Center
Collection (C) 2014 copyright by the U.S. Secretary of Commerce
on behalf of the United States of America. All rights reserved.
##$NIST MASS SPEC NO=308420
##MOLFORM=C19 H28 F3 N O
##MW=343
##$NIST SOURCE=MSDC
##XUNITS=M/Z
##YUNITS=RELATIVE INTENSITY
##XFACTOR=1
##YFACTOR=1
##FIRSTX=27
##LASTX=344
##FIRSTY=50
##MAXX=344
##MINX=27
##MAXY=9999
##MINY=20
##NPOINTS=60
##PEAK TABLE=(XY..XY)
27,50 28,20 29,60 39,30
41,150 42,100 43,190 44,60
55,110 56,50 57,40 70,20
81,50 84,30 112,70 114,30
131,380 132,50 141,40 158,30
159,9999 160,611 161,40 170,30
176,90 182,80 183,30 184,110
188,180 189,130 190,40 196,40
197,20 202,1221 203,370 204,30
216,120 217,40 230,160 243,40
244,60 252,150 253,50 254,40
258,160 259,30 260,100 266,110
272,2212 273,561 274,60 286,260
287,60 300,110 314,60 324,160
325,30 342,140 343,811 344,180
##END=
