##TITLE=Nicotinic acid, 2-tetrahydrofurylmethyl ester
##JCAMP-DX=4.24
##DATA TYPE=MASS SPECTRUM
##ORIGIN=Zaikin V.G., TIPS RAS, Moscow, Russia
##OWNER=NIST Mass Spectrometry Data Center
Collection (C) 2014 copyright by the U.S. Secretary of Commerce
on behalf of the United States of America. All rights reserved.
##$NIST MASS SPEC NO=308334
##MOLFORM=C11 H13 N O3
##MW=207
##$NIST SOURCE=MSDC
##XUNITS=M/Z
##YUNITS=RELATIVE INTENSITY
##XFACTOR=1
##YFACTOR=1
##FIRSTX=26
##LASTX=179
##FIRSTY=90
##MAXX=179
##MINX=26
##MAXY=9999
##MINY=30
##NPOINTS=55
##PEAK TABLE=(XY..XY)
26,90 27,561 28,90 29,460
30,30 31,70 36,70 38,40
39,430 40,80 41,1181 42,651
43,3713 44,220 49,30 50,470
51,1752 52,310 53,140 54,150
55,200 56,160 57,40 69,60
70,80 71,9999 72,430 75,30
76,80 77,190 78,2843 79,1832
80,160 81,30 83,80 84,1962
85,110 93,40 105,150 106,2793
107,1782 108,120 121,320 122,30
123,160 124,230 136,50 137,631
138,80 149,3503 150,350 166,80
177,1121 178,120 179,80
##END=
