##TITLE=Benzamide, N,N-dibutyl-4-methyl-
##JCAMP-DX=4.24
##DATA TYPE=MASS SPECTRUM
##ORIGIN=Zaikin V.G., TIPS RAS, Moscow, Russia
##OWNER=NIST Mass Spectrometry Data Center
Collection (C) 2014 copyright by the U.S. Secretary of Commerce
on behalf of the United States of America. All rights reserved.
##$NIST MASS SPEC NO=308462
##MOLFORM=C16 H25 N O
##MW=247
##$NIST SOURCE=MSDC
##XUNITS=M/Z
##YUNITS=RELATIVE INTENSITY
##XFACTOR=1
##YFACTOR=1
##FIRSTX=28
##LASTX=248
##FIRSTY=50
##MAXX=248
##MINX=28
##MAXY=9999
##MINY=20
##NPOINTS=26
##PEAK TABLE=(XY..XY)
28,50 65,170 89,30 90,50
91,1361 92,100 99,30 100,70
118,40 119,9999 120,851 121,20
136,280 148,360 149,280 156,60
162,390 163,160 175,30 190,100
204,1361 205,350 218,30 246,1111
247,1401 248,230
##END=
