##TITLE=Propanamide, N,N-diheptyl-2-methyl-
##JCAMP-DX=4.24
##DATA TYPE=MASS SPECTRUM
##ORIGIN=Zaikin V.G., TIPS RAS, Moscow, Russia
##OWNER=NIST Mass Spectrometry Data Center
Collection (C) 2014 copyright by the U.S. Secretary of Commerce
on behalf of the United States of America. All rights reserved.
##$NIST MASS SPEC NO=308085
##MOLFORM=C18 H37 N O
##MW=283
##$NIST SOURCE=MSDC
##XUNITS=M/Z
##YUNITS=RELATIVE INTENSITY
##XFACTOR=1
##YFACTOR=1
##FIRSTX=28
##LASTX=284
##FIRSTY=10
##MAXX=284
##MINX=28
##MAXY=9999
##MINY=10
##NPOINTS=46
##PEAK TABLE=(XY..XY)
28,10 29,30 30,50 36,30
41,160 43,1211 44,591 55,150
57,711 58,60 69,40 70,50
71,911 72,90 73,40 84,30
86,40 87,60 88,30 100,150
101,190 114,280 115,330 126,50
128,9999 129,961 142,911 143,90
149,80 156,1021 157,90 170,140
184,200 185,190 186,110 198,801
199,160 212,410 213,50 226,260
240,2883 241,480 254,110 268,50
283,440 284,100
##END=
