##TITLE=Trichloroacetamide, N-ethyl-N-(3-methylphenyl)-
##JCAMP-DX=4.24
##DATA TYPE=MASS SPECTRUM
##ORIGIN=Zaikin V.G., TIPS RAS, Moscow, Russia
##OWNER=NIST Mass Spectrometry Data Center
Collection (C) 2014 copyright by the U.S. Secretary of Commerce
on behalf of the United States of America. All rights reserved.
##$NIST MASS SPEC NO=308486
##MOLFORM=C11 H12 Cl3 N O
##MW=279
##$NIST SOURCE=MSDC
##XUNITS=M/Z
##YUNITS=RELATIVE INTENSITY
##XFACTOR=1
##YFACTOR=1
##FIRSTX=26
##LASTX=285
##FIRSTY=50
##MAXX=285
##MINX=26
##MAXY=9999
##MINY=20
##NPOINTS=136
##PEAK TABLE=(XY..XY)
26,50 27,110 28,80 29,200
35,270 36,1621 37,80 38,561
39,240 40,30 41,140 42,60
43,50 44,250 47,30 50,150
51,280 52,170 53,60 55,50
56,30 57,40 62,70 63,260
64,110 65,781 66,70 67,20
70,30 74,50 75,100 76,120
77,561 78,330 79,260 80,30
82,110 83,80 84,60 85,50
88,20 89,430 90,240 91,2873
92,320 93,50 101,60 102,140
103,220 104,370 105,250 106,731
107,110 110,40 112,30 115,80
116,250 117,460 118,1091 119,831
120,230 121,30 123,80 125,70
126,30 127,30 128,50 129,30
130,270 131,200 132,1061 133,631
134,9999 135,1001 136,70 137,40
138,80 139,80 140,40 141,20
144,250 145,170 146,380 147,80
151,30 152,100 154,50 158,40
159,60 160,140 162,6466 163,781
164,120 165,90 166,140 167,40
168,30 172,140 173,100 174,1211
175,651 176,130 179,70 180,591
181,100 182,190 183,40 188,40
190,30 193,170 194,220 195,70
196,70 200,90 202,70 207,70
208,1621 209,480 210,671 211,180
212,30 228,60 230,40 243,220
244,300 245,300 246,200 247,110
248,30 279,1371 280,180 281,1311
282,160 283,410 284,50 285,40
##END=
