##TITLE=l-Alanine, N-butyryl-, methyl ester
##JCAMP-DX=4.24
##DATA TYPE=MASS SPECTRUM
##ORIGIN=Zaikin V.G., TIPS RAS, Moscow, Russia
##OWNER=NIST Mass Spectrometry Data Center
Collection (C) 2014 copyright by the U.S. Secretary of Commerce
on behalf of the United States of America. All rights reserved.
##$NIST MASS SPEC NO=308814
##MOLFORM=C8 H15 N O3
##MW=173
##$NIST SOURCE=MSDC
##XUNITS=M/Z
##YUNITS=RELATIVE INTENSITY
##XFACTOR=1
##YFACTOR=1
##FIRSTX=26
##LASTX=174
##FIRSTY=40
##MAXX=174
##MINX=26
##MAXY=9999
##MINY=30
##NPOINTS=49
##PEAK TABLE=(XY..XY)
26,40 27,430 28,30 29,190
30,861 31,50 33,150 39,190
40,50 41,641 42,661 43,2032
44,9999 45,280 55,250 56,100
57,80 58,170 59,280 60,50
68,30 69,70 70,380 71,1251
72,110 74,30 79,30 85,40
86,1061 87,100 88,530 89,60
90,30 98,80 99,30 100,120
102,571 103,110 104,140 113,80
114,2833 115,200 131,240 141,30
142,70 145,711 146,50 173,120
174,30
##END=
