##TITLE=Benzamide, N,N-dioctyl-4-trifluoromethyl-
##JCAMP-DX=4.24
##DATA TYPE=MASS SPECTRUM
##ORIGIN=Zaikin V.G., TIPS RAS, Moscow, Russia
##OWNER=NIST Mass Spectrometry Data Center
Collection (C) 2014 copyright by the U.S. Secretary of Commerce
on behalf of the United States of America. All rights reserved.
##$NIST MASS SPEC NO=308254
##MOLFORM=C24 H38 F3 N O
##MW=413
##$NIST SOURCE=MSDC
##XUNITS=M/Z
##YUNITS=RELATIVE INTENSITY
##XFACTOR=1
##YFACTOR=1
##FIRSTX=28
##LASTX=415
##FIRSTY=20
##MAXX=415
##MINX=28
##MAXY=9999
##MINY=20
##NPOINTS=65
##PEAK TABLE=(XY..XY)
28,20 41,70 43,110 44,60
55,70 56,40 57,120 69,100
70,30 71,30 126,30 140,190
142,130 145,651 146,40 154,40
155,40 159,30 168,30 170,120
173,9999 174,851 175,40 190,150
202,280 203,280 204,50 216,2152
217,791 218,70 230,230 231,100
240,80 244,410 245,110 258,350
259,80 268,230 269,30 272,140
273,30 285,190 286,70 300,450
301,90 302,220 314,6396 315,1832
316,230 328,561 329,130 342,330
343,90 356,150 357,40 370,190
371,40 384,150 385,30 394,140
398,60 412,2052 413,2022 414,540
415,60
##END=
