##TITLE=Propanamide, N,N-diheptyl-3-chloro-
##JCAMP-DX=4.24
##DATA TYPE=MASS SPECTRUM
##ORIGIN=Zaikin V.G., TIPS RAS, Moscow, Russia
##OWNER=NIST Mass Spectrometry Data Center
Collection (C) 2014 copyright by the U.S. Secretary of Commerce
on behalf of the United States of America. All rights reserved.
##$NIST MASS SPEC NO=308505
##MOLFORM=C17 H34 Cl N O
##MW=303
##$NIST SOURCE=MSDC
##XUNITS=M/Z
##YUNITS=RELATIVE INTENSITY
##XFACTOR=1
##YFACTOR=1
##FIRSTX=26
##LASTX=305
##FIRSTY=90
##MAXX=305
##MINX=26
##MAXY=9999
##MINY=20
##NPOINTS=119
##PEAK TABLE=(XY..XY)
26,90 27,240 28,80 29,210
30,210 36,140 38,40 39,160
40,40 41,571 42,270 43,490
44,1031 45,30 53,50 54,50
55,530 56,280 57,571 58,80
63,500 65,160 67,50 68,40
69,130 70,200 71,40 72,50
79,30 81,30 82,30 83,30
84,210 85,50 86,130 91,500
93,160 96,30 97,40 98,260
99,90 100,270 108,60 110,30
112,150 113,50 114,170 120,150
121,110 122,70 123,40 126,310
127,40 128,9999 129,851 130,30
134,631 135,200 136,220 137,60
140,170 141,40 142,510 143,50
148,60 154,190 155,30 156,601
157,60 162,90 164,20 168,60
170,781 171,90 176,140 178,40
182,360 183,80 184,1211 185,160
190,30 196,160 197,40 198,220
199,20 204,70 206,210 210,170
211,30 212,340 213,50 218,1702
219,240 220,591 221,80 224,70
226,40 232,220 233,30 234,70
238,70 240,1912 241,350 242,30
246,220 247,30 248,70 260,120
262,30 267,60 268,4904 269,921
270,90 274,80 288,30 302,30
303,70 304,40 305,30
##END=
