##TITLE=Chloroacetamide, N,N-diheptyl-
##JCAMP-DX=4.24
##DATA TYPE=MASS SPECTRUM
##ORIGIN=Zaikin V.G., TIPS RAS, Moscow, Russia
##OWNER=NIST Mass Spectrometry Data Center
Collection (C) 2014 copyright by the U.S. Secretary of Commerce
on behalf of the United States of America. All rights reserved.
##$NIST MASS SPEC NO=308478
##MOLFORM=C16 H32 Cl N O
##MW=289
##$NIST SOURCE=MSDC
##XUNITS=M/Z
##YUNITS=RELATIVE INTENSITY
##XFACTOR=1
##YFACTOR=1
##FIRSTX=26
##LASTX=290
##FIRSTY=160
##MAXX=290
##MINX=26
##MAXY=9999
##MINY=20
##NPOINTS=138
##PEAK TABLE=(XY..XY)
26,160 27,510 28,320 29,821
30,761 35,90 36,641 37,60
38,250 39,500 40,120 41,2202
42,1081 43,2022 44,2983 45,80
48,30 49,200 50,60 51,160
52,70 53,150 54,180 55,1912
56,871 57,2122 58,280 60,50
65,30 67,190 68,150 69,520
70,540 71,140 72,300 73,80
76,60 77,571 78,50 79,300
80,30 81,110 82,100 83,100
84,460 85,130 86,330 87,100
93,30 94,180 95,60 96,160
97,340 98,400 99,120 100,130
105,30 106,571 107,200 108,621
109,70 110,150 111,20 112,330
113,120 114,190 116,40 120,8918
121,741 122,3013 123,260 124,30
126,841 127,110 128,3883 129,360
134,80 140,380 141,90 142,1071
143,100 148,110 150,30 154,300
155,60 156,3533 157,390 158,180
162,140 164,40 168,360 169,70
170,1081 171,130 175,40 176,40
182,170 183,70 184,190 190,70
192,550 193,60 194,180 196,120
197,40 198,260 199,30 204,3853
205,480 206,1301 207,210 210,100
212,581 213,90 218,310 219,30
220,90 224,40 226,150 232,360
233,40 234,120 238,100 240,9999
241,1762 242,150 246,150 248,50
252,30 253,50 254,6526 255,1241
256,120 260,90 274,60 288,60
289,60 290,60
##END=
