##TITLE=Phenylacetamide, N-heptyl-N-octyl-
##JCAMP-DX=4.24
##DATA TYPE=MASS SPECTRUM
##ORIGIN=Zaikin V.G., TIPS RAS, Moscow, Russia
##OWNER=NIST Mass Spectrometry Data Center
Collection (C) 2014 copyright by the U.S. Secretary of Commerce
on behalf of the United States of America. All rights reserved.
##$NIST MASS SPEC NO=308412
##MOLFORM=C23 H39 N O
##MW=345
##$NIST SOURCE=MSDC
##XUNITS=M/Z
##YUNITS=RELATIVE INTENSITY
##XFACTOR=1
##YFACTOR=1
##FIRSTX=26
##LASTX=347
##FIRSTY=50
##MAXX=347
##MINX=26
##MAXY=9999
##MINY=20
##NPOINTS=138
##PEAK TABLE=(XY..XY)
26,50 27,130 28,90 29,240
30,230 36,110 38,30 39,140
40,30 41,651 42,230 43,1111
44,1041 51,40 53,30 54,30
55,520 56,230 57,4194 58,250
63,40 65,160 67,60 68,30
69,270 70,170 71,1762 72,150
73,30 77,40 79,30 81,50
82,30 83,70 84,150 85,80
86,70 89,140 90,210 91,3313
92,821 93,70 95,50 96,60
97,60 98,160 99,170 100,70
104,130 105,90 106,70 107,40
109,30 111,40 112,130 113,100
114,90 117,50 118,480 119,130
120,60 123,60 126,190 127,30
128,4404 129,450 133,30 134,30
135,40 136,70 140,130 142,5195
143,550 144,20 148,130 149,230
150,30 154,80 156,1211 157,130
158,110 162,160 163,310 164,30
168,80 170,641 171,70 172,110
174,200 175,30 176,90 177,70
182,40 184,170 185,30 188,190
189,30 190,110 191,50 196,30
198,200 199,30 204,230 205,40
212,170 218,120 224,30 226,500
227,100 228,30 232,190 233,150
234,120 246,621 247,440 248,150
252,60 254,9999 255,1792 256,170
260,571 261,310 262,50 274,430
275,100 277,60 288,450 289,100
302,270 303,70 316,280 317,60
330,180 331,40 344,260 345,3163
346,891 347,120
##END=
