##TITLE=trans-Cinnamamide, N,N-dibutyl-3-trifluoromethyl-
##JCAMP-DX=4.24
##DATA TYPE=MASS SPECTRUM
##ORIGIN=Zaikin V.G., TIPS RAS, Moscow, Russia
##OWNER=NIST Mass Spectrometry Data Center
Collection (C) 2014 copyright by the U.S. Secretary of Commerce
on behalf of the United States of America. All rights reserved.
##$NIST MASS SPEC NO=308069
##MOLFORM=C18 H24 F3 N O
##MW=327
##$NIST SOURCE=MSDC
##XUNITS=M/Z
##YUNITS=RELATIVE INTENSITY
##XFACTOR=1
##YFACTOR=1
##FIRSTX=29
##LASTX=329
##FIRSTY=30
##MAXX=329
##MINX=29
##MAXY=9999
##MINY=30
##NPOINTS=62
##PEAK TABLE=(XY..XY)
29,30 41,40 42,30 43,30
44,50 57,80 72,30 84,110
86,1001 87,50 98,50 99,80
100,100 102,90 112,140 113,100
126,190 128,80 140,190 141,120
145,40 151,781 152,110 154,50
155,70 168,140 169,30 170,60
171,1301 172,150 180,30 182,70
186,40 198,60 199,9999 200,1121
201,70 214,40 215,90 216,130
228,200 229,120 242,280 243,490
244,50 255,30 256,190 257,30
270,110 271,40 284,1992 285,1121
286,140 298,350 299,60 308,200
309,30 312,70 326,60 327,1361
328,330 329,40
##END=
