##TITLE=Propanamide, N-(2,5-dimethoxyphenyl)-3-phenyl-
##JCAMP-DX=4.24
##DATA TYPE=MASS SPECTRUM
##ORIGIN=Zaikin V.G., TIPS RAS, Moscow, Russia
##OWNER=NIST Mass Spectrometry Data Center
Collection (C) 2014 copyright by the U.S. Secretary of Commerce
on behalf of the United States of America. All rights reserved.
##$NIST MASS SPEC NO=308119
##MOLFORM=C17 H19 N O3
##MW=285
##$NIST SOURCE=MSDC
##XUNITS=M/Z
##YUNITS=RELATIVE INTENSITY
##XFACTOR=1
##YFACTOR=1
##FIRSTX=26
##LASTX=287
##FIRSTY=30
##MAXX=287
##MINX=26
##MAXY=9999
##MINY=20
##NPOINTS=89
##PEAK TABLE=(XY..XY)
26,30 27,70 28,40 39,120
41,70 44,150 50,50 51,170
52,160 53,80 54,30 55,80
63,80 64,40 65,320 66,60
67,70 68,90 69,40 76,40
77,500 78,210 79,460 80,100
81,50 82,50 89,40 90,70
91,2272 92,320 93,130 94,50
95,300 96,40 102,40 103,340
104,260 105,1081 106,130 107,190
108,100 109,120 110,500 111,90
121,40 122,260 123,140 124,100
125,130 131,110 132,110 133,40
135,460 136,130 137,40 138,9979
139,891 140,70 143,40 148,30
150,160 151,110 152,130 153,8708
154,851 155,70 162,30 163,70
164,220 165,290 166,50 171,70
173,70 179,70 180,60 210,30
211,20 227,90 240,140 242,40
253,40 254,400 255,90 261,40
270,30 284,30 285,9999 286,1762
287,210
##END=
