##TITLE=Benzamide, N-ethyl-N-(3-methylphenyl)-3-methoxy-
##JCAMP-DX=4.24
##DATA TYPE=MASS SPECTRUM
##ORIGIN=Zaikin V.G., TIPS RAS, Moscow, Russia
##OWNER=NIST Mass Spectrometry Data Center
Collection (C) 2014 copyright by the U.S. Secretary of Commerce
on behalf of the United States of America. All rights reserved.
##$NIST MASS SPEC NO=308148
##MOLFORM=C17 H19 N O2
##MW=269
##$NIST SOURCE=MSDC
##XUNITS=M/Z
##YUNITS=RELATIVE INTENSITY
##XFACTOR=1
##YFACTOR=1
##FIRSTX=63
##LASTX=271
##FIRSTY=30
##MAXX=271
##MINX=63
##MAXY=9999
##MINY=30
##NPOINTS=28
##PEAK TABLE=(XY..XY)
63,30 64,120 65,50 76,50
77,821 78,70 79,50 91,140
92,540 93,30 107,1752 108,140
118,90 119,90 133,30 134,310
135,9999 136,921 137,70 162,400
163,40 240,30 241,180 254,70
268,1351 269,3693 270,671 271,70
##END=
