##TITLE=Phenylacetamide, N,N-diundecyl-
##JCAMP-DX=4.24
##DATA TYPE=MASS SPECTRUM
##ORIGIN=Zaikin V.G., TIPS RAS, Moscow, Russia
##OWNER=NIST Mass Spectrometry Data Center
Collection (C) 2014 copyright by the U.S. Secretary of Commerce
on behalf of the United States of America. All rights reserved.
##$NIST MASS SPEC NO=308416
##MOLFORM=C30 H53 N O
##MW=443
##$NIST SOURCE=MSDC
##XUNITS=M/Z
##YUNITS=RELATIVE INTENSITY
##XFACTOR=1
##YFACTOR=1
##FIRSTX=26
##LASTX=445
##FIRSTY=90
##MAXX=445
##MINX=26
##MAXY=9999
##MINY=20
##NPOINTS=171
##PEAK TABLE=(XY..XY)
26,90 27,180 28,100 29,260
30,330 36,90 39,200 40,40
41,771 42,290 43,1862 44,1351
45,60 50,30 51,40 53,40
54,70 55,891 56,410 57,3243
58,200 63,40 65,110 67,120
68,60 69,520 70,310 71,2032
72,160 73,80 77,40 78,30
79,40 81,90 82,60 83,250
84,210 85,1842 86,180 89,110
90,170 91,2702 92,691 93,70
95,80 96,130 97,150 98,180
99,651 100,100 104,170 105,80
106,60 107,30 109,40 111,60
112,190 113,290 114,60 117,70
118,410 119,110 120,60 123,60
126,150 127,30 128,40 132,20
133,70 134,40 135,30 136,70
140,130 141,30 142,30 146,30
148,90 149,160 150,30 154,100
155,80 156,40 162,120 163,220
168,90 170,120 176,60 177,50
182,310 183,40 184,7297 185,991
186,60 190,70 191,90 193,40
196,60 198,1121 199,150 204,130
205,30 210,130 212,1051 213,150
214,250 215,30 218,70 224,50
226,140 230,330 231,60 232,60
238,30 240,100 246,50 252,40
254,200 255,30 260,90 266,40
267,40 268,110 273,30 274,60
280,40 288,240 289,270 290,260
291,40 296,60 300,20 302,681
303,540 304,100 310,80 316,210
317,60 322,40 324,540 325,140
326,40 330,440 331,120 336,50
344,250 345,60 350,120 351,30
352,9999 353,2592 354,340 355,50
358,150 359,50 372,200 373,60
386,260 387,70 398,30 400,230
401,70 414,190 415,60 427,30
428,190 429,50 441,50 442,571
443,2422 444,811 445,130
##END=
