##TITLE=Pentanamide, N,N-dinonyl-
##JCAMP-DX=4.24
##DATA TYPE=MASS SPECTRUM
##ORIGIN=Zaikin V.G., TIPS RAS, Moscow, Russia
##OWNER=NIST Mass Spectrometry Data Center
Collection (C) 2014 copyright by the U.S. Secretary of Commerce
on behalf of the United States of America. All rights reserved.
##$NIST MASS SPEC NO=308186
##MOLFORM=C23 H47 N O
##MW=353
##$NIST SOURCE=MSDC
##XUNITS=M/Z
##YUNITS=RELATIVE INTENSITY
##XFACTOR=1
##YFACTOR=1
##FIRSTX=29
##LASTX=355
##FIRSTY=80
##MAXX=355
##MINX=29
##MAXY=9999
##MINY=20
##NPOINTS=75
##PEAK TABLE=(XY..XY)
29,80 30,120 41,160 42,20
43,310 44,801 55,130 56,50
57,651 58,70 69,90 70,60
71,130 72,40 73,140 83,50
84,50 85,510 86,130 87,240
98,40 100,130 101,90 102,50
112,40 114,200 115,100 126,40
128,180 129,90 140,30 142,200
143,50 154,100 156,9999 157,1151
158,50 169,40 170,841 171,100
182,40 184,1511 185,340 186,60
198,3393 199,581 200,40 212,500
213,80 226,400 227,90 228,170
240,821 241,170 254,360 255,60
268,851 269,170 282,280 283,50
294,30 296,6786 297,1451 298,150
310,200 311,270 312,50 324,1261
325,290 326,20 338,130 352,210
353,360 354,340 355,60
##END=
