##TITLE=Benzamide, N-(2-fluorophenyl)-4-ethyl-
##JCAMP-DX=4.24
##DATA TYPE=MASS SPECTRUM
##ORIGIN=Zaikin V.G., TIPS RAS, Moscow, Russia
##OWNER=NIST Mass Spectrometry Data Center
Collection (C) 2014 copyright by the U.S. Secretary of Commerce
on behalf of the United States of America. All rights reserved.
##$NIST MASS SPEC NO=308542
##MOLFORM=C15 H14 F N O
##MW=243
##$NIST SOURCE=MSDC
##XUNITS=M/Z
##YUNITS=RELATIVE INTENSITY
##XFACTOR=1
##YFACTOR=1
##FIRSTX=26
##LASTX=244
##FIRSTY=70
##MAXX=244
##MINX=26
##MAXY=9999
##MINY=10
##NPOINTS=53
##PEAK TABLE=(XY..XY)
26,70 27,160 28,10 29,30
35,30 39,190 40,70 41,40
44,190 50,150 51,280 52,90
53,80 57,110 62,50 63,220
64,90 65,160 74,50 75,100
76,120 77,1201 78,280 79,1051
80,60 81,30 82,40 83,340
84,70 89,310 90,320 91,270
92,30 102,90 103,781 104,310
105,1511 106,160 107,100 109,40
110,110 111,250 116,40 118,80
119,40 131,120 132,80 133,9999
134,991 135,260 150,190 243,1962
244,320
##END=
