##TITLE=But-2-enamide, N,N-diundecyl-3-methyl-
##JCAMP-DX=4.24
##DATA TYPE=MASS SPECTRUM
##ORIGIN=Zaikin V.G., TIPS RAS, Moscow, Russia
##OWNER=NIST Mass Spectrometry Data Center
Collection (C) 2014 copyright by the U.S. Secretary of Commerce
on behalf of the United States of America. All rights reserved.
##$NIST MASS SPEC NO=308245
##MOLFORM=C27 H53 N O
##MW=407
##$NIST SOURCE=MSDC
##XUNITS=M/Z
##YUNITS=RELATIVE INTENSITY
##XFACTOR=1
##YFACTOR=1
##FIRSTX=29
##LASTX=409
##FIRSTY=50
##MAXX=409
##MINX=29
##MAXY=9999
##MINY=30
##NPOINTS=89
##PEAK TABLE=(XY..XY)
29,50 30,60 41,90 43,220
44,300 55,390 56,60 57,230
58,50 69,110 70,50 71,90
82,90 83,9999 84,591 85,80
97,30 98,110 99,40 100,30
112,220 113,260 114,30 126,400
127,440 128,40 140,360 141,140
154,540 155,110 168,340 169,80
170,90 182,340 183,60 184,4984
185,661 186,30 196,150 197,50
198,691 199,90 210,230 211,70
212,150 224,200 225,110 226,40
238,530 239,130 240,40 252,1191
253,500 254,200 256,30 266,3333
267,1311 268,230 280,2823 281,561
282,90 294,2272 295,510 296,80
308,751 309,190 310,40 322,831
323,210 324,621 325,160 336,430
337,100 350,550 351,160 352,1161
353,290 364,661 365,280 366,40
378,300 379,70 392,3313 393,941
394,130 406,450 407,2662 408,1031
409,170
##END=
