##TITLE=Isonicotinic acid, propyl ester
##JCAMP-DX=4.24
##DATA TYPE=MASS SPECTRUM
##ORIGIN=Zaikin V.G., TIPS RAS, Moscow, Russia
##OWNER=NIST Mass Spectrometry Data Center
Collection (C) 2014 copyright by the U.S. Secretary of Commerce
on behalf of the United States of America. All rights reserved.
##$NIST MASS SPEC NO=308345
##MOLFORM=C9 H11 N O2
##MW=165
##$NIST SOURCE=MSDC
##XUNITS=M/Z
##YUNITS=RELATIVE INTENSITY
##XFACTOR=1
##YFACTOR=1
##FIRSTX=26
##LASTX=166
##FIRSTY=180
##MAXX=166
##MINX=26
##MAXY=9999
##MINY=30
##NPOINTS=57
##PEAK TABLE=(XY..XY)
26,180 27,841 28,40 29,230
31,140 37,40 38,150 39,520
40,100 41,1101 42,701 43,721
44,150 45,50 49,100 50,1241
51,3954 52,691 53,120 59,320
63,50 65,60 66,60 67,50
75,80 76,150 77,460 78,5785
79,1041 80,180 91,70 92,40
94,180 95,60 96,50 105,450
106,9999 107,901 108,70 109,280
120,40 121,350 122,80 123,6706
124,5715 125,430 126,30 135,60
136,170 137,661 138,400 139,30
150,380 151,30 164,731 165,1131
166,120
##END=
