##TITLE=Cyclobutanecarboxamide, N,N-diundecyl-
##JCAMP-DX=4.24
##DATA TYPE=MASS SPECTRUM
##ORIGIN=Zaikin V.G., TIPS RAS, Moscow, Russia
##OWNER=NIST Mass Spectrometry Data Center
Collection (C) 2014 copyright by the U.S. Secretary of Commerce
on behalf of the United States of America. All rights reserved.
##$NIST MASS SPEC NO=308606
##MOLFORM=C27 H53 N O
##MW=407
##$NIST SOURCE=MSDC
##XUNITS=M/Z
##YUNITS=RELATIVE INTENSITY
##XFACTOR=1
##YFACTOR=1
##FIRSTX=25
##LASTX=408
##FIRSTY=50
##MAXX=408
##MINX=25
##MAXY=9999
##MINY=30
##NPOINTS=129
##PEAK TABLE=(XY..XY)
25,50 26,330 27,641 28,230
29,581 30,250 36,50 37,50
38,70 39,631 40,140 41,1351
42,601 43,1561 44,1101 45,30
50,70 51,80 52,50 53,250
54,230 55,4474 56,811 57,901
58,120 65,30 67,190 68,120
69,470 70,500 71,270 72,110
73,30 77,30 79,60 81,140
82,230 83,1682 84,530 85,210
86,70 91,30 95,60 96,110
97,120 98,460 99,180 100,130
110,80 111,40 112,470 113,250
114,60 124,70 125,30 126,430
127,210 128,50 135,30 138,60
140,310 141,70 142,40 152,60
154,250 155,50 156,30 166,30
168,290 169,50 170,170 180,40
182,1181 183,160 184,9999 185,1351
186,80 194,30 196,250 197,70
198,781 199,100 210,290 211,50
212,961 213,130 224,210 225,60
226,110 238,691 239,160 240,90
250,30 252,320 253,100 254,330
255,50 256,120 266,1091 267,250
268,110 280,380 281,70 282,70
294,440 295,100 296,50 308,270
309,60 310,50 322,300 323,70
324,821 325,190 336,611 337,150
350,390 351,100 352,3964 353,1031
354,130 364,210 365,50 378,430
379,120 392,100 406,230 407,180
408,60
##END=
