##TITLE=Benzamide, N,N-didecyl-3-methoxy-
##JCAMP-DX=4.24
##DATA TYPE=MASS SPECTRUM
##ORIGIN=Zaikin V.G., TIPS RAS, Moscow, Russia
##OWNER=NIST Mass Spectrometry Data Center
Collection (C) 2014 copyright by the U.S. Secretary of Commerce
on behalf of the United States of America. All rights reserved.
##$NIST MASS SPEC NO=308156
##MOLFORM=C28 H49 N O2
##MW=431
##$NIST SOURCE=MSDC
##XUNITS=M/Z
##YUNITS=RELATIVE INTENSITY
##XFACTOR=1
##YFACTOR=1
##FIRSTX=41
##LASTX=433
##FIRSTY=40
##MAXX=433
##MINX=41
##MAXY=9999
##MINY=20
##NPOINTS=77
##PEAK TABLE=(XY..XY)
41,40 43,100 44,50 55,70
57,80 58,30 69,30 77,110
92,40 98,30 107,450 108,70
109,30 121,1782 122,160 134,20
135,9999 136,991 137,80 151,80
152,90 164,200 165,360 166,30
168,180 170,130 178,450 179,430
180,30 183,30 184,190 192,160
193,80 198,70 206,280 207,120
220,330 221,70 234,150 235,40
248,170 249,40 262,80 275,120
276,70 290,300 291,130 292,110
296,190 297,30 302,30 304,2783
305,1461 306,270 318,350 319,140
324,270 325,50 332,390 333,120
346,240 347,70 360,320 361,90
374,240 375,90 388,230 389,80
400,30 402,180 403,50 416,180
417,40 430,3723 431,4604 432,1391
433,240
##END=
