##TITLE=Phenylacetamide, N,N-didecyl-
##JCAMP-DX=4.24
##DATA TYPE=MASS SPECTRUM
##ORIGIN=Zaikin V.G., TIPS RAS, Moscow, Russia
##OWNER=NIST Mass Spectrometry Data Center
Collection (C) 2014 copyright by the U.S. Secretary of Commerce
on behalf of the United States of America. All rights reserved.
##$NIST MASS SPEC NO=308415
##MOLFORM=C28 H49 N O
##MW=415
##$NIST SOURCE=MSDC
##XUNITS=M/Z
##YUNITS=RELATIVE INTENSITY
##XFACTOR=1
##YFACTOR=1
##FIRSTX=26
##LASTX=417
##FIRSTY=70
##MAXX=417
##MINX=26
##MAXY=9999
##MINY=20
##NPOINTS=151
##PEAK TABLE=(XY..XY)
26,70 27,140 28,90 29,230
30,280 36,40 39,150 40,40
41,681 42,270 43,1792 44,1081
45,30 53,40 54,50 55,791
56,360 57,2572 58,170 63,40
65,120 67,80 68,50 69,380
70,270 71,1982 72,160 73,40
79,30 81,60 82,40 83,210
84,190 85,2282 86,210 89,110
90,160 91,2803 92,701 93,60
95,50 96,70 97,100 98,170
99,480 100,80 104,150 105,70
106,60 107,30 111,30 112,180
113,70 114,40 117,50 118,410
119,100 120,50 123,40 126,140
127,30 128,40 133,30 134,30
135,30 136,60 140,120 141,90
142,30 148,90 149,170 154,100
156,130 162,120 163,220 164,20
168,260 169,40 170,8017 171,981
172,50 176,60 177,50 182,60
184,1141 185,140 190,70 191,40
196,110 198,1021 199,130 200,230
201,30 204,130 205,30 210,50
212,140 216,330 217,60 218,80
224,30 226,100 232,60 238,40
240,210 241,30 246,80 252,40
254,110 259,30 260,60 266,20
268,60 274,250 275,270 276,250
277,40 288,711 289,530 290,100
294,30 296,540 297,130 298,40
302,220 303,60 308,40 316,470
317,120 322,80 324,9999 325,2212
326,270 330,260 331,70 344,170
345,50 358,220 359,60 370,20
372,280 373,70 386,260 387,70
400,170 401,50 413,30 414,430
415,2352 416,771 417,120
##END=
