##TITLE=2-Thiopheneacetamide, N,N-dinonyl-
##JCAMP-DX=4.24
##DATA TYPE=MASS SPECTRUM
##ORIGIN=Zaikin V.G., TIPS RAS, Moscow, Russia
##OWNER=NIST Mass Spectrometry Data Center
Collection (C) 2014 copyright by the U.S. Secretary of Commerce
on behalf of the United States of America. All rights reserved.
##$NIST MASS SPEC NO=308143
##MOLFORM=C24 H43 N O S
##MW=393
##$NIST SOURCE=MSDC
##XUNITS=M/Z
##YUNITS=RELATIVE INTENSITY
##XFACTOR=1
##YFACTOR=1
##FIRSTX=29
##LASTX=396
##FIRSTY=70
##MAXX=396
##MINX=29
##MAXY=9999
##MINY=20
##NPOINTS=56
##PEAK TABLE=(XY..XY)
29,70 30,50 41,210 42,40
43,1421 44,350 55,260 56,70
57,3273 58,140 69,190 70,50
71,5525 72,310 83,90 84,40
85,3793 86,240 97,831 98,180
99,80 111,30 112,60 124,90
126,50 127,290 140,50 142,30
154,90 156,1361 157,130 168,30
170,490 171,50 182,40 184,120
196,60 224,30 266,20 267,90
268,250 269,40 280,160 294,90
296,9999 297,2222 298,230 308,40
360,30 364,50 378,40 392,130
393,1882 394,661 395,180 396,30
##END=
