##TITLE=Benzamide, N,N-dinonyl-3-trifluoromethyl-
##JCAMP-DX=4.24
##DATA TYPE=MASS SPECTRUM
##ORIGIN=Zaikin V.G., TIPS RAS, Moscow, Russia
##OWNER=NIST Mass Spectrometry Data Center
Collection (C) 2014 copyright by the U.S. Secretary of Commerce
on behalf of the United States of America. All rights reserved.
##$NIST MASS SPEC NO=308231
##MOLFORM=C26 H42 F3 N O
##MW=441
##$NIST SOURCE=MSDC
##XUNITS=M/Z
##YUNITS=RELATIVE INTENSITY
##XFACTOR=1
##YFACTOR=1
##FIRSTX=41
##LASTX=443
##FIRSTY=80
##MAXX=443
##MINX=41
##MAXY=9999
##MINY=30
##NPOINTS=74
##PEAK TABLE=(XY..XY)
41,80 43,150 44,90 55,110
56,60 57,140 69,90 70,30
71,30 83,50 98,30 112,30
126,30 145,490 146,30 154,270
155,60 156,190 159,40 169,70
173,9999 174,841 175,40 182,40
184,200 190,180 202,300 203,290
204,70 216,2542 217,881 218,70
230,240 231,100 244,450 245,130
258,340 259,80 266,30 268,120
272,170 273,40 286,90 296,340
297,60 299,220 300,80 314,500
315,130 316,280 317,40 328,7607
329,2192 330,280 342,550 343,130
356,330 357,80 370,160 371,40
384,170 385,40 398,160 399,40
412,160 413,30 420,140 421,40
422,110 426,70 440,1081 441,1431
442,390 443,50
##END=
