##TITLE=Pentanamide, N,N-dinonyl-5-bromo-
##JCAMP-DX=4.24
##DATA TYPE=MASS SPECTRUM
##ORIGIN=Zaikin V.G., TIPS RAS, Moscow, Russia
##OWNER=NIST Mass Spectrometry Data Center
Collection (C) 2014 copyright by the U.S. Secretary of Commerce
on behalf of the United States of America. All rights reserved.
##$NIST MASS SPEC NO=308266
##MOLFORM=C23 H46 Br N O
##MW=431
##$NIST SOURCE=MSDC
##XUNITS=M/Z
##YUNITS=RELATIVE INTENSITY
##XFACTOR=1
##YFACTOR=1
##FIRSTX=28
##LASTX=434
##FIRSTY=10
##MAXX=434
##MINX=28
##MAXY=9999
##MINY=10
##NPOINTS=113
##PEAK TABLE=(XY..XY)
28,10 29,30 30,80 36,50
41,90 43,290 44,691 55,430
56,80 57,230 58,30 69,110
70,60 71,170 80,40 81,40
82,40 83,80 84,50 85,110
86,30 97,30 98,50 100,110
112,60 114,110 126,60 127,50
128,180 135,160 137,150 140,30
142,190 154,140 156,9999 157,1181
158,50 163,140 165,120 168,40
170,751 171,70 182,70 184,1351
185,170 193,30 196,30 198,430
199,50 206,30 210,50 212,340
213,30 224,30 226,661 227,80
234,40 236,40 238,80 240,510
241,70 248,40 250,50 252,40
254,120 266,50 268,490 269,120
270,70 276,40 278,30 280,50
281,110 294,80 296,7967 297,1712
298,180 304,30 306,120 308,90
310,30 318,561 319,100 320,540
321,100 322,40 324,881 325,190
332,120 334,90 338,50 346,200
348,190 350,30 351,30 352,5785
353,1511 354,200 355,30 360,110
362,110 374,100 376,110 388,90
390,90 402,100 404,100 416,30
430,80 431,140 432,140 433,130
434,60
##END=
