##TITLE=trans-Cinnamamide, N,N-didecyl-3-trifluoromethyl-
##JCAMP-DX=4.24
##DATA TYPE=MASS SPECTRUM
##ORIGIN=Zaikin V.G., TIPS RAS, Moscow, Russia
##OWNER=NIST Mass Spectrometry Data Center
Collection (C) 2014 copyright by the U.S. Secretary of Commerce
on behalf of the United States of America. All rights reserved.
##$NIST MASS SPEC NO=308078
##MOLFORM=C30 H48 F3 N O
##MW=495
##$NIST SOURCE=MSDC
##XUNITS=M/Z
##YUNITS=RELATIVE INTENSITY
##XFACTOR=1
##YFACTOR=1
##FIRSTX=28
##LASTX=497
##FIRSTY=10
##MAXX=497
##MINX=28
##MAXY=9999
##MINY=10
##NPOINTS=119
##PEAK TABLE=(XY..XY)
28,10 30,40 41,60 43,190
44,240 55,110 56,40 57,130
69,80 70,40 71,60 83,60
84,70 85,50 97,40 98,100
99,140 112,120 113,150 126,70
127,30 140,30 151,220 152,40
154,30 156,70 168,180 169,30
170,3043 171,1091 172,80 180,30
181,50 182,30 183,30 184,240
186,30 196,280 197,100 198,120
199,9999 200,1111 201,60 210,270
211,50 215,30 216,70 224,280
225,300 226,50 228,120 229,90
238,260 239,270 240,50 242,540
243,821 244,110 245,30 252,130
253,40 256,440 257,250 258,30
266,30 270,851 271,210 284,611
285,130 294,80 296,400 297,70
298,180 299,50 308,30 312,140
313,30 322,280 323,120 324,50
326,180 327,50 336,761 337,150
339,50 340,210 341,30 350,30
354,210 355,60 356,110 358,20
368,4734 369,1862 370,300 382,1471
383,380 384,50 396,1862 397,500
398,60 410,1301 411,360 412,40
424,490 425,150 438,320 439,90
452,230 453,60 466,220 467,60
476,150 477,30 480,100 494,270
495,1631 496,591 497,90
##END=
