##TITLE=Propanamide, N,N-dibutyl-3-cyclopentyl-
##JCAMP-DX=4.24
##DATA TYPE=MASS SPECTRUM
##ORIGIN=Zaikin V.G., TIPS RAS, Moscow, Russia
##OWNER=NIST Mass Spectrometry Data Center
Collection (C) 2014 copyright by the U.S. Secretary of Commerce
on behalf of the United States of America. All rights reserved.
##$NIST MASS SPEC NO=308280
##MOLFORM=C16 H31 N O
##MW=253
##$NIST SOURCE=MSDC
##XUNITS=M/Z
##YUNITS=RELATIVE INTENSITY
##XFACTOR=1
##YFACTOR=1
##FIRSTX=26
##LASTX=254
##FIRSTY=70
##MAXX=254
##MINX=26
##MAXY=9999
##MINY=10
##NPOINTS=89
##PEAK TABLE=(XY..XY)
26,70 27,230 29,701 30,430
39,250 40,60 41,1321 42,280
43,70 44,771 45,20 53,120
54,150 55,1732 56,220 57,891
58,90 60,60 65,30 66,30
67,390 68,110 69,420 70,110
72,410 73,480 74,40 77,30
78,20 79,430 80,120 81,460
82,100 83,110 84,280 86,9999
87,991 88,30 91,20 93,20
95,120 96,40 97,250 98,100
99,90 100,1061 101,90 107,530
108,70 110,20 112,110 113,10
114,951 115,621 116,90 123,20
124,20 125,240 126,70 127,30
128,5195 129,801 130,150 140,90
142,601 143,60 154,140 155,20
156,2793 157,280 158,20 166,20
168,80 169,30 170,40 171,1281
172,150 182,60 184,2432 185,290
196,80 198,20 210,190 211,30
224,140 238,60 252,60 253,110
254,20
##END=
