##TITLE=Octanamide, N-decyl-N-methyl-
##JCAMP-DX=4.24
##DATA TYPE=MASS SPECTRUM
##ORIGIN=Zaikin V.G., TIPS RAS, Moscow, Russia
##OWNER=NIST Mass Spectrometry Data Center
Collection (C) 2014 copyright by the U.S. Secretary of Commerce
on behalf of the United States of America. All rights reserved.
##$NIST MASS SPEC NO=308442
##MOLFORM=C19 H39 N O
##MW=297
##$NIST SOURCE=MSDC
##XUNITS=M/Z
##YUNITS=RELATIVE INTENSITY
##XFACTOR=1
##YFACTOR=1
##FIRSTX=25
##LASTX=298
##FIRSTY=30
##MAXX=298
##MINX=25
##MAXY=9999
##MINY=30
##NPOINTS=106
##PEAK TABLE=(XY..XY)
25,30 26,190 27,621 28,330
29,831 30,130 31,30 36,120
37,30 38,100 39,500 40,130
41,1942 42,831 43,2202 44,7927
45,350 50,30 51,40 52,30
53,130 54,120 55,1321 56,540
57,2823 58,861 59,70 60,40
65,30 67,210 68,90 69,380
70,360 71,300 72,150 73,851
74,190 77,30 79,60 81,90
82,80 83,200 84,220 85,230
86,791 87,2132 88,120 91,30
95,50 96,40 97,120 98,260
99,110 100,1011 101,591 102,40
109,110 110,30 111,80 112,130
113,70 114,1051 115,290 125,30
126,110 127,681 128,631 129,120
140,70 142,581 143,100 154,60
156,561 157,90 158,330 159,30
168,60 170,831 171,350 172,190
182,40 184,490 185,60 196,150
198,9999 199,1401 200,110 210,40
212,310 213,1001 214,140 224,30
226,2502 227,410 228,30 240,691
241,120 254,470 255,90 268,561
269,100 282,150 283,30 296,200
297,210 298,70
##END=
