##TITLE=Hexanamide, N,N-dioctyl-6-bromo-
##JCAMP-DX=4.24
##DATA TYPE=MASS SPECTRUM
##ORIGIN=Zaikin V.G., TIPS RAS, Moscow, Russia
##OWNER=NIST Mass Spectrometry Data Center
Collection (C) 2014 copyright by the U.S. Secretary of Commerce
on behalf of the United States of America. All rights reserved.
##$NIST MASS SPEC NO=308652
##MOLFORM=C22 H44 Br N O
##MW=417
##$NIST SOURCE=MSDC
##XUNITS=M/Z
##YUNITS=RELATIVE INTENSITY
##XFACTOR=1
##YFACTOR=1
##FIRSTX=25
##LASTX=419
##FIRSTY=30
##MAXX=419
##MINX=25
##MAXY=9999
##MINY=20
##NPOINTS=150
##PEAK TABLE=(XY..XY)
25,30 26,190 27,420 28,130
29,340 30,220 38,90 39,340
40,80 41,1141 42,370 43,871
44,1021 50,30 51,40 52,30
53,80 54,70 55,721 56,260
57,440 58,70 60,30 67,110
68,70 69,1281 70,290 71,220
72,80 73,120 79,110 80,120
81,110 82,150 83,50 84,160
85,40 86,90 87,130 95,30
96,40 97,90 98,140 99,50
100,120 101,50 107,70 109,70
110,40 111,130 112,200 113,60
114,190 115,50 126,160 127,50
128,290 129,40 133,30 140,350
141,70 142,9999 143,1091 144,50
149,50 151,40 154,110 155,60
156,781 157,90 168,170 169,30
170,1271 171,290 172,50 177,310
178,30 179,280 182,100 184,2192
185,350 186,30 191,30 196,100
197,30 198,550 199,80 210,80
211,20 212,450 213,70 220,40
221,30 222,40 224,50 226,430
227,70 234,30 238,80 240,781
241,140 242,50 248,40 250,30
252,50 254,120 262,90 264,80
266,90 268,5165 269,1031 270,100
276,40 278,40 280,30 282,30
283,120 294,40 296,841 297,160
304,40 306,110 308,90 310,190
311,30 318,240 319,40 320,240
321,40 324,30 332,90 334,70
338,1391 339,350 340,30 346,200
347,30 348,190 349,30 360,90
362,90 374,80 376,80 388,90
390,80 402,30 416,40 417,40
418,60 419,40
##END=
