##TITLE=Heptafluorobutanamide, N,N-diheptyl-
##JCAMP-DX=4.24
##DATA TYPE=MASS SPECTRUM
##ORIGIN=Zaikin V.G., TIPS RAS, Moscow, Russia
##OWNER=NIST Mass Spectrometry Data Center
Collection (C) 2014 copyright by the U.S. Secretary of Commerce
on behalf of the United States of America. All rights reserved.
##$NIST MASS SPEC NO=308274
##MOLFORM=C18 H30 F7 N O
##MW=409
##$NIST SOURCE=MSDC
##XUNITS=M/Z
##YUNITS=RELATIVE INTENSITY
##XFACTOR=1
##YFACTOR=1
##FIRSTX=27
##LASTX=390
##FIRSTY=30
##MAXX=390
##MINX=27
##MAXY=9999
##MINY=30
##NPOINTS=51
##PEAK TABLE=(XY..XY)
27,30 28,70 29,180 30,40
36,30 41,470 42,140 43,761
44,120 55,1561 56,270 57,1862
58,70 68,30 69,350 70,240
72,50 83,50 97,1682 98,210
126,40 128,290 142,170 156,811
157,50 169,160 170,30 210,50
212,50 214,160 222,80 226,210
227,130 228,571 240,9999 241,1571
242,140 254,60 256,50 268,170
282,30 310,160 312,821 313,80
324,3413 325,420 326,50 338,130
352,240 366,30 390,30
##END=
