##TITLE=Propanamide, N-(4-fluorophenyl)-3-phenyl-
##JCAMP-DX=4.24
##DATA TYPE=MASS SPECTRUM
##ORIGIN=Zaikin V.G., TIPS RAS, Moscow, Russia
##OWNER=NIST Mass Spectrometry Data Center
Collection (C) 2014 copyright by the U.S. Secretary of Commerce
on behalf of the United States of America. All rights reserved.
##$NIST MASS SPEC NO=308114
##MOLFORM=C15 H14 F N O
##MW=243
##$NIST SOURCE=MSDC
##XUNITS=M/Z
##YUNITS=RELATIVE INTENSITY
##XFACTOR=1
##YFACTOR=1
##FIRSTX=27
##LASTX=245
##FIRSTY=70
##MAXX=245
##MINX=27
##MAXY=9999
##MINY=20
##NPOINTS=51
##PEAK TABLE=(XY..XY)
27,70 28,40 39,100 41,30
44,100 50,50 51,160 52,40
55,50 57,80 63,80 64,30
65,330 75,70 76,30 77,500
78,200 79,310 82,30 83,290
84,190 89,60 90,40 91,2943
92,230 93,200 95,130 96,30
102,40 103,360 104,280 105,1682
106,150 109,90 110,230 111,9999
112,671 122,80 124,60 131,90
132,60 133,80 137,40 138,30
185,160 186,20 198,70 242,30
243,3533 244,601 245,50
##END=
