##TITLE=Nicotinamide, N-(2-iodo-4-methylphenyl)-
##JCAMP-DX=4.24
##DATA TYPE=MASS SPECTRUM
##ORIGIN=Zaikin V.G., TIPS RAS, Moscow, Russia
##OWNER=NIST Mass Spectrometry Data Center
Collection (C) 2014 copyright by the U.S. Secretary of Commerce
on behalf of the United States of America. All rights reserved.
##$NIST MASS SPEC NO=308110
##MOLFORM=C13 H11 I N2 O
##MW=338
##$NIST SOURCE=MSDC
##XUNITS=M/Z
##YUNITS=RELATIVE INTENSITY
##XFACTOR=1
##YFACTOR=1
##FIRSTX=27
##LASTX=340
##FIRSTY=70
##MAXX=340
##MINX=27
##MAXY=9999
##MINY=10
##NPOINTS=44
##PEAK TABLE=(XY..XY)
27,70 28,10 38,30 39,90
50,180 51,901 52,260 53,50
62,20 63,90 64,40 65,50
75,40 76,100 77,420 78,4004
79,460 89,80 90,80 103,40
104,601 105,460 106,9999 107,701
108,40 127,70 128,100 181,40
210,70 211,100 212,60 213,50
232,661 233,220 234,330 243,50
277,70 278,30 310,30 323,50
337,60 338,7907 339,1131 340,90
##END=
