##TITLE=Propanamide, N-heptyl-N-octyl-3-phenyl-
##JCAMP-DX=4.24
##DATA TYPE=MASS SPECTRUM
##ORIGIN=Zaikin V.G., TIPS RAS, Moscow, Russia
##OWNER=NIST Mass Spectrometry Data Center
Collection (C) 2014 copyright by the U.S. Secretary of Commerce
on behalf of the United States of America. All rights reserved.
##$NIST MASS SPEC NO=308218
##MOLFORM=C24 H41 N O
##MW=359
##$NIST SOURCE=MSDC
##XUNITS=M/Z
##YUNITS=RELATIVE INTENSITY
##XFACTOR=1
##YFACTOR=1
##FIRSTX=28
##LASTX=361
##FIRSTY=20
##MAXX=361
##MINX=28
##MAXY=9999
##MINY=20
##NPOINTS=115
##PEAK TABLE=(XY..XY)
28,20 29,50 30,250 36,30
41,200 42,40 43,460 44,1802
45,70 55,260 56,230 57,861
58,210 69,180 70,100 71,250
72,110 77,80 78,40 79,110
81,30 83,40 84,80 85,170
86,180 91,2302 92,160 95,30
97,50 98,90 100,280 101,40
103,110 104,420 105,2182 106,350
107,30 111,200 112,60 114,250
116,40 117,30 126,100 128,8778
129,811 130,80 131,240 132,170
133,731 134,50 140,110 141,30
142,9288 143,961 150,80 156,2282
157,220 162,70 163,581 164,50
168,40 170,1561 171,170 174,120
176,280 177,821 178,70 184,350
185,30 188,100 190,330 191,260
198,390 199,30 204,320 205,110
212,320 213,90 218,410 219,80
226,671 227,110 228,140 229,130
232,240 233,30 243,70 246,210
247,180 248,80 254,9999 255,1661
256,130 260,681 261,490 262,120
268,540 269,70 274,791 275,380
276,40 285,60 288,711 289,160
302,691 303,150 316,410 317,70
330,601 331,110 344,170 358,190
359,4474 360,1171 361,140
##END=
