##TITLE=Propanamide, N,N-dinonyl-2,2-dimethyl-
##JCAMP-DX=4.24
##DATA TYPE=MASS SPECTRUM
##ORIGIN=Zaikin V.G., TIPS RAS, Moscow, Russia
##OWNER=NIST Mass Spectrometry Data Center
Collection (C) 2014 copyright by the U.S. Secretary of Commerce
on behalf of the United States of America. All rights reserved.
##$NIST MASS SPEC NO=308131
##MOLFORM=C23 H47 N O
##MW=353
##$NIST SOURCE=MSDC
##XUNITS=M/Z
##YUNITS=RELATIVE INTENSITY
##XFACTOR=1
##YFACTOR=1
##FIRSTX=29
##LASTX=355
##FIRSTY=140
##MAXX=355
##MINX=29
##MAXY=9999
##MINY=30
##NPOINTS=70
##PEAK TABLE=(XY..XY)
29,140 30,130 41,360 42,80
43,1201 44,520 55,330 56,130
57,9999 58,460 69,240 70,110
71,4024 72,220 73,90 83,120
84,110 85,8277 86,490 87,140
98,80 100,90 101,30 102,70
112,80 114,200 115,480 116,30
126,90 127,210 128,350 129,250
140,70 142,260 143,130 154,150
156,1792 157,220 168,30 170,1541
171,190 172,40 182,90 184,1091
185,220 198,310 199,100 212,260
213,30 226,561 227,310 228,190
240,3843 241,691 242,40 254,180
268,851 269,170 282,90 296,8277
297,1641 298,170 310,170 324,90
338,270 339,50 352,160 353,591
354,240 355,30
##END=
