##TITLE=1-(Trihexylsilyloxy)decane
##JCAMP-DX=4.24
##DATA TYPE=MASS SPECTRUM
##ORIGIN=Zaikin V.G., TIPS RAS, Moscow, Russia
##OWNER=NIST Mass Spectrometry Data Center
Collection (C) 2014 copyright by the U.S. Secretary of Commerce
on behalf of the United States of America. All rights reserved.
##$NIST MASS SPEC NO=308326
##MOLFORM=C28 H60 O Si
##MW=440
##$NIST SOURCE=MSDC
##XUNITS=M/Z
##YUNITS=RELATIVE INTENSITY
##XFACTOR=1
##YFACTOR=1
##FIRSTX=26
##LASTX=358
##FIRSTY=30
##MAXX=358
##MINX=26
##MAXY=9999
##MINY=10
##NPOINTS=72
##PEAK TABLE=(XY..XY)
26,30 27,50 28,10 29,30
36,50 39,60 41,150 42,60
43,190 44,80 45,50 47,30
55,210 56,80 57,290 59,70
61,120 67,40 69,260 70,30
71,160 73,150 75,140 81,50
83,741 84,70 85,290 87,210
89,60 95,30 97,340 98,20
99,110 101,500 102,50 103,40
111,60 113,530 114,70 115,480
116,50 127,40 129,300 130,30
131,160 143,260 144,30 145,90
157,40 171,40 185,170 187,110
199,220 200,30 213,150 215,50
227,210 228,40 229,80 241,70
269,290 270,60 271,4094 272,971
273,240 274,30 320,30 353,30
355,9999 356,2863 357,781 358,120
##END=
