##TITLE=Octanamide, N,N-didecyl-
##JCAMP-DX=4.24
##DATA TYPE=MASS SPECTRUM
##ORIGIN=Zaikin V.G., TIPS RAS, Moscow, Russia
##OWNER=NIST Mass Spectrometry Data Center
Collection (C) 2014 copyright by the U.S. Secretary of Commerce
on behalf of the United States of America. All rights reserved.
##$NIST MASS SPEC NO=308448
##MOLFORM=C28 H57 N O
##MW=423
##$NIST SOURCE=MSDC
##XUNITS=M/Z
##YUNITS=RELATIVE INTENSITY
##XFACTOR=1
##YFACTOR=1
##FIRSTX=26
##LASTX=424
##FIRSTY=180
##MAXX=424
##MINX=26
##MAXY=9999
##MINY=20
##NPOINTS=144
##PEAK TABLE=(XY..XY)
26,180 27,440 28,210 29,520
30,350 36,60 37,30 38,50
39,450 40,100 41,1431 42,581
43,2092 44,1521 45,50 50,30
51,40 53,110 54,120 55,1281
56,661 57,2492 58,230 59,20
60,50 67,230 68,100 69,530
70,470 71,340 72,160 73,230
77,30 79,60 81,130 82,110
83,270 84,380 85,250 86,250
87,330 91,30 95,80 96,70
97,150 98,330 99,120 100,260
101,150 109,100 110,50 111,50
112,240 113,90 114,270 115,80
124,30 125,30 126,240 127,420
128,290 129,50 133,30 140,170
141,40 142,160 143,40 144,50
154,130 155,30 156,300 157,70
158,30 168,420 169,60 170,9999
171,1291 172,70 182,90 183,90
184,811 185,110 191,40 196,160
197,30 198,1621 199,390 200,100
210,90 212,4404 213,751 214,70
224,90 225,50 226,721 227,120
238,90 239,50 240,601 241,120
252,90 254,400 255,70 266,50
267,30 268,320 269,50 280,50
281,40 282,340 283,90 284,190
285,30 294,70 296,991 297,250
298,60 308,60 310,260 311,50
322,120 323,30 324,7677 325,1832
326,210 336,30 338,240 339,230
340,40 350,30 352,1471 353,370
354,40 366,420 367,110 380,400
381,100 394,380 395,110 408,130
409,30 422,430 423,240 424,80
##END=
