##TITLE=2,2-Dimethylpropanoic acid, 3,5-dimethylphenyl ester
##JCAMP-DX=4.24
##DATA TYPE=MASS SPECTRUM
##ORIGIN=Zaikin V.G., TIPS RAS, Moscow, Russia
##OWNER=NIST Mass Spectrometry Data Center
Collection (C) 2014 copyright by the U.S. Secretary of Commerce
on behalf of the United States of America. All rights reserved.
##$NIST MASS SPEC NO=308041
##MOLFORM=C13 H18 O2
##MW=206
##$NIST SOURCE=MSDC
##XUNITS=M/Z
##YUNITS=RELATIVE INTENSITY
##XFACTOR=1
##YFACTOR=1
##FIRSTX=27
##LASTX=207
##FIRSTY=40
##MAXX=207
##MINX=27
##MAXY=9999
##MINY=30
##NPOINTS=34
##PEAK TABLE=(XY..XY)
27,40 28,60 29,150 36,150
38,30 39,90 41,360 44,30
52,80 53,50 55,30 57,2752
58,90 65,40 77,320 78,60
79,340 81,40 85,671 91,180
93,40 105,100 107,1331 108,120
109,190 121,500 122,9999 123,891
124,290 128,180 130,30 163,130
206,2112 207,320
##END=
