##TITLE=Cyclopropanecarboxamide, N-heptyl-N-octyl-
##JCAMP-DX=4.24
##DATA TYPE=MASS SPECTRUM
##ORIGIN=Zaikin V.G., TIPS RAS, Moscow, Russia
##OWNER=NIST Mass Spectrometry Data Center
Collection (C) 2014 copyright by the U.S. Secretary of Commerce
on behalf of the United States of America. All rights reserved.
##$NIST MASS SPEC NO=308581
##MOLFORM=C19 H37 N O
##MW=295
##$NIST SOURCE=MSDC
##XUNITS=M/Z
##YUNITS=RELATIVE INTENSITY
##XFACTOR=1
##YFACTOR=1
##FIRSTX=25
##LASTX=296
##FIRSTY=90
##MAXX=296
##MINX=25
##MAXY=9999
##MINY=30
##NPOINTS=105
##PEAK TABLE=(XY..XY)
25,90 26,581 27,1151 28,500
29,1271 30,611 35,80 36,510
37,70 38,290 39,1241 40,350
41,5375 42,1231 43,2122 44,2202
45,40 50,50 51,80 52,60
53,170 54,170 55,1311 56,731
57,1231 58,200 65,40 67,170
68,340 69,9999 70,951 71,250
72,70 73,50 77,60 79,100
81,80 82,120 83,130 84,450
85,100 86,140 91,120 92,30
95,40 96,110 97,80 98,811
99,510 100,100 110,90 111,90
112,1261 113,1371 114,180 119,40
124,60 126,761 127,280 128,7206
129,611 135,30 136,50 138,80
140,711 141,290 142,6776 143,661
152,90 154,661 155,240 156,300
161,30 166,40 168,400 169,80
170,160 180,30 182,300 183,50
184,170 191,30 194,30 196,3523
197,631 198,190 210,3223 211,611
212,90 224,621 225,110 226,480
227,60 238,651 239,110 252,540
253,80 254,490 255,70 266,310
267,50 280,90 294,70 295,591
296,110
##END=
