##TITLE=Propanamide, N-heptyl-N-octyl-2-chloro-
##JCAMP-DX=4.24
##DATA TYPE=MASS SPECTRUM
##ORIGIN=Zaikin V.G., TIPS RAS, Moscow, Russia
##OWNER=NIST Mass Spectrometry Data Center
Collection (C) 2014 copyright by the U.S. Secretary of Commerce
on behalf of the United States of America. All rights reserved.
##$NIST MASS SPEC NO=308389
##MOLFORM=C18 H36 Cl N O
##MW=317
##$NIST SOURCE=MSDC
##XUNITS=M/Z
##YUNITS=RELATIVE INTENSITY
##XFACTOR=1
##YFACTOR=1
##FIRSTX=27
##LASTX=319
##FIRSTY=50
##MAXX=319
##MINX=27
##MAXY=9999
##MINY=20
##NPOINTS=128
##PEAK TABLE=(XY..XY)
27,50 28,70 29,180 30,270
36,100 41,440 42,130 43,781
44,1962 55,621 56,210 57,2192
58,140 63,430 65,130 67,30
69,561 70,280 71,871 72,100
74,40 79,40 80,90 81,50
82,100 83,120 84,130 85,80
86,170 87,20 91,130 95,40
96,30 97,180 98,160 99,80
100,210 101,20 108,80 109,30
111,80 112,140 113,70 114,110
120,220 121,70 122,360 123,20
124,80 126,350 127,50 128,3613
129,320 134,7757 135,591 136,2612
137,150 140,400 141,70 142,4334
143,410 148,30 154,230 155,50
156,1561 157,130 162,40 168,140
169,30 170,1531 171,160 172,170
176,60 178,30 180,30 182,270
183,50 184,1041 185,90 186,170
190,20 196,330 197,90 198,761
199,80 204,40 206,280 210,120
211,20 212,170 218,2462 219,290
220,1061 221,150 222,70 224,110
226,841 227,130 232,2462 233,310
234,851 235,90 238,30 240,90
246,230 248,50 252,320 253,40
254,8688 255,1501 256,90 260,180
262,60 268,360 269,50 274,80
276,30 282,9999 283,1872 284,160
288,330 289,50 290,110 302,20
316,70 317,230 318,120 319,80
##END=
