##TITLE=Benzamide, N-decyl-N-methyl-3-methoxy-
##JCAMP-DX=4.24
##DATA TYPE=MASS SPECTRUM
##ORIGIN=Zaikin V.G., TIPS RAS, Moscow, Russia
##OWNER=NIST Mass Spectrometry Data Center
Collection (C) 2014 copyright by the U.S. Secretary of Commerce
on behalf of the United States of America. All rights reserved.
##$NIST MASS SPEC NO=308150
##MOLFORM=C19 H31 N O2
##MW=305
##$NIST SOURCE=MSDC
##XUNITS=M/Z
##YUNITS=RELATIVE INTENSITY
##XFACTOR=1
##YFACTOR=1
##FIRSTX=41
##LASTX=307
##FIRSTY=60
##MAXX=307
##MINX=41
##MAXY=9999
##MINY=20
##NPOINTS=53
##PEAK TABLE=(XY..XY)
41,60 43,60 44,120 55,60
57,80 58,110 64,30 70,30
77,360 78,30 92,200 107,831
108,130 109,50 120,30 121,1161
122,110 134,50 135,9999 136,1111
137,80 148,50 150,70 152,40
164,1011 165,480 166,130 170,130
178,2432 179,1591 180,150 192,661
193,160 198,250 199,30 206,540
207,110 220,340 221,90 234,390
235,80 248,370 249,80 262,290
263,60 274,20 276,200 277,40
290,140 304,2572 305,3974 306,901
307,100
##END=
