##TITLE=Benzamide, N-ethyl-N-(3-methylphenyl)-3-trifluoromethyl-
##JCAMP-DX=4.24
##DATA TYPE=MASS SPECTRUM
##ORIGIN=Zaikin V.G., TIPS RAS, Moscow, Russia
##OWNER=NIST Mass Spectrometry Data Center
Collection (C) 2014 copyright by the U.S. Secretary of Commerce
on behalf of the United States of America. All rights reserved.
##$NIST MASS SPEC NO=308224
##MOLFORM=C17 H16 F3 N O
##MW=307
##$NIST SOURCE=MSDC
##XUNITS=M/Z
##YUNITS=RELATIVE INTENSITY
##XFACTOR=1
##YFACTOR=1
##FIRSTX=42
##LASTX=309
##FIRSTY=70
##MAXX=309
##MINX=42
##MAXY=9999
##MINY=30
##NPOINTS=35
##PEAK TABLE=(XY..XY)
42,70 65,90 77,40 91,270
92,40 95,70 108,40 118,210
119,520 120,60 125,50 126,90
132,50 133,60 134,1131 135,100
145,2873 146,210 155,40 172,691
173,9999 174,901 175,50 200,1872
201,210 215,30 279,831 280,130
288,190 292,290 293,40 306,2192
307,6456 308,1231 309,110
##END=
