##TITLE=Hexanamide, N,N-diheptyl-6-bromo-
##JCAMP-DX=4.24
##DATA TYPE=MASS SPECTRUM
##ORIGIN=Zaikin V.G., TIPS RAS, Moscow, Russia
##OWNER=NIST Mass Spectrometry Data Center
Collection (C) 2014 copyright by the U.S. Secretary of Commerce
on behalf of the United States of America. All rights reserved.
##$NIST MASS SPEC NO=308651
##MOLFORM=C20 H40 Br N O
##MW=389
##$NIST SOURCE=MSDC
##XUNITS=M/Z
##YUNITS=RELATIVE INTENSITY
##XFACTOR=1
##YFACTOR=1
##FIRSTX=25
##LASTX=390
##FIRSTY=50
##MAXX=390
##MINX=25
##MAXY=9999
##MINY=20
##NPOINTS=125
##PEAK TABLE=(XY..XY)
25,50 26,370 27,981 28,340
29,851 30,480 37,70 38,170
39,901 40,210 41,2762 42,1021
43,1822 44,2092 45,60 50,80
51,100 52,60 53,220 54,180
55,1722 56,631 57,1421 58,210
60,70 65,40 66,20 67,230
68,160 69,2542 70,561 71,150
72,190 73,220 77,30 79,210
80,250 81,200 82,310 83,80
84,380 85,120 86,240 87,320
95,50 96,80 97,200 98,290
99,120 100,260 101,120 107,120
109,110 110,30 111,120 112,220
113,80 114,350 115,70 126,380
127,90 128,9999 129,961 130,30
140,130 141,90 142,841 143,80
149,40 151,40 154,160 155,40
156,1111 157,260 158,40 168,80
170,1762 171,280 177,280 179,270
182,110 183,40 184,440 185,60
196,80 198,390 199,50 210,50
212,550 213,90 214,40 224,50
226,290 227,30 238,60 240,3483
241,601 242,50 248,30 250,30
252,30 254,30 255,100 262,60
264,60 266,30 268,631 269,110
282,150 292,70 294,40 304,160
305,30 306,150 310,991 311,220
318,60 320,60 332,130 334,120
346,60 348,60 360,40 362,40
390,30
##END=
