##TITLE=Benzamide, N,N-diundecyl-2-trifluoromethyl-
##JCAMP-DX=4.24
##DATA TYPE=MASS SPECTRUM
##ORIGIN=Zaikin V.G., TIPS RAS, Moscow, Russia
##OWNER=NIST Mass Spectrometry Data Center
Collection (C) 2014 copyright by the U.S. Secretary of Commerce
on behalf of the United States of America. All rights reserved.
##$NIST MASS SPEC NO=308541
##MOLFORM=C30 H50 F3 N O
##MW=497
##$NIST SOURCE=MSDC
##XUNITS=M/Z
##YUNITS=RELATIVE INTENSITY
##XFACTOR=1
##YFACTOR=1
##FIRSTX=26
##LASTX=499
##FIRSTY=50
##MAXX=499
##MINX=26
##MAXY=9999
##MINY=20
##NPOINTS=128
##PEAK TABLE=(XY..XY)
26,50 27,100 28,40 29,110
30,30 39,120 40,30 41,390
42,180 43,420 44,130 50,30
51,20 53,30 54,40 55,370
56,200 57,270 67,70 68,40
69,200 70,150 71,80 75,30
77,30 81,50 82,30 83,90
84,120 85,50 95,50 96,50
97,60 98,50 105,30 111,30
112,40 125,30 126,80 127,50
130,110 134,30 140,30 145,751
146,160 148,110 150,40 154,70
155,30 162,50 170,130 172,50
173,9999 174,781 175,50 182,180
183,50 184,40 190,80 196,70
197,50 202,180 203,150 204,40
210,30 214,30 216,841 217,470
218,60 230,200 231,70 244,140
245,40 258,200 259,40 272,140
273,30 274,30 286,110 287,30
288,300 289,60 300,100 301,30
302,70 314,90 316,50 324,70
328,60 330,30 336,30 342,100
343,30 344,140 345,30 354,30
356,1191 357,591 358,150 370,300
371,80 372,30 384,310 385,80
398,190 399,50 412,180 413,50
426,160 427,50 428,1972 429,641
430,100 440,150 441,40 454,130
455,40 468,110 469,30 476,60
477,40 478,110 479,30 482,40
496,921 497,721 498,220 499,30
##END=
