##TITLE=Benzamide, N,N-didecyl-3-fluoro-
##JCAMP-DX=4.24
##DATA TYPE=MASS SPECTRUM
##ORIGIN=Zaikin V.G., TIPS RAS, Moscow, Russia
##OWNER=NIST Mass Spectrometry Data Center
Collection (C) 2014 copyright by the U.S. Secretary of Commerce
on behalf of the United States of America. All rights reserved.
##$NIST MASS SPEC NO=308403
##MOLFORM=C27 H46 F N O
##MW=419
##$NIST SOURCE=MSDC
##XUNITS=M/Z
##YUNITS=RELATIVE INTENSITY
##XFACTOR=1
##YFACTOR=1
##FIRSTX=27
##LASTX=421
##FIRSTY=50
##MAXX=421
##MINX=27
##MAXY=9999
##MINY=30
##NPOINTS=83
##PEAK TABLE=(XY..XY)
27,50 28,30 29,70 30,40
39,40 41,200 42,100 43,290
44,110 55,220 56,110 57,170
69,100 70,80 71,40 83,50
84,70 85,30 95,480 96,90
97,30 98,40 109,140 112,30
122,30 123,9999 124,661 125,40
126,30 140,130 152,210 153,220
154,40 164,40 166,791 167,390
168,190 170,120 180,150 181,60
192,30 194,240 195,70 196,40
198,80 206,30 208,240 209,50
222,110 223,30 236,90 250,60
263,90 264,50 278,290 279,80
280,190 290,40 292,4104 293,1161
294,200 296,90 306,350 307,90
320,270 321,70 324,190 325,40
334,140 335,40 348,160 349,40
362,140 363,40 376,140 377,40
390,120 391,30 404,60 418,1391
419,1541 420,460 421,70
##END=
