##TITLE=Propanamide, N-decyl-N-methyl-3-chloro-
##JCAMP-DX=4.24
##DATA TYPE=MASS SPECTRUM
##ORIGIN=Zaikin V.G., TIPS RAS, Moscow, Russia
##OWNER=NIST Mass Spectrometry Data Center
Collection (C) 2014 copyright by the U.S. Secretary of Commerce
on behalf of the United States of America. All rights reserved.
##$NIST MASS SPEC NO=308503
##MOLFORM=C14 H28 Cl N O
##MW=261
##$NIST SOURCE=MSDC
##XUNITS=M/Z
##YUNITS=RELATIVE INTENSITY
##XFACTOR=1
##YFACTOR=1
##FIRSTX=26
##LASTX=262
##FIRSTY=130
##MAXX=262
##MINX=26
##MAXY=9999
##MINY=20
##NPOINTS=93
##PEAK TABLE=(XY..XY)
26,130 27,510 28,150 29,380
30,40 36,70 38,40 39,260
40,70 41,1071 42,671 43,921
44,9999 45,280 53,90 54,90
55,821 56,350 57,591 58,751
59,110 63,1031 64,30 65,330
67,90 68,90 69,280 70,340
71,150 72,110 73,40 81,30
82,20 83,100 84,120 85,100
86,731 87,50 91,711 93,230
97,40 98,601 99,190 100,1752
101,130 104,30 112,150 113,50
114,430 115,30 121,40 122,601
123,40 124,190 126,170 128,130
134,3453 135,1491 136,1161 137,490
140,70 148,691 149,60 150,210
154,50 156,140 162,480 163,50
164,140 170,310 171,40 172,20
176,130 178,40 184,30 190,110
192,30 198,3023 199,430 200,30
204,150 206,40 218,150 220,40
225,40 226,4154 227,671 228,50
232,80 246,30 260,30 261,50
262,40
##END=
