##TITLE=(Phenylthio)acetic acid, phenylmethyl ester
##JCAMP-DX=4.24
##DATA TYPE=MASS SPECTRUM
##ORIGIN=Zaikin V.G., TIPS RAS, Moscow, Russia
##OWNER=NIST Mass Spectrometry Data Center
Collection (C) 2014 copyright by the U.S. Secretary of Commerce
on behalf of the United States of America. All rights reserved.
##$NIST MASS SPEC NO=308338
##MOLFORM=C15 H14 O2 S
##MW=258
##$NIST SOURCE=MSDC
##XUNITS=M/Z
##YUNITS=RELATIVE INTENSITY
##XFACTOR=1
##YFACTOR=1
##FIRSTX=26
##LASTX=261
##FIRSTY=40
##MAXX=261
##MINX=26
##MAXY=9999
##MINY=10
##NPOINTS=57
##PEAK TABLE=(XY..XY)
26,40 27,30 28,10 38,30
39,320 41,60 42,40 44,120
45,1431 46,70 47,60 50,170
51,581 52,100 62,30 63,160
64,50 65,1031 66,140 69,150
74,50 75,40 76,60 77,1071
78,310 79,390 82,40 84,40
89,210 90,170 91,7827 92,601
97,30 104,30 105,340 106,130
107,90 108,160 109,921 110,651
111,80 121,290 122,120 123,9999
124,781 125,450 126,30 148,40
165,40 166,40 184,30 197,40
199,60 258,6416 259,1021 260,380
261,50
##END=
