##TITLE=Cyclohexanecarboxamide, N-heptyl-N-octyl-
##JCAMP-DX=4.24
##DATA TYPE=MASS SPECTRUM
##ORIGIN=Zaikin V.G., TIPS RAS, Moscow, Russia
##OWNER=NIST Mass Spectrometry Data Center
Collection (C) 2014 copyright by the U.S. Secretary of Commerce
on behalf of the United States of America. All rights reserved.
##$NIST MASS SPEC NO=308525
##MOLFORM=C22 H43 N O
##MW=337
##$NIST SOURCE=MSDC
##XUNITS=M/Z
##YUNITS=RELATIVE INTENSITY
##XFACTOR=1
##YFACTOR=1
##FIRSTX=25
##LASTX=339
##FIRSTY=40
##MAXX=339
##MINX=25
##MAXY=9999
##MINY=30
##NPOINTS=133
##PEAK TABLE=(XY..XY)
25,40 26,300 27,601 28,260
29,661 30,350 37,40 38,80
39,641 40,190 41,2282 42,781
43,1672 44,1371 45,40 50,70
51,80 52,60 53,280 54,420
55,3613 56,821 57,1992 58,280
65,70 66,50 67,821 68,230
69,510 70,530 71,581 72,190
73,150 77,90 78,40 79,200
80,70 81,500 82,260 83,9999
84,1161 85,170 86,260 87,190
91,40 93,40 95,90 96,50
97,60 98,350 99,150 100,440
101,90 108,30 109,170 110,310
111,1792 112,430 113,110 114,360
115,60 124,60 126,400 127,80
128,9519 129,921 130,50 138,50
140,450 141,420 142,9969 143,1071
144,50 152,70 153,40 154,480
155,591 156,1862 157,230 166,40
168,430 169,190 170,1561 171,210
180,50 182,390 183,140 184,1021
185,130 194,50 196,701 197,170
198,641 199,80 210,410 211,90
212,390 213,50 222,30 224,410
225,320 226,891 227,170 228,90
236,40 238,540 239,520 240,230
250,30 252,540 253,260 254,7006
255,1291 256,130 266,661 267,130
280,741 281,40 282,2252 283,460
284,40 294,550 295,140 296,310
297,50 308,500 309,120 322,380
323,80 336,290 337,1101 338,300
339,40
##END=
