##TITLE=Benzamide, N,N-bis(2-ethylhexyl)-4-ethyl-
##JCAMP-DX=4.24
##DATA TYPE=MASS SPECTRUM
##ORIGIN=Zaikin V.G., TIPS RAS, Moscow, Russia
##OWNER=NIST Mass Spectrometry Data Center
Collection (C) 2014 copyright by the U.S. Secretary of Commerce
on behalf of the United States of America. All rights reserved.
##$NIST MASS SPEC NO=308547
##MOLFORM=C25 H43 N O
##MW=373
##$NIST SOURCE=MSDC
##XUNITS=M/Z
##YUNITS=RELATIVE INTENSITY
##XFACTOR=1
##YFACTOR=1
##FIRSTX=26
##LASTX=374
##FIRSTY=30
##MAXX=374
##MINX=26
##MAXY=9999
##MINY=20
##NPOINTS=63
##PEAK TABLE=(XY..XY)
26,30 27,80 28,30 29,90
39,90 41,290 42,120 43,250
44,140 50,30 51,40 53,30
55,180 56,100 57,270 69,70
70,90 71,50 77,190 78,50
79,290 84,50 89,30 90,50
91,80 103,210 104,140 105,581
106,60 112,60 118,40 119,60
131,70 132,100 133,9999 134,941
135,100 140,60 149,130 150,130
162,200 163,250 164,30 167,30
176,210 177,80 191,50 204,100
205,50 218,30 232,120 245,50
246,30 260,20 261,30 262,50
274,2002 275,420 276,40 344,30
372,40 373,130 374,30
##END=
