##TITLE=Methanesulfonamide, N,N-diheptyl-
##JCAMP-DX=4.24
##DATA TYPE=MASS SPECTRUM
##ORIGIN=Zaikin V.G., TIPS RAS, Moscow, Russia
##OWNER=NIST Mass Spectrometry Data Center
Collection (C) 2014 copyright by the U.S. Secretary of Commerce
on behalf of the United States of America. All rights reserved.
##$NIST MASS SPEC NO=308432
##MOLFORM=C15 H33 N O2 S
##MW=291
##$NIST SOURCE=MSDC
##XUNITS=M/Z
##YUNITS=RELATIVE INTENSITY
##XFACTOR=1
##YFACTOR=1
##FIRSTX=26
##LASTX=291
##FIRSTY=60
##MAXX=291
##MINX=26
##MAXY=9999
##MINY=20
##NPOINTS=59
##PEAK TABLE=(XY..XY)
26,60 27,160 28,90 29,220
30,250 36,120 38,30 39,160
40,40 41,671 42,380 43,641
44,500 48,40 52,20 53,50
54,50 55,611 56,280 57,991
58,80 64,100 67,60 68,60
69,160 70,180 71,50 79,150
81,30 82,40 83,80 84,460
85,50 96,90 97,360 98,240
108,681 110,210 112,50 114,30
122,9999 123,450 124,500 126,270
127,100 128,180 148,40 154,130
156,150 162,60 168,70 182,30
194,260 206,3783 207,390 208,190
212,220 213,30 291,90
##END=
