##TITLE=Benzamide, N,N-diundecyl-4-chloro-
##JCAMP-DX=4.24
##DATA TYPE=MASS SPECTRUM
##ORIGIN=Zaikin V.G., TIPS RAS, Moscow, Russia
##OWNER=NIST Mass Spectrometry Data Center
Collection (C) 2014 copyright by the U.S. Secretary of Commerce
on behalf of the United States of America. All rights reserved.
##$NIST MASS SPEC NO=308595
##MOLFORM=C29 H50 Cl N O
##MW=463
##$NIST SOURCE=MSDC
##XUNITS=M/Z
##YUNITS=RELATIVE INTENSITY
##XFACTOR=1
##YFACTOR=1
##FIRSTX=26
##LASTX=466
##FIRSTY=130
##MAXX=466
##MINX=26
##MAXY=9999
##MINY=20
##NPOINTS=106
##PEAK TABLE=(XY..XY)
26,130 27,350 28,150 29,390
30,70 36,80 37,40 38,90
39,370 41,1001 42,310 43,1121
44,460 50,60 51,60 53,90
54,60 55,651 56,360 57,631
58,30 67,110 68,80 69,320
70,240 71,180 74,30 75,60
76,100 77,60 79,60 81,100
82,40 83,90 84,170 85,80
91,40 93,40 94,30 95,90
97,130 98,60 104,150 105,200
106,40 111,571 112,140 113,170
125,110 133,60 137,20 138,20
139,9999 140,851 141,3433 142,220
147,120 156,60 168,180 169,150
170,30 171,30 182,581 183,240
184,360 185,60 192,40 194,30
196,150 210,200 211,40 212,70
224,150 226,40 238,80 252,30
266,60 267,50 280,40 281,190
282,80 293,50 308,40 310,110
311,30 322,2803 323,871 324,1021
325,230 336,220 337,30 338,30
342,30 350,170 352,200 364,80
378,80 392,60 406,90 420,50
422,20 462,1271 463,1041 464,671
465,290 466,40
##END=
