##TITLE=But-2-enamide, N-decyl-N-methyl-3-methyl-
##JCAMP-DX=4.24
##DATA TYPE=MASS SPECTRUM
##ORIGIN=Zaikin V.G., TIPS RAS, Moscow, Russia
##OWNER=NIST Mass Spectrometry Data Center
Collection (C) 2014 copyright by the U.S. Secretary of Commerce
on behalf of the United States of America. All rights reserved.
##$NIST MASS SPEC NO=308238
##MOLFORM=C16 H31 N O
##MW=253
##$NIST SOURCE=MSDC
##XUNITS=M/Z
##YUNITS=RELATIVE INTENSITY
##XFACTOR=1
##YFACTOR=1
##FIRSTX=29
##LASTX=255
##FIRSTY=110
##MAXX=255
##MINX=29
##MAXY=9999
##MINY=20
##NPOINTS=56
##PEAK TABLE=(XY..XY)
29,110 36,40 39,50 41,110
42,60 43,130 44,1201 45,30
53,40 55,671 56,60 57,130
58,300 69,60 70,60 71,30
82,200 83,9999 84,611 85,60
98,380 99,40 100,30 112,901
113,430 114,160 126,3213 127,1742
128,160 140,871 141,170 142,20
154,991 155,130 156,40 168,480
169,80 170,270 171,50 172,50
182,460 183,70 196,410 197,70
198,701 199,90 210,350 211,100
224,190 238,2252 239,380 240,30
252,170 253,2772 254,641 255,60
##END=
