##TITLE=Benzamide, N,N-dihexyl-4-butyl-
##JCAMP-DX=4.24
##DATA TYPE=MASS SPECTRUM
##ORIGIN=Zaikin V.G., TIPS RAS, Moscow, Russia
##OWNER=NIST Mass Spectrometry Data Center
Collection (C) 2014 copyright by the U.S. Secretary of Commerce
on behalf of the United States of America. All rights reserved.
##$NIST MASS SPEC NO=308568
##MOLFORM=C23 H39 N O
##MW=345
##$NIST SOURCE=MSDC
##XUNITS=M/Z
##YUNITS=RELATIVE INTENSITY
##XFACTOR=1
##YFACTOR=1
##FIRSTX=26
##LASTX=347
##FIRSTY=40
##MAXX=347
##MINX=26
##MAXY=9999
##MINY=20
##NPOINTS=79
##PEAK TABLE=(XY..XY)
26,40 27,110 28,30 29,90
39,80 41,220 42,140 43,260
44,60 55,130 56,60 57,50
65,50 70,40 77,70 78,30
79,30 84,40 89,60 90,280
91,831 92,90 103,80 104,80
105,140 112,100 114,50 115,50
116,30 117,50 118,540 119,100
127,20 128,90 131,150 132,50
133,90 134,40 147,30 148,30
159,90 160,50 161,9999 162,1001
163,80 178,30 184,60 190,180
191,170 202,30 204,410 205,240
206,30 212,40 218,210 219,80
232,150 233,30 245,40 246,90
260,170 261,50 262,30 272,40
274,1111 275,350 276,50 288,160
289,40 302,270 303,70 316,130
317,30 330,40 335,40 344,1431
345,1221 346,300 347,40
##END=
