##TITLE=Acetoxyacetic acid, 2-(1-adamantyl)ethyl ester
##JCAMP-DX=4.24
##DATA TYPE=MASS SPECTRUM
##ORIGIN=Zaikin V.G., TIPS RAS, Moscow, Russia
##OWNER=NIST Mass Spectrometry Data Center
Collection (C) 2014 copyright by the U.S. Secretary of Commerce
on behalf of the United States of America. All rights reserved.
##$NIST MASS SPEC NO=308317
##MOLFORM=C16 H24 O4
##MW=280
##$NIST SOURCE=MSDC
##XUNITS=M/Z
##YUNITS=RELATIVE INTENSITY
##XFACTOR=1
##YFACTOR=1
##FIRSTX=27
##LASTX=262
##FIRSTY=30
##MAXX=262
##MINX=27
##MAXY=9999
##MINY=10
##NPOINTS=53
##PEAK TABLE=(XY..XY)
27,30 28,10 29,30 39,60
41,190 42,30 43,701 44,40
53,70 55,160 56,30 65,50
66,30 67,300 69,90 73,110
77,200 78,90 79,801 80,150
81,290 84,30 91,390 92,300
93,871 94,140 95,80 101,60
104,40 105,400 106,220 107,490
108,60 117,30 119,210 120,120
121,90 133,120 134,100 135,9999
136,1001 137,50 147,60 161,50
162,1832 163,490 164,40 179,30
202,50 207,2012 208,280 220,70
262,50
##END=
