##TITLE=Benzamide, N,N-dibutyl-4-chloro-
##JCAMP-DX=4.24
##DATA TYPE=MASS SPECTRUM
##ORIGIN=Zaikin V.G., TIPS RAS, Moscow, Russia
##OWNER=NIST Mass Spectrometry Data Center
Collection (C) 2014 copyright by the U.S. Secretary of Commerce
on behalf of the United States of America. All rights reserved.
##$NIST MASS SPEC NO=308586
##MOLFORM=C15 H22 Cl N O
##MW=267
##$NIST SOURCE=MSDC
##XUNITS=M/Z
##YUNITS=RELATIVE INTENSITY
##XFACTOR=1
##YFACTOR=1
##FIRSTX=26
##LASTX=269
##FIRSTY=140
##MAXX=269
##MINX=26
##MAXY=9999
##MINY=30
##NPOINTS=77
##PEAK TABLE=(XY..XY)
26,140 27,340 28,170 29,440
30,90 35,40 36,190 37,50
38,110 39,220 40,100 41,500
42,390 43,240 44,340 50,240
51,140 53,40 54,40 55,160
56,130 57,180 63,30 69,30
70,60 73,40 74,110 75,671
76,320 77,160 78,30 84,180
85,80 86,60 91,40 99,40
102,30 103,40 104,250 105,80
110,40 111,2082 112,200 113,701
114,110 125,80 127,40 137,60
138,70 139,9999 140,821 141,3393
142,240 155,50 156,90 157,30
158,30 168,310 169,250 170,110
171,70 182,400 183,170 184,120
185,50 195,30 210,100 212,30
224,1161 225,270 226,370 227,70
238,60 266,440 267,520 268,220
269,170
##END=
