##TITLE=Propanamide, N-(2-iodo-4-methylphenyl)-3-phenyl-
##JCAMP-DX=4.24
##DATA TYPE=MASS SPECTRUM
##ORIGIN=Zaikin V.G., TIPS RAS, Moscow, Russia
##OWNER=NIST Mass Spectrometry Data Center
Collection (C) 2014 copyright by the U.S. Secretary of Commerce
on behalf of the United States of America. All rights reserved.
##$NIST MASS SPEC NO=308121
##MOLFORM=C16 H16 I N O
##MW=365
##$NIST SOURCE=MSDC
##XUNITS=M/Z
##YUNITS=RELATIVE INTENSITY
##XFACTOR=1
##YFACTOR=1
##FIRSTX=27
##LASTX=367
##FIRSTY=60
##MAXX=367
##MINX=27
##MAXY=9999
##MINY=20
##NPOINTS=56
##PEAK TABLE=(XY..XY)
27,60 28,30 39,90 41,30
44,110 50,60 51,190 52,100
53,40 55,40 63,80 64,30
65,220 76,60 77,671 78,390
79,510 80,40 89,120 90,150
91,2442 92,210 93,220 102,50
103,330 104,631 105,1812 106,851
107,220 108,60 117,30 118,40
119,70 127,50 128,80 131,90
132,90 133,100 135,30 147,60
171,40 199,50 231,50 232,270
233,9999 234,791 238,50 239,50
240,20 259,40 260,30 306,30
307,100 365,5015 366,911 367,80
##END=
