##TITLE=1-Naphthoic acid, tridec-2-ynyl ester
##JCAMP-DX=4.24
##DATA TYPE=MASS SPECTRUM
##ORIGIN=Zaikin V.G., TIPS RAS, Moscow, Russia
##OWNER=NIST Mass Spectrometry Data Center
Collection (C) 2014 copyright by the U.S. Secretary of Commerce
on behalf of the United States of America. All rights reserved.
##$NIST MASS SPEC NO=308827
##MOLFORM=C24 H30 O2
##MW=350
##$NIST SOURCE=MSDC
##XUNITS=M/Z
##YUNITS=RELATIVE INTENSITY
##XFACTOR=1
##YFACTOR=1
##FIRSTX=27
##LASTX=223
##FIRSTY=40
##MAXX=223
##MINX=27
##MAXY=9999
##MINY=20
##NPOINTS=38
##PEAK TABLE=(XY..XY)
27,40 29,80 39,40 41,190
42,30 43,170 52,30 53,70
55,140 57,40 65,30 67,100
69,40 77,80 79,120 81,70
91,50 93,60 94,20 95,50
126,60 127,791 128,230 129,70
141,30 155,9999 156,1041 157,70
165,100 166,30 167,30 172,280
173,60 178,60 179,120 180,30
181,30 223,40
##END=
