##TITLE=Phenylthioacetamide, N,N-bis(2-ethylhexyl)-
##JCAMP-DX=4.24
##DATA TYPE=MASS SPECTRUM
##ORIGIN=Zaikin V.G., TIPS RAS, Moscow, Russia
##OWNER=NIST Mass Spectrometry Data Center
Collection (C) 2014 copyright by the U.S. Secretary of Commerce
on behalf of the United States of America. All rights reserved.
##$NIST MASS SPEC NO=308162
##MOLFORM=C24 H41 N O S
##MW=391
##$NIST SOURCE=MSDC
##XUNITS=M/Z
##YUNITS=RELATIVE INTENSITY
##XFACTOR=1
##YFACTOR=1
##FIRSTX=28
##LASTX=393
##FIRSTY=20
##MAXX=393
##MINX=28
##MAXY=9999
##MINY=20
##NPOINTS=95
##PEAK TABLE=(XY..XY)
28,20 29,50 30,220 36,50
41,180 42,70 43,571 44,1231
45,220 55,210 56,50 57,1641
58,100 69,280 70,120 71,1692
72,220 73,30 77,50 79,30
83,30 84,80 85,40 86,90
91,80 93,30 96,40 98,40
105,70 106,120 109,90 110,130
111,30 112,100 113,701 114,70
121,50 122,30 123,1521 124,1101
125,120 126,80 128,150 130,80
135,60 140,190 142,9999 143,951
150,30 152,40 154,120 156,2062
157,210 165,30 167,1932 168,290
169,90 170,1011 171,110 180,110
181,50 182,40 184,821 185,80
194,280 206,150 212,140 232,540
233,80 240,440 241,60 246,340
247,50 250,30 254,140 268,4324
269,841 270,70 279,220 280,230
282,4234 283,871 284,70 292,3083
293,711 294,190 334,30 348,80
358,310 359,60 362,80 390,50
391,1882 392,641 393,150
##END=
