##TITLE=Phenylthioacetamide, N-(2-fluorophenyl)-
##JCAMP-DX=4.24
##DATA TYPE=MASS SPECTRUM
##ORIGIN=Zaikin V.G., TIPS RAS, Moscow, Russia
##OWNER=NIST Mass Spectrometry Data Center
Collection (C) 2014 copyright by the U.S. Secretary of Commerce
on behalf of the United States of America. All rights reserved.
##$NIST MASS SPEC NO=308158
##MOLFORM=C14 H12 F N O S
##MW=261
##$NIST SOURCE=MSDC
##XUNITS=M/Z
##YUNITS=RELATIVE INTENSITY
##XFACTOR=1
##YFACTOR=1
##FIRSTX=39
##LASTX=264
##FIRSTY=110
##MAXX=264
##MINX=39
##MAXY=9999
##MINY=20
##NPOINTS=56
##PEAK TABLE=(XY..XY)
39,110 45,1822 46,40 47,70
50,20 51,280 57,90 63,40
64,30 65,320 66,40 69,70
75,60 77,1081 78,561 79,360
82,40 83,771 84,110 90,90
91,691 92,40 93,300 94,50
95,100 96,30 97,30 105,1651
106,110 108,110 109,671 110,611
111,7677 112,550 121,681 122,1081
123,3813 124,3493 125,390 126,70
131,90 135,90 136,110 137,30
138,200 142,210 150,3513 151,340
152,160 187,550 188,50 219,40
261,9999 262,1692 263,571 264,60
##END=
