##TITLE=Propanamide, N-decyl-N-methyl-2-methyl-
##JCAMP-DX=4.24
##DATA TYPE=MASS SPECTRUM
##ORIGIN=Zaikin V.G., TIPS RAS, Moscow, Russia
##OWNER=NIST Mass Spectrometry Data Center
Collection (C) 2014 copyright by the U.S. Secretary of Commerce
on behalf of the United States of America. All rights reserved.
##$NIST MASS SPEC NO=308083
##MOLFORM=C15 H31 N O
##MW=241
##$NIST SOURCE=MSDC
##XUNITS=M/Z
##YUNITS=RELATIVE INTENSITY
##XFACTOR=1
##YFACTOR=1
##FIRSTX=28
##LASTX=242
##FIRSTY=78
##MAXX=242
##MINX=28
##MAXY=9999
##MINY=59
##NPOINTS=40
##PEAK TABLE=(XY..XY)
28,78 29,196 36,294 41,843
42,255 43,5588 44,59 45,392
55,549 57,1706 58,1451 69,98
70,137 71,4156 72,333 73,1804
85,647 86,1235 87,1333 100,706
101,451 102,843 114,5999 115,3921
116,137 123,59 128,1314 129,255
142,1392 143,157 152,78 156,725
170,902 184,510 198,9999 199,1216
212,373 226,137 241,1431 242,98
##END=
