##TITLE=Dichloroacetamide, N-(2-fluorophenyl)-
##JCAMP-DX=4.24
##DATA TYPE=MASS SPECTRUM
##ORIGIN=Zaikin V.G., TIPS RAS, Moscow, Russia
##OWNER=NIST Mass Spectrometry Data Center
Collection (C) 2014 copyright by the U.S. Secretary of Commerce
on behalf of the United States of America. All rights reserved.
##$NIST MASS SPEC NO=308631
##MOLFORM=C8 H6 Cl2 F N O
##MW=221
##$NIST SOURCE=MSDC
##XUNITS=M/Z
##YUNITS=RELATIVE INTENSITY
##XFACTOR=1
##YFACTOR=1
##FIRSTX=25
##LASTX=225
##FIRSTY=30
##MAXX=225
##MINX=25
##MAXY=9999
##MINY=30
##NPOINTS=107
##PEAK TABLE=(XY..XY)
25,30 26,210 27,290 28,50
29,180 31,160 33,50 35,540
36,2362 37,310 38,1011 39,480
40,80 41,190 42,140 43,180
44,881 45,200 47,200 48,681
49,380 50,581 51,450 52,390
53,60 55,50 56,170 57,1391
58,90 61,130 62,220 63,530
64,260 65,170 68,130 69,200
70,130 73,60 74,230 75,931
76,581 77,150 78,160 79,350
80,110 81,420 82,691 83,3863
84,711 85,490 86,290 87,80
88,30 89,130 90,1241 91,290
92,80 93,100 94,210 95,721
96,180 100,40 102,190 105,30
107,50 108,90 109,420 110,5215
111,2923 112,220 113,130 118,240
119,30 120,150 121,130 122,581
123,80 130,40 133,40 135,250
137,290 138,9999 139,891 140,50
142,90 143,140 145,40 150,390
151,40 155,40 156,80 157,40
158,460 159,40 160,130 183,120
185,130 186,70 187,50 191,30
200,110 202,110 221,2562 222,220
223,1661 224,140 225,260
##END=
