##TITLE=Acetoxyacetamide, N,N-dibutyl-
##JCAMP-DX=4.24
##DATA TYPE=MASS SPECTRUM
##ORIGIN=Zaikin V.G., TIPS RAS, Moscow, Russia
##OWNER=NIST Mass Spectrometry Data Center
Collection (C) 2014 copyright by the U.S. Secretary of Commerce
on behalf of the United States of America. All rights reserved.
##$NIST MASS SPEC NO=308291
##MOLFORM=C12 H23 N O3
##MW=229
##$NIST SOURCE=MSDC
##XUNITS=M/Z
##YUNITS=RELATIVE INTENSITY
##XFACTOR=1
##YFACTOR=1
##FIRSTX=27
##LASTX=230
##FIRSTY=100
##MAXX=230
##MINX=27
##MAXY=9999
##MINY=10
##NPOINTS=61
##PEAK TABLE=(XY..XY)
27,100 29,500 30,230 39,80
41,661 42,230 43,611 44,370
53,20 54,20 55,190 56,170
57,2352 58,120 69,30 70,120
71,160 72,110 73,1081 74,110
84,711 85,230 86,9999 87,611
88,40 89,30 98,200 99,170
100,1441 101,2212 102,140 103,20
112,300 113,40 114,210 115,10
126,1071 127,500 128,290 129,20
130,100 131,160 140,420 141,50
142,20 144,170 145,30 154,100
156,3193 157,330 158,80 169,80
170,30 172,60 186,1141 187,350
188,40 200,30 214,30 229,140
230,50
##END=
