##TITLE=(Phenylthio)acetic acid, (4-chlorophenyl)methyl ester
##JCAMP-DX=4.24
##DATA TYPE=MASS SPECTRUM
##ORIGIN=Zaikin V.G., TIPS RAS, Moscow, Russia
##OWNER=NIST Mass Spectrometry Data Center
Collection (C) 2014 copyright by the U.S. Secretary of Commerce
on behalf of the United States of America. All rights reserved.
##$NIST MASS SPEC NO=308340
##MOLFORM=C15 H13 Cl O2 S
##MW=292
##$NIST SOURCE=MSDC
##XUNITS=M/Z
##YUNITS=RELATIVE INTENSITY
##XFACTOR=1
##YFACTOR=1
##FIRSTX=26
##LASTX=296
##FIRSTY=30
##MAXX=296
##MINX=26
##MAXY=9999
##MINY=20
##NPOINTS=61
##PEAK TABLE=(XY..XY)
26,30 28,20 39,210 42,40
43,30 44,130 45,1261 46,70
47,60 50,170 51,450 52,50
62,40 63,220 64,50 65,430
66,100 69,150 73,60 74,60
75,170 76,70 77,841 78,220
79,250 82,40 84,40 89,671
90,300 91,210 97,40 99,220
101,70 105,30 108,130 109,991
110,611 111,290 112,80 113,90
121,280 122,120 123,9999 124,851
125,8307 126,651 127,2342 128,190
139,270 140,140 141,150 142,60
146,30 165,40 184,30 197,40
292,4854 293,791 294,1752 295,290
296,90
##END=
