##TITLE=Benzamide, N-decyl-N-methyl-4-bromo-
##JCAMP-DX=4.24
##DATA TYPE=MASS SPECTRUM
##ORIGIN=Zaikin V.G., TIPS RAS, Moscow, Russia
##OWNER=NIST Mass Spectrometry Data Center
Collection (C) 2014 copyright by the U.S. Secretary of Commerce
on behalf of the United States of America. All rights reserved.
##$NIST MASS SPEC NO=308454
##MOLFORM=C18 H28 Br N O
##MW=353
##$NIST SOURCE=MSDC
##XUNITS=M/Z
##YUNITS=RELATIVE INTENSITY
##XFACTOR=1
##YFACTOR=1
##FIRSTX=26
##LASTX=356
##FIRSTY=110
##MAXX=356
##MINX=26
##MAXY=9999
##MINY=20
##NPOINTS=121
##PEAK TABLE=(XY..XY)
26,110 27,310 28,150 29,370
30,40 36,60 37,30 38,60
39,320 40,90 41,991 42,731
43,801 44,891 50,330 51,130
52,30 53,80 54,70 55,621
56,270 57,621 58,230 63,20
65,30 67,80 68,50 69,190
70,270 71,80 73,30 74,140
75,540 76,991 77,340 78,60
79,90 80,110 81,90 82,150
83,90 84,120 85,30 89,30
90,30 91,100 97,40 98,40
102,20 103,140 104,1001 105,480
106,50 114,20 117,40 118,40
119,200 120,40 132,30 133,30
134,40 146,80 147,80 148,70
155,1531 156,180 157,1521 158,150
169,30 170,110 171,30 182,30
183,9999 184,781 185,9819 186,731
187,50 196,70 198,300 200,60
202,30 212,520 213,290 214,641
215,290 216,140 224,50 226,2402
227,951 228,2482 229,941 230,90
240,470 241,90 242,460 243,70
254,290 255,70 256,280 257,60
268,150 269,40 270,140 271,40
274,40 282,170 283,30 284,160
296,140 298,130 310,100 312,100
324,70 326,70 338,40 340,40
352,741 353,711 354,851 355,681
356,140
##END=
