##TITLE=Bromoacetamide, N,N-diundecyl-
##JCAMP-DX=4.24
##DATA TYPE=MASS SPECTRUM
##ORIGIN=Zaikin V.G., TIPS RAS, Moscow, Russia
##OWNER=NIST Mass Spectrometry Data Center
Collection (C) 2014 copyright by the U.S. Secretary of Commerce
on behalf of the United States of America. All rights reserved.
##$NIST MASS SPEC NO=308176
##MOLFORM=C24 H48 Br N O
##MW=445
##$NIST SOURCE=MSDC
##XUNITS=M/Z
##YUNITS=RELATIVE INTENSITY
##XFACTOR=1
##YFACTOR=1
##FIRSTX=28
##LASTX=446
##FIRSTY=50
##MAXX=446
##MINX=28
##MAXY=9999
##MINY=30
##NPOINTS=105
##PEAK TABLE=(XY..XY)
28,50 30,130 36,50 41,130
42,40 43,450 44,821 55,310
56,90 57,490 58,70 69,230
70,90 71,230 72,130 73,60
80,30 82,30 83,200 84,90
85,140 86,140 87,60 95,40
97,200 98,70 99,30 111,70
112,70 114,40 120,30 121,30
126,80 128,50 135,290 140,60
142,30 150,30 152,110 154,100
164,1812 165,60 166,1762 167,60
168,30 170,160 172,60 182,230
184,2382 185,300 196,40 197,50
198,340 210,80 212,871 213,110
214,100 224,140 226,4394 227,681
228,40 238,50 240,140 252,50
254,140 262,50 264,40 266,30
268,80 282,50 290,60 292,210
294,200 296,50 304,1792 305,280
306,1702 307,250 318,90 320,70
322,50 324,561 325,120 332,100
334,100 338,140 346,50 348,30
350,160 351,40 352,8127 353,2122
354,250 360,30 366,9999 367,2592
368,350 402,70 403,60 430,330
431,70 432,350 433,40 444,60
446,70
##END=
