##TITLE=Bromoacetic acid, 4-cyanophenyl ester
##JCAMP-DX=4.24
##DATA TYPE=MASS SPECTRUM
##ORIGIN=Zaikin V.G., TIPS RAS, Moscow, Russia
##OWNER=NIST Mass Spectrometry Data Center
Collection (C) 2014 copyright by the U.S. Secretary of Commerce
on behalf of the United States of America. All rights reserved.
##$NIST MASS SPEC NO=308049
##MOLFORM=C9 H6 Br N O2
##MW=239
##$NIST SOURCE=MSDC
##XUNITS=M/Z
##YUNITS=RELATIVE INTENSITY
##XFACTOR=1
##YFACTOR=1
##FIRSTX=37
##LASTX=242
##FIRSTY=40
##MAXX=242
##MINX=37
##MAXY=9999
##MINY=30
##NPOINTS=34
##PEAK TABLE=(XY..XY)
37,40 38,30 39,160 42,360
50,30 51,60 62,50 63,230
64,330 65,40 75,90 76,60
77,30 89,30 90,430 91,230
92,30 93,380 95,380 102,430
103,30 104,30 118,80 119,9999
120,1361 121,1501 122,510 123,1511
211,160 213,170 239,611 240,60
241,601 242,40
##END=
