##TITLE=Benzamide, N,N-diheptyl-3-bromo-
##JCAMP-DX=4.24
##DATA TYPE=MASS SPECTRUM
##ORIGIN=Zaikin V.G., TIPS RAS, Moscow, Russia
##OWNER=NIST Mass Spectrometry Data Center
Collection (C) 2014 copyright by the U.S. Secretary of Commerce
on behalf of the United States of America. All rights reserved.
##$NIST MASS SPEC NO=308625
##MOLFORM=C21 H34 Br N O
##MW=395
##$NIST SOURCE=MSDC
##XUNITS=M/Z
##YUNITS=RELATIVE INTENSITY
##XFACTOR=1
##YFACTOR=1
##FIRSTX=25
##LASTX=398
##FIRSTY=80
##MAXX=398
##MINX=25
##MAXY=9999
##MINY=30
##NPOINTS=152
##PEAK TABLE=(XY..XY)
25,80 26,470 27,1441 28,691
29,1732 30,290 36,70 37,120
38,180 39,1121 40,210 41,2883
42,1501 43,2472 44,651 49,50
50,581 51,430 52,90 53,190
54,170 55,1201 56,711 57,831
58,70 62,30 63,70 65,70
67,130 68,130 69,230 70,350
71,60 73,50 74,200 75,561
76,891 77,1251 78,180 79,180
80,140 81,170 82,200 83,40
84,310 85,60 89,70 90,80
91,290 92,30 96,30 98,120
102,60 103,120 104,290 105,1982
106,160 112,60 115,50 116,50
117,90 118,80 119,60 126,360
127,30 128,90 130,60 131,60
132,110 133,40 134,130 145,50
146,520 147,110 148,360 149,30
154,70 155,1491 156,200 157,1481
158,130 160,110 162,150 169,50
171,40 174,60 176,30 182,70
183,9999 184,861 185,9779 186,761
187,30 188,90 200,100 202,110
212,340 213,140 214,290 215,130
218,140 224,40 226,651 227,280
228,621 229,250 230,120 232,851
233,120 240,170 241,40 242,150
243,30 244,80 246,190 254,170
255,40 256,140 257,30 260,90
266,60 268,260 269,30 270,180
274,80 282,100 284,60 296,120
298,180 300,60 310,971 311,280
312,991 313,280 314,40 316,4014
317,921 318,90 324,160 326,130
338,230 340,210 341,30 352,140
354,120 366,100 368,100 394,721
395,470 396,841 397,460 398,100
##END=
