##TITLE=Cyclohexanecarboxamide, N,N-dinonyl-
##JCAMP-DX=4.24
##DATA TYPE=MASS SPECTRUM
##ORIGIN=Zaikin V.G., TIPS RAS, Moscow, Russia
##OWNER=NIST Mass Spectrometry Data Center
Collection (C) 2014 copyright by the U.S. Secretary of Commerce
on behalf of the United States of America. All rights reserved.
##$NIST MASS SPEC NO=308527
##MOLFORM=C25 H49 N O
##MW=379
##$NIST SOURCE=MSDC
##XUNITS=M/Z
##YUNITS=RELATIVE INTENSITY
##XFACTOR=1
##YFACTOR=1
##FIRSTX=26
##LASTX=380
##FIRSTY=150
##MAXX=380
##MINX=26
##MAXY=9999
##MINY=30
##NPOINTS=126
##PEAK TABLE=(XY..XY)
26,150 27,390 28,160 29,410
30,180 37,30 38,50 39,490
40,110 41,1341 42,490 43,1331
44,811 50,50 51,60 52,30
53,170 54,250 55,1982 56,490
57,601 58,110 65,40 66,30
67,440 68,120 69,320 70,330
71,350 72,80 73,60 77,50
79,100 80,30 81,260 82,140
83,4684 84,611 85,250 86,100
87,70 95,60 96,60 97,50
98,220 99,100 100,190 101,40
109,90 110,170 111,861 112,300
113,80 114,140 124,40 126,210
127,40 128,140 138,30 140,190
141,220 142,190 152,50 154,510
155,320 156,9999 157,1081 158,50
166,30 168,210 169,110 170,1001
171,120 180,30 182,270 183,80
184,1051 185,150 194,30 196,340
197,60 198,641 199,80 210,230
211,100 212,410 213,50 224,230
225,70 226,330 227,50 238,180
239,30 240,120 252,220 253,320
254,290 255,40 266,330 267,220
268,450 269,100 270,40 280,220
281,30 294,480 295,110 296,3843
297,811 298,90 308,260 309,50
322,230 323,50 324,981 325,230
336,300 337,70 338,130 350,220
351,60 364,160 365,30 378,190
379,410 380,120
##END=
