##TITLE=2-Thiophenecarboxylic acid, 2-naphthyl ester
##JCAMP-DX=4.24
##DATA TYPE=MASS SPECTRUM
##ORIGIN=Zaikin V.G., TIPS RAS, Moscow, Russia
##OWNER=NIST Mass Spectrometry Data Center
Collection (C) 2014 copyright by the U.S. Secretary of Commerce
on behalf of the United States of America. All rights reserved.
##$NIST MASS SPEC NO=308068
##MOLFORM=C15 H10 O2 S
##MW=254
##$NIST SOURCE=MSDC
##XUNITS=M/Z
##YUNITS=RELATIVE INTENSITY
##XFACTOR=1
##YFACTOR=1
##FIRSTX=28
##LASTX=256
##FIRSTY=10
##MAXX=256
##MINX=28
##MAXY=9999
##MINY=10
##NPOINTS=17
##PEAK TABLE=(XY..XY)
28,10 36,40 39,380 44,30
83,410 89,50 111,9999 112,611
113,470 115,520 116,40 127,40
128,50 144,60 254,2722 255,440
256,140
##END=
