##TITLE=1-Naphthamide, N-ethyl-N-(3-methylphenyl)-
##JCAMP-DX=4.24
##DATA TYPE=MASS SPECTRUM
##ORIGIN=Zaikin V.G., TIPS RAS, Moscow, Russia
##OWNER=NIST Mass Spectrometry Data Center
Collection (C) 2014 copyright by the U.S. Secretary of Commerce
on behalf of the United States of America. All rights reserved.
##$NIST MASS SPEC NO=308687
##MOLFORM=C20 H19 N O
##MW=289
##$NIST SOURCE=MSDC
##XUNITS=M/Z
##YUNITS=RELATIVE INTENSITY
##XFACTOR=1
##YFACTOR=1
##FIRSTX=26
##LASTX=291
##FIRSTY=30
##MAXX=291
##MINX=26
##MAXY=9999
##MINY=20
##NPOINTS=52
##PEAK TABLE=(XY..XY)
26,30 27,50 29,40 39,100
41,20 50,50 51,110 52,40
64,40 65,260 75,50 76,50
77,320 78,80 89,60 90,40
91,701 92,90 101,170 102,50
104,40 107,40 117,30 118,380
119,360 120,280 126,370 127,4554
128,761 129,70 130,30 132,50
133,60 134,90 135,90 153,30
155,9999 156,1081 157,70 182,60
202,50 215,40 216,30 217,30
230,30 242,40 260,140 261,70
288,601 289,2272 290,571 291,70
##END=
