##TITLE=1-(Trihexylsilyloxy)pentadecane
##JCAMP-DX=4.24
##DATA TYPE=MASS SPECTRUM
##ORIGIN=Zaikin V.G., TIPS RAS, Moscow, Russia
##OWNER=NIST Mass Spectrometry Data Center
Collection (C) 2014 copyright by the U.S. Secretary of Commerce
on behalf of the United States of America. All rights reserved.
##$NIST MASS SPEC NO=308330
##MOLFORM=C33 H70 O Si
##MW=510
##$NIST SOURCE=MSDC
##XUNITS=M/Z
##YUNITS=RELATIVE INTENSITY
##XFACTOR=1
##YFACTOR=1
##FIRSTX=26
##LASTX=428
##FIRSTY=190
##MAXX=428
##MINX=26
##MAXY=9999
##MINY=30
##NPOINTS=125
##PEAK TABLE=(XY..XY)
26,190 27,300 28,90 29,230
36,200 38,80 39,320 40,100
41,731 42,270 43,991 44,400
45,140 47,90 50,40 51,50
52,30 53,50 54,70 55,751
56,330 57,1161 58,30 59,170
61,260 67,230 68,70 69,731
70,130 71,681 73,330 74,40
75,330 77,90 78,40 79,100
81,240 82,90 83,1031 84,140
85,550 86,30 87,340 89,140
91,90 93,40 95,210 96,140
97,941 98,90 99,210 101,851
102,90 103,90 105,40 109,130
110,30 111,561 112,60 113,851
114,100 115,771 116,70 117,60
119,40 121,30 123,70 125,260
126,30 127,110 128,30 129,320
130,30 131,310 133,100 135,30
137,30 139,100 141,70 143,200
145,140 147,40 151,110 153,50
155,40 157,190 159,30 169,40
171,250 172,40 177,30 183,30
185,230 191,90 193,60 197,40
199,410 200,50 213,140 215,100
216,90 227,80 229,70 241,100
255,280 256,50 257,60 267,60
269,200 270,30 283,170 284,30
297,60 311,40 339,350 340,80
341,3043 342,841 343,200 355,40
423,40 425,9999 426,3413 427,891
428,140
##END=
