##TITLE=Propanamide, N,N-dioctyl-3-phenyl-
##JCAMP-DX=4.24
##DATA TYPE=MASS SPECTRUM
##ORIGIN=Zaikin V.G., TIPS RAS, Moscow, Russia
##OWNER=NIST Mass Spectrometry Data Center
Collection (C) 2014 copyright by the U.S. Secretary of Commerce
on behalf of the United States of America. All rights reserved.
##$NIST MASS SPEC NO=308219
##MOLFORM=C25 H43 N O
##MW=373
##$NIST SOURCE=MSDC
##XUNITS=M/Z
##YUNITS=RELATIVE INTENSITY
##XFACTOR=1
##YFACTOR=1
##FIRSTX=29
##LASTX=375
##FIRSTY=50
##MAXX=375
##MINX=29
##MAXY=9999
##MINY=30
##NPOINTS=95
##PEAK TABLE=(XY..XY)
29,50 30,200 41,150 42,30
43,370 44,1281 45,40 55,130
56,50 57,390 58,140 69,170
70,70 71,240 72,80 77,40
79,50 84,50 86,100 91,1231
92,90 98,40 100,120 103,50
104,220 105,1331 106,220 111,70
112,40 114,50 128,280 129,30
130,60 131,90 132,70 133,420
134,30 140,100 142,9999 143,971
144,40 150,40 156,1101 157,100
162,40 163,320 164,30 170,1521
171,150 176,160 177,430 178,40
184,200 186,40 188,130 190,150
191,130 198,160 204,160 205,60
212,220 218,230 219,40 226,100
232,120 240,380 241,70 242,80
246,80 260,110 261,140 262,80
268,5435 269,981 270,70 274,550
275,340 276,40 282,260 283,40
288,310 289,60 302,440 303,100
316,250 317,40 330,200 331,40
344,290 345,60 358,60 372,100
373,2042 374,561 375,70
##END=
