##TITLE=Nicotinamide, N-decyl-N-methyl-
##JCAMP-DX=4.24
##DATA TYPE=MASS SPECTRUM
##ORIGIN=Zaikin V.G., TIPS RAS, Moscow, Russia
##OWNER=NIST Mass Spectrometry Data Center
Collection (C) 2014 copyright by the U.S. Secretary of Commerce
on behalf of the United States of America. All rights reserved.
##$NIST MASS SPEC NO=308473
##MOLFORM=C17 H28 N2 O
##MW=276
##$NIST SOURCE=MSDC
##XUNITS=M/Z
##YUNITS=RELATIVE INTENSITY
##XFACTOR=1
##YFACTOR=1
##FIRSTX=26
##LASTX=277
##FIRSTY=60
##MAXX=277
##MINX=26
##MAXY=9999
##MINY=20
##NPOINTS=97
##PEAK TABLE=(XY..XY)
26,60 27,180 28,90 29,220
30,40 36,40 38,40 39,180
40,40 41,611 42,410 43,460
44,460 50,110 51,490 52,110
53,70 54,40 55,360 56,150
57,250 58,40 65,30 67,60
68,30 69,130 70,150 71,60
76,30 77,100 78,2482 79,370
80,100 81,50 82,30 83,60
84,80 85,30 91,40 92,40
93,120 95,30 96,50 97,40
98,30 104,20 105,80 106,9999
107,761 108,120 114,50 119,120
120,40 121,30 122,40 123,70
135,861 136,130 137,480 138,30
147,60 148,40 149,4034 150,1331
151,110 156,30 157,30 161,50
163,681 164,110 168,50 170,210
173,40 177,400 178,100 183,60
185,70 191,170 192,50 198,390
199,50 204,70 205,230 206,80
207,90 216,70 219,200 220,270
221,40 233,160 234,30 247,130
248,50 261,80 275,941 276,811
277,150
##END=
