##TITLE=Nicotinamide, N-(2,5-dimethoxyphenyl)-
##JCAMP-DX=4.24
##DATA TYPE=MASS SPECTRUM
##ORIGIN=Zaikin V.G., TIPS RAS, Moscow, Russia
##OWNER=NIST Mass Spectrometry Data Center
Collection (C) 2014 copyright by the U.S. Secretary of Commerce
on behalf of the United States of America. All rights reserved.
##$NIST MASS SPEC NO=308109
##MOLFORM=C14 H14 N2 O3
##MW=258
##$NIST SOURCE=MSDC
##XUNITS=M/Z
##YUNITS=RELATIVE INTENSITY
##XFACTOR=1
##YFACTOR=1
##FIRSTX=27
##LASTX=278
##FIRSTY=50
##MAXX=278
##MINX=27
##MAXY=9999
##MINY=30
##NPOINTS=66
##PEAK TABLE=(XY..XY)
27,50 28,30 39,90 41,40
50,100 51,641 52,250 53,90
54,30 55,30 63,40 64,30
65,90 66,40 67,40 68,100
69,60 76,40 77,100 78,3263
79,420 80,90 81,40 82,40
90,30 92,100 93,120 94,50
95,120 105,50 106,9999 107,801
108,120 109,120 110,80 111,30
122,150 123,90 124,120 125,210
135,30 136,70 138,310 139,340
140,30 150,70 151,40 152,90
153,40 154,100 155,30 164,90
165,30 211,40 212,50 215,70
226,60 227,611 228,140 243,2462
244,380 245,30 258,9789 259,1501
260,160 278,70
##END=
