##TITLE=Benzamide, N,N-diheptyl-2,3,4-trifluoro-
##JCAMP-DX=4.24
##DATA TYPE=MASS SPECTRUM
##ORIGIN=Zaikin V.G., TIPS RAS, Moscow, Russia
##OWNER=NIST Mass Spectrometry Data Center
Collection (C) 2014 copyright by the U.S. Secretary of Commerce
on behalf of the United States of America. All rights reserved.
##$NIST MASS SPEC NO=308423
##MOLFORM=C21 H32 F3 N O
##MW=371
##$NIST SOURCE=MSDC
##XUNITS=M/Z
##YUNITS=RELATIVE INTENSITY
##XFACTOR=1
##YFACTOR=1
##FIRSTX=27
##LASTX=373
##FIRSTY=30
##MAXX=373
##MINX=27
##MAXY=9999
##MINY=20
##NPOINTS=72
##PEAK TABLE=(XY..XY)
27,30 28,20 29,60 39,30
41,150 42,80 43,140 44,60
55,160 56,60 57,120 69,40
70,40 81,40 84,30 126,90
128,50 131,320 132,50 141,40
158,30 159,9999 160,661 161,40
170,30 176,110 182,90 183,40
184,70 188,220 189,170 190,60
196,50 197,40 202,1641 203,460
204,40 210,30 212,50 216,120
217,40 224,30 230,200 231,40
240,30 244,140 257,60 258,50
266,190 267,60 268,50 272,210
273,40 274,160 280,160 286,2853
287,771 288,100 300,340 301,90
314,150 315,30 328,70 342,90
351,30 352,200 353,40 356,30
370,210 371,1111 372,280 373,30
##END=
