##TITLE=Isonicotinic acid, 2-phenylethyl ester
##JCAMP-DX=4.24
##DATA TYPE=MASS SPECTRUM
##ORIGIN=Zaikin V.G., TIPS RAS, Moscow, Russia
##OWNER=NIST Mass Spectrometry Data Center
Collection (C) 2014 copyright by the U.S. Secretary of Commerce
on behalf of the United States of America. All rights reserved.
##$NIST MASS SPEC NO=308363
##MOLFORM=C14 H13 N O2
##MW=227
##$NIST SOURCE=MSDC
##XUNITS=M/Z
##YUNITS=RELATIVE INTENSITY
##XFACTOR=1
##YFACTOR=1
##FIRSTX=26
##LASTX=124
##FIRSTY=40
##MAXX=124
##MINX=26
##MAXY=9999
##MINY=30
##NPOINTS=31
##PEAK TABLE=(XY..XY)
26,40 27,80 28,30 36,120
38,30 39,170 41,50 44,90
50,280 51,1171 52,170 53,30
63,90 65,370 75,30 76,60
77,561 78,2412 79,390 89,70
90,30 91,1301 92,120 102,60
103,480 104,9999 105,1071 106,2292
107,160 123,140 124,30
##END=
