##TITLE=Benzamide, N,N-dinonyl-4-fluoro-
##JCAMP-DX=4.24
##DATA TYPE=MASS SPECTRUM
##ORIGIN=Zaikin V.G., TIPS RAS, Moscow, Russia
##OWNER=NIST Mass Spectrometry Data Center
Collection (C) 2014 copyright by the U.S. Secretary of Commerce
on behalf of the United States of America. All rights reserved.
##$NIST MASS SPEC NO=308311
##MOLFORM=C25 H42 F N O
##MW=391
##$NIST SOURCE=MSDC
##XUNITS=M/Z
##YUNITS=RELATIVE INTENSITY
##XFACTOR=1
##YFACTOR=1
##FIRSTX=26
##LASTX=393
##FIRSTY=20
##MAXX=393
##MINX=26
##MAXY=9999
##MINY=20
##NPOINTS=83
##PEAK TABLE=(XY..XY)
26,20 27,70 28,40 29,100
30,50 39,60 41,250 42,140
43,320 44,160 55,200 56,110
57,170 58,50 67,20 69,90
70,80 71,50 75,30 83,40
84,60 85,30 95,470 96,80
97,20 98,40 109,40 112,30
122,30 123,9999 124,651 125,40
126,20 140,90 152,150 153,190
154,140 156,90 164,30 166,420
167,260 168,20 169,40 170,30
180,110 181,40 182,20 184,20
194,150 195,40 207,120 208,350
209,40 222,100 223,20 236,40
249,50 250,20 264,140 265,40
266,80 268,50 276,20 278,1882
279,510 280,70 281,30 292,150
293,30 296,40 306,130 307,30
320,70 334,80 335,20 348,70
349,20 362,60 376,20 390,591
391,561 392,140 393,20
##END=
