##TITLE=Chloroacetamide, N,N-didecyl-
##JCAMP-DX=4.24
##DATA TYPE=MASS SPECTRUM
##ORIGIN=Zaikin V.G., TIPS RAS, Moscow, Russia
##OWNER=NIST Mass Spectrometry Data Center
Collection (C) 2014 copyright by the U.S. Secretary of Commerce
on behalf of the United States of America. All rights reserved.
##$NIST MASS SPEC NO=308482
##MOLFORM=C22 H44 Cl N O
##MW=373
##$NIST SOURCE=MSDC
##XUNITS=M/Z
##YUNITS=RELATIVE INTENSITY
##XFACTOR=1
##YFACTOR=1
##FIRSTX=25
##LASTX=374
##FIRSTY=30
##MAXX=374
##MINX=25
##MAXY=9999
##MINY=20
##NPOINTS=168
##PEAK TABLE=(XY..XY)
25,30 26,190 27,490 28,270
29,691 30,561 35,60 36,340
37,30 38,160 39,470 40,110
41,1882 42,781 43,2522 44,2132
45,70 49,100 50,50 51,60
52,40 53,150 54,190 55,1812
56,901 57,1471 58,240 60,70
65,30 67,300 68,180 69,951
70,641 71,430 72,260 73,130
74,30 76,30 77,340 78,40
79,230 80,30 81,200 82,160
83,681 84,490 85,350 86,340
87,160 91,30 93,40 94,170
95,130 96,130 97,350 98,400
99,160 100,160 101,50 105,30
106,430 107,140 108,440 109,130
110,120 111,50 112,380 113,130
114,140 120,5755 121,470 122,1932
123,170 124,50 126,370 127,70
128,140 133,30 134,70 138,50
140,290 141,50 142,90 148,80
150,30 154,260 155,50 156,170
162,80 164,30 166,30 168,791
169,110 170,3013 171,360 176,30
182,190 183,80 184,891 185,110
190,30 196,330 197,70 198,3163
199,430 200,290 201,30 204,50
210,440 211,100 212,1361 213,220
224,240 225,100 226,190 232,90
234,500 235,70 236,170 238,220
239,70 240,270 241,40 246,3163
247,480 248,1111 249,150 252,130
253,20 254,140 260,230 261,30
262,70 266,80 268,110 274,260
275,40 276,80 280,70 282,80
288,120 290,40 294,120 296,490
297,100 302,60 308,40 310,190
311,40 316,60 322,170 323,50
324,9999 325,2302 326,270 330,90
336,30 337,90 338,4804 339,1231
340,150 344,80 358,150 359,30
360,50 372,90 373,40 374,50
##END=
