##TITLE=Nicotinic acid, 2-ethylcyclohexyl ester
##JCAMP-DX=4.24
##DATA TYPE=MASS SPECTRUM
##ORIGIN=Zaikin V.G., TIPS RAS, Moscow, Russia
##OWNER=NIST Mass Spectrometry Data Center
Collection (C) 2014 copyright by the U.S. Secretary of Commerce
on behalf of the United States of America. All rights reserved.
##$NIST MASS SPEC NO=308368
##MOLFORM=C14 H19 N O2
##MW=233
##$NIST SOURCE=MSDC
##XUNITS=M/Z
##YUNITS=RELATIVE INTENSITY
##XFACTOR=1
##YFACTOR=1
##FIRSTX=26
##LASTX=232
##FIRSTY=130
##MAXX=232
##MINX=26
##MAXY=9999
##MINY=20
##NPOINTS=59
##PEAK TABLE=(XY..XY)
26,130 27,480 28,20 29,550
35,40 38,130 39,581 40,130
41,2032 42,200 43,360 44,290
50,370 51,1702 52,380 53,400
54,290 55,1471 56,120 57,200
59,30 65,120 66,220 67,1702
68,641 69,1631 70,110 76,60
77,400 78,4804 79,1301 80,410
81,5095 82,1541 83,200 91,90
93,80 95,871 96,60 98,30
105,240 106,9999 107,731 108,140
109,220 110,4714 111,530 121,90
122,30 123,250 124,8498 125,561
126,30 127,40 134,90 149,120
151,30 204,70 232,70
##END=
