##TITLE=Pentanamide, N-decyl-N-methyl-5-bromo-
##JCAMP-DX=4.24
##DATA TYPE=MASS SPECTRUM
##ORIGIN=Zaikin V.G., TIPS RAS, Moscow, Russia
##OWNER=NIST Mass Spectrometry Data Center
Collection (C) 2014 copyright by the U.S. Secretary of Commerce
on behalf of the United States of America. All rights reserved.
##$NIST MASS SPEC NO=308261
##MOLFORM=C16 H32 Br N O
##MW=333
##$NIST SOURCE=MSDC
##XUNITS=M/Z
##YUNITS=RELATIVE INTENSITY
##XFACTOR=1
##YFACTOR=1
##FIRSTX=28
##LASTX=336
##FIRSTY=40
##MAXX=336
##MINX=28
##MAXY=9999
##MINY=30
##NPOINTS=76
##PEAK TABLE=(XY..XY)
28,40 41,120 42,30 43,240
44,2853 45,60 55,390 56,30
57,290 58,280 71,180 80,40
82,30 83,40 85,170 86,80
97,30 98,40 99,30 100,470
101,30 110,30 112,30 113,50
114,520 115,40 126,30 127,50
128,991 129,80 135,270 137,270
138,30 142,180 156,60 163,340
165,320 170,140 172,80 193,30
194,150 196,170 198,5105 199,721
206,611 207,561 208,601 209,490
210,30 220,280 222,160 224,40
226,1431 227,220 234,230 236,270
240,160 248,120 250,110 252,40
253,30 254,9999 255,1802 256,130
262,60 264,90 276,180 278,130
290,110 292,100 304,90 306,70
333,150 334,100 335,180 336,30
##END=
