##TITLE=1-(Trihexylsilyloxy)octane
##JCAMP-DX=4.24
##DATA TYPE=MASS SPECTRUM
##ORIGIN=Zaikin V.G., TIPS RAS, Moscow, Russia
##OWNER=NIST Mass Spectrometry Data Center
Collection (C) 2014 copyright by the U.S. Secretary of Commerce
on behalf of the United States of America. All rights reserved.
##$NIST MASS SPEC NO=308325
##MOLFORM=C26 H56 O Si
##MW=412
##$NIST SOURCE=MSDC
##XUNITS=M/Z
##YUNITS=RELATIVE INTENSITY
##XFACTOR=1
##YFACTOR=1
##FIRSTX=26
##LASTX=340
##FIRSTY=130
##MAXX=340
##MINX=26
##MAXY=9999
##MINY=30
##NPOINTS=100
##PEAK TABLE=(XY..XY)
26,130 27,290 28,110 29,280
36,60 38,30 39,260 40,60
41,741 42,300 43,861 44,90
45,330 47,250 53,40 54,40
55,801 56,360 57,1031 58,40
59,370 60,40 61,550 62,30
67,120 68,30 69,2072 70,150
71,801 72,50 73,530 74,70
75,510 76,30 77,30 79,40
81,70 82,30 83,390 84,100
85,611 86,80 87,721 88,70
89,230 95,30 97,100 99,290
100,60 101,1441 102,150 103,130
109,30 111,871 112,80 113,1501
114,190 115,1431 116,150 117,70
127,90 129,380 130,50 131,340
132,30 141,40 143,70 145,170
155,30 157,300 158,30 159,310
160,30 171,150 173,30 185,220
186,30 187,30 197,30 199,611
200,90 201,60 213,170 214,30
215,100 216,30 229,80 233,30
241,430 242,80 243,7447 244,1481
245,370 246,30 325,50 327,9999
328,2612 329,651 330,90 340,60
##END=
