##TITLE=(Phenylthio)acetic acid, propyl ester
##JCAMP-DX=4.24
##DATA TYPE=MASS SPECTRUM
##ORIGIN=Zaikin V.G., TIPS RAS, Moscow, Russia
##OWNER=NIST Mass Spectrometry Data Center
Collection (C) 2014 copyright by the U.S. Secretary of Commerce
on behalf of the United States of America. All rights reserved.
##$NIST MASS SPEC NO=308337
##MOLFORM=C11 H14 O2 S
##MW=210
##$NIST SOURCE=MSDC
##XUNITS=M/Z
##YUNITS=RELATIVE INTENSITY
##XFACTOR=1
##YFACTOR=1
##FIRSTX=26
##LASTX=213
##FIRSTY=30
##MAXX=213
##MINX=26
##MAXY=9999
##MINY=10
##NPOINTS=54
##PEAK TABLE=(XY..XY)
26,30 27,200 28,10 29,40
39,220 41,330 42,90 43,951
44,80 45,1311 46,70 47,60
50,110 51,390 52,40 58,30
61,30 63,60 65,460 66,110
69,190 74,30 75,30 76,40
77,631 78,270 79,280 82,50
83,30 84,40 91,150 94,30
97,30 105,40 108,160 109,1011
110,661 111,90 112,30 121,310
122,90 123,9999 124,891 125,450
126,50 150,50 151,230 168,701
169,60 170,30 210,6216 211,701
212,320 213,30
##END=
