##TITLE=Benzamide, N,N-diheptyl-4-trifluoromethyl-
##JCAMP-DX=4.24
##DATA TYPE=MASS SPECTRUM
##ORIGIN=Zaikin V.G., TIPS RAS, Moscow, Russia
##OWNER=NIST Mass Spectrometry Data Center
Collection (C) 2014 copyright by the U.S. Secretary of Commerce
on behalf of the United States of America. All rights reserved.
##$NIST MASS SPEC NO=308252
##MOLFORM=C22 H34 F3 N O
##MW=385
##$NIST SOURCE=MSDC
##XUNITS=M/Z
##YUNITS=RELATIVE INTENSITY
##XFACTOR=1
##YFACTOR=1
##FIRSTX=28
##LASTX=386
##FIRSTY=10
##MAXX=386
##MINX=28
##MAXY=9999
##MINY=10
##NPOINTS=54
##PEAK TABLE=(XY..XY)
28,10 29,30 41,70 42,30
43,90 44,60 55,120 56,40
57,140 126,200 128,100 141,60
145,831 146,60 154,80 156,120
159,50 173,9999 174,861 175,40
190,140 202,290 203,220 204,40
212,60 216,2002 217,711 218,60
230,230 231,80 240,140 244,360
245,100 258,250 259,50 271,140
272,80 286,320 287,60 288,140
300,4474 301,1161 302,140 314,350
315,70 328,230 329,50 342,100
356,100 366,100 370,30 384,1131
385,1201 386,250
##END=
