##TITLE=1-(Trihexylsilyloxy)tridecane
##JCAMP-DX=4.24
##DATA TYPE=MASS SPECTRUM
##ORIGIN=Zaikin V.G., TIPS RAS, Moscow, Russia
##OWNER=NIST Mass Spectrometry Data Center
Collection (C) 2014 copyright by the U.S. Secretary of Commerce
on behalf of the United States of America. All rights reserved.
##$NIST MASS SPEC NO=308328
##MOLFORM=C31 H66 O Si
##MW=482
##$NIST SOURCE=MSDC
##XUNITS=M/Z
##YUNITS=RELATIVE INTENSITY
##XFACTOR=1
##YFACTOR=1
##FIRSTX=26
##LASTX=411
##FIRSTY=100
##MAXX=411
##MINX=26
##MAXY=9999
##MINY=30
##NPOINTS=121
##PEAK TABLE=(XY..XY)
26,100 27,160 28,50 29,130
36,150 38,30 39,180 40,70
41,450 42,160 43,591 44,260
45,100 47,70 50,30 51,40
53,40 54,40 55,520 56,220
57,741 59,130 61,220 67,150
68,40 69,561 70,90 71,420
73,280 74,30 75,250 77,60
79,60 81,160 82,60 83,791
84,110 85,440 86,40 87,310
89,110 91,60 93,30 95,140
96,90 97,781 98,70 99,190
101,721 102,80 103,70 105,30
109,90 111,530 112,50 113,751
114,90 115,681 116,70 117,60
119,30 123,60 125,240 127,90
129,320 130,30 131,300 133,70
137,30 139,40 141,60 143,250
145,130 147,30 151,80 155,30
157,250 158,30 159,50 161,60
169,30 171,250 172,40 185,200
191,60 193,40 197,40 199,230
200,30 201,30 213,60 215,90
216,60 227,250 228,40 229,140
241,210 242,30 243,30 245,60
255,190 256,40 267,30 269,130
282,50 283,70 311,340 312,70
313,3633 314,921 315,220 316,30
329,160 330,40 355,30 395,30
397,9999 398,3313 399,881 400,130
411,50
##END=
