##TITLE=Benzamide, N,N-didecyl-4-methyl-
##JCAMP-DX=4.24
##DATA TYPE=MASS SPECTRUM
##ORIGIN=Zaikin V.G., TIPS RAS, Moscow, Russia
##OWNER=NIST Mass Spectrometry Data Center
Collection (C) 2014 copyright by the U.S. Secretary of Commerce
on behalf of the United States of America. All rights reserved.
##$NIST MASS SPEC NO=308469
##MOLFORM=C28 H49 N O
##MW=415
##$NIST SOURCE=MSDC
##XUNITS=M/Z
##YUNITS=RELATIVE INTENSITY
##XFACTOR=1
##YFACTOR=1
##FIRSTX=28
##LASTX=417
##FIRSTY=20
##MAXX=417
##MINX=28
##MAXY=9999
##MINY=20
##NPOINTS=61
##PEAK TABLE=(XY..XY)
28,20 41,40 43,80 44,70
55,60 57,60 58,90 91,410
105,40 118,50 119,9999 120,851
121,40 136,110 148,150 149,300
162,450 163,370 168,140 170,100
176,150 177,60 184,300 185,30
190,190 191,70 198,30 204,250
205,60 218,120 232,180 233,30
246,60 259,80 260,50 274,230
275,80 276,70 288,2632 289,981
290,140 296,110 302,280 303,70
316,270 317,80 324,110 330,170
331,40 344,210 345,40 358,170
359,30 372,160 373,40 386,140
400,50 414,2392 415,2132 416,581
417,80
##END=
