##TITLE=Benzamide, N,N-dioctyl-3-fluoro-
##JCAMP-DX=4.24
##DATA TYPE=MASS SPECTRUM
##ORIGIN=Zaikin V.G., TIPS RAS, Moscow, Russia
##OWNER=NIST Mass Spectrometry Data Center
Collection (C) 2014 copyright by the U.S. Secretary of Commerce
on behalf of the United States of America. All rights reserved.
##$NIST MASS SPEC NO=308401
##MOLFORM=C23 H38 F N O
##MW=363
##$NIST SOURCE=MSDC
##XUNITS=M/Z
##YUNITS=RELATIVE INTENSITY
##XFACTOR=1
##YFACTOR=1
##FIRSTX=26
##LASTX=364
##FIRSTY=40
##MAXX=364
##MINX=26
##MAXY=9999
##MINY=20
##NPOINTS=65
##PEAK TABLE=(XY..XY)
26,40 27,100 28,60 29,150
30,60 39,70 41,360 42,200
43,370 44,160 55,240 56,150
57,220 58,30 67,30 69,150
70,90 71,60 75,50 83,20
84,60 95,851 96,130 98,40
109,180 112,30 122,40 123,9999
124,661 125,40 140,320 142,70
152,190 153,170 154,30 164,30
166,641 167,300 168,40 170,70
180,110 181,40 194,160 195,40
208,160 209,50 222,60 235,40
240,30 250,130 251,30 252,60
264,1551 265,440 266,50 268,60
278,150 279,30 292,110 306,50
320,50 334,50 362,440 363,500
364,120
##END=
