##TITLE=Propanamide, N,N-dinonyl-3-chloro-
##JCAMP-DX=4.24
##DATA TYPE=MASS SPECTRUM
##ORIGIN=Zaikin V.G., TIPS RAS, Moscow, Russia
##OWNER=NIST Mass Spectrometry Data Center
Collection (C) 2014 copyright by the U.S. Secretary of Commerce
on behalf of the United States of America. All rights reserved.
##$NIST MASS SPEC NO=308508
##MOLFORM=C21 H42 Cl N O
##MW=359
##$NIST SOURCE=MSDC
##XUNITS=M/Z
##YUNITS=RELATIVE INTENSITY
##XFACTOR=1
##YFACTOR=1
##FIRSTX=25
##LASTX=360
##FIRSTY=30
##MAXX=360
##MINX=25
##MAXY=9999
##MINY=30
##NPOINTS=150
##PEAK TABLE=(XY..XY)
25,30 26,220 27,500 28,160
29,420 30,410 35,30 36,200
38,110 39,350 40,90 41,1101
42,520 43,1391 44,1561 45,40
50,30 51,30 53,100 54,120
55,1101 56,591 57,661 58,130
63,631 65,210 67,150 68,100
69,480 70,470 71,300 72,90
79,50 81,100 82,80 83,210
84,340 85,180 86,160 90,30
91,581 92,30 93,190 95,60
96,60 97,70 98,390 99,150
100,320 101,30 108,90 110,50
111,30 112,280 113,90 114,140
120,150 121,130 122,80 123,40
124,40 126,270 127,50 128,70
134,711 135,210 136,230 137,70
140,200 141,40 142,110 148,70
149,30 154,400 155,50 156,9999
157,1071 158,60 162,100 164,30
168,150 169,30 170,550 171,70
176,140 178,50 182,170 183,40
184,811 185,110 190,60 196,80
198,821 199,120 204,40 210,520
211,140 212,1401 213,210 224,260
225,70 226,280 227,40 232,70
234,270 235,30 236,80 238,260
239,60 240,170 246,1752 247,280
248,571 249,90 252,180 253,40
254,70 260,230 261,30 262,70
266,130 267,30 268,400 269,80
274,240 275,40 276,80 280,50
282,40 288,140 290,40 294,80
296,2843 297,621 298,60 302,80
308,30 316,110 318,30 322,40
323,80 324,5375 325,1221 326,140
330,110 332,30 344,40 358,60
359,50 360,50
##END=
