##TITLE=Cyclobutanecarboxamide, N-ethyl-N-(3-methylphenyl)-
##JCAMP-DX=4.24
##DATA TYPE=MASS SPECTRUM
##ORIGIN=Zaikin V.G., TIPS RAS, Moscow, Russia
##OWNER=NIST Mass Spectrometry Data Center
Collection (C) 2014 copyright by the U.S. Secretary of Commerce
on behalf of the United States of America. All rights reserved.
##$NIST MASS SPEC NO=308597
##MOLFORM=C14 H19 N O
##MW=217
##$NIST SOURCE=MSDC
##XUNITS=M/Z
##YUNITS=RELATIVE INTENSITY
##XFACTOR=1
##YFACTOR=1
##FIRSTX=25
##LASTX=218
##FIRSTY=80
##MAXX=218
##MINX=25
##MAXY=9999
##MINY=30
##NPOINTS=104
##PEAK TABLE=(XY..XY)
25,80 26,550 27,1682 28,581
29,1461 30,50 35,90 36,490
37,90 38,290 39,1231 40,190
41,330 42,170 43,50 44,230
49,40 50,300 51,561 52,350
53,761 54,320 55,8888 56,440
57,40 58,50 62,90 63,390
64,160 65,1551 66,140 67,50
74,50 75,80 76,120 77,881
78,420 79,470 80,120 81,100
82,390 83,861 84,80 86,30
89,390 90,280 91,3733 92,540
93,240 94,30 102,40 103,110
104,340 105,260 106,350 107,530
108,80 110,460 111,470 112,90
115,130 116,80 117,290 118,1672
119,1031 120,9368 121,881 122,40
128,50 129,40 130,140 131,180
132,460 133,1651 134,1561 135,9999
136,1071 137,40 142,40 143,30
144,130 145,120 146,330 147,60
148,160 149,40 158,50 159,140
160,170 161,70 162,160 172,40
174,490 175,110 176,60 186,30
187,30 188,420 189,601 190,70
202,110 216,100 217,2883 218,420
##END=
