##TITLE=Butanamide, N,N-dihexyl-
##JCAMP-DX=4.24
##DATA TYPE=MASS SPECTRUM
##ORIGIN=Zaikin V.G., TIPS RAS, Moscow, Russia
##OWNER=NIST Mass Spectrometry Data Center
Collection (C) 2014 copyright by the U.S. Secretary of Commerce
on behalf of the United States of America. All rights reserved.
##$NIST MASS SPEC NO=308676
##MOLFORM=C16 H33 N O
##MW=255
##$NIST SOURCE=MSDC
##XUNITS=M/Z
##YUNITS=RELATIVE INTENSITY
##XFACTOR=1
##YFACTOR=1
##FIRSTX=25
##LASTX=256
##FIRSTY=30
##MAXX=256
##MINX=25
##MAXY=9999
##MINY=30
##NPOINTS=68
##PEAK TABLE=(XY..XY)
25,30 26,180 27,500 28,140
29,360 30,310 37,30 38,60
39,380 40,90 41,1071 42,540
43,2342 44,1231 45,30 53,60
54,60 55,470 56,280 57,230
58,110 67,40 68,40 69,120
70,320 71,1041 72,140 73,130
82,30 83,40 84,220 85,120
86,120 87,260 88,70 98,120
99,40 100,380 101,240 112,240
113,60 114,9999 115,951 116,40
126,60 127,40 128,891 129,140
140,100 142,901 143,170 154,40
156,520 157,70 168,30 170,230
171,40 172,80 184,711 185,130
198,150 212,2182 213,330 226,150
240,150 254,30 255,160 256,60
##END=
