##TITLE=Cyclobutanecarboxamide, N-decyl-N-methyl-
##JCAMP-DX=4.24
##DATA TYPE=MASS SPECTRUM
##ORIGIN=Zaikin V.G., TIPS RAS, Moscow, Russia
##OWNER=NIST Mass Spectrometry Data Center
Collection (C) 2014 copyright by the U.S. Secretary of Commerce
on behalf of the United States of America. All rights reserved.
##$NIST MASS SPEC NO=308599
##MOLFORM=C16 H31 N O
##MW=253
##$NIST SOURCE=MSDC
##XUNITS=M/Z
##YUNITS=RELATIVE INTENSITY
##XFACTOR=1
##YFACTOR=1
##FIRSTX=26
##LASTX=254
##FIRSTY=110
##MAXX=254
##MINX=26
##MAXY=9999
##MINY=30
##NPOINTS=103
##PEAK TABLE=(XY..XY)
26,110 27,380 28,260 29,651
30,110 36,200 37,40 38,140
39,741 40,200 41,2122 42,1351
43,1952 44,9999 45,370 50,100
51,100 52,80 53,500 54,330
55,8167 56,1531 57,1661 58,1241
59,80 65,60 66,40 67,230
68,250 69,520 70,771 71,520
72,390 73,140 74,30 75,30
77,70 78,30 79,120 80,40
81,210 82,460 83,4444 84,1021
85,400 86,370 87,50 91,50
93,40 94,40 95,60 96,140
97,130 98,2192 99,1151 100,320
102,50 110,180 111,90 112,1621
113,500 114,1201 115,110 116,30
124,70 126,6666 127,2352 128,350
130,80 135,80 138,40 140,951
141,190 142,40 147,40 154,1391
155,220 156,150 159,30 168,811
169,120 170,1822 171,240 172,50
182,1982 183,270 184,40 196,601
197,90 198,6266 199,841 200,40
210,540 211,70 224,801 225,160
226,30 238,270 239,50 240,30
252,130 253,510 254,120
##END=
