##TITLE=Pentanamide, N,N-bis(2-ethylhexyl)-5-bromo-
##JCAMP-DX=4.24
##DATA TYPE=MASS SPECTRUM
##ORIGIN=Zaikin V.G., TIPS RAS, Moscow, Russia
##OWNER=NIST Mass Spectrometry Data Center
Collection (C) 2014 copyright by the U.S. Secretary of Commerce
on behalf of the United States of America. All rights reserved.
##$NIST MASS SPEC NO=308262
##MOLFORM=C21 H42 Br N O
##MW=403
##$NIST SOURCE=MSDC
##XUNITS=M/Z
##YUNITS=RELATIVE INTENSITY
##XFACTOR=1
##YFACTOR=1
##FIRSTX=28
##LASTX=325
##FIRSTY=10
##MAXX=325
##MINX=28
##MAXY=9999
##MINY=10
##NPOINTS=64
##PEAK TABLE=(XY..XY)
28,10 29,20 30,90 36,50
41,90 42,30 43,160 44,781
55,340 56,40 57,250 69,90
70,50 71,150 79,30 80,40
82,40 83,40 84,40 97,30
98,40 100,60 112,50 114,80
126,50 127,30 128,430 135,120
137,120 140,50 142,9999 143,951
144,30 156,440 157,40 163,130
165,120 168,20 170,370 171,30
180,30 182,30 184,100 194,30
198,40 206,130 207,60 208,130
212,200 224,80 226,30 240,210
241,30 268,1071 269,180 292,80
294,70 296,140 304,1461 305,200
306,1411 307,210 324,310 325,50
##END=
