##TITLE=2,3,4-Trifluorobenzoic acid, 4-nitrophenyl ester
##JCAMP-DX=4.24
##DATA TYPE=MASS SPECTRUM
##ORIGIN=Zaikin V.G., TIPS RAS, Moscow, Russia
##OWNER=NIST Mass Spectrometry Data Center
Collection (C) 2014 copyright by the U.S. Secretary of Commerce
on behalf of the United States of America. All rights reserved.
##$NIST MASS SPEC NO=308036
##MOLFORM=C13 H6 F3 N O4
##MW=297
##$NIST SOURCE=MSDC
##XUNITS=M/Z
##YUNITS=RELATIVE INTENSITY
##XFACTOR=1
##YFACTOR=1
##FIRSTX=30
##LASTX=297
##FIRSTY=30
##MAXX=297
##MINX=30
##MAXY=9999
##MINY=30
##NPOINTS=13
##PEAK TABLE=(XY..XY)
30,30 62,30 63,70 64,40
81,390 112,40 130,40 131,1181
132,90 159,9999 160,681 161,40
297,30
##END=
