##TITLE=Nicotinic acid, 1-cyclopentylethyl ester
##JCAMP-DX=4.24
##DATA TYPE=MASS SPECTRUM
##ORIGIN=Zaikin V.G., TIPS RAS, Moscow, Russia
##OWNER=NIST Mass Spectrometry Data Center
Collection (C) 2014 copyright by the U.S. Secretary of Commerce
on behalf of the United States of America. All rights reserved.
##$NIST MASS SPEC NO=308367
##MOLFORM=C13 H17 N O2
##MW=219
##$NIST SOURCE=MSDC
##XUNITS=M/Z
##YUNITS=RELATIVE INTENSITY
##XFACTOR=1
##YFACTOR=1
##FIRSTX=26
##LASTX=219
##FIRSTY=150
##MAXX=219
##MINX=26
##MAXY=9999
##MINY=20
##NPOINTS=61
##PEAK TABLE=(XY..XY)
26,150 27,460 28,20 29,460
35,40 36,300 38,130 39,701
40,140 41,1421 42,140 43,430
44,280 45,100 49,30 50,410
51,1722 52,360 53,380 54,240
55,2672 56,120 57,40 65,120
66,360 67,2953 68,540 69,420
70,20 71,30 75,30 76,60
77,290 78,3863 79,941 80,110
81,861 82,60 91,50 94,50
95,160 96,2923 97,591 105,210
106,9999 107,701 108,120 113,30
123,240 124,4354 125,280 134,400
135,30 146,20 147,80 150,320
151,130 175,140 176,60 218,230
219,30
##END=
