##TITLE=Dichloroacetamide, N,N-dinonyl-
##JCAMP-DX=4.24
##DATA TYPE=MASS SPECTRUM
##ORIGIN=Zaikin V.G., TIPS RAS, Moscow, Russia
##OWNER=NIST Mass Spectrometry Data Center
Collection (C) 2014 copyright by the U.S. Secretary of Commerce
on behalf of the United States of America. All rights reserved.
##$NIST MASS SPEC NO=308638
##MOLFORM=C20 H39 Cl2 N O
##MW=379
##$NIST SOURCE=MSDC
##XUNITS=M/Z
##YUNITS=RELATIVE INTENSITY
##XFACTOR=1
##YFACTOR=1
##FIRSTX=24
##LASTX=380
##FIRSTY=30
##MAXX=380
##MINX=24
##MAXY=9999
##MINY=20
##NPOINTS=168
##PEAK TABLE=(XY..XY)
24,30 25,130 26,711 27,1842
28,971 29,2422 30,831 35,400
36,1171 37,240 38,581 39,1641
40,360 41,5585 42,2252 43,6886
44,2632 45,50 47,120 48,160
49,190 50,150 51,160 52,100
53,430 54,470 55,4024 56,1742
57,2983 58,330 63,30 64,30
65,80 66,50 67,581 68,390
69,2402 70,1101 71,1912 72,260
73,50 75,40 76,300 77,230
78,140 79,150 80,70 81,340
82,330 83,1531 84,761 85,1331
86,150 90,30 91,90 92,40
93,60 94,90 95,170 96,210
97,180 98,540 99,230 100,60
105,40 106,250 107,50 108,120
109,40 110,110 111,70 112,470
113,120 114,40 118,30 119,70
120,651 121,70 122,210 123,20
124,110 125,30 126,350 127,60
128,130 130,60 132,40 134,30
138,30 140,550 141,90 142,540
143,30 144,230 146,70 148,30
152,40 154,5465 155,380 156,3543
157,230 158,460 168,270 169,60
170,681 171,60 174,30 182,350
183,50 184,2612 185,310 186,30
188,60 190,60 196,320 197,40
198,110 210,190 211,60 212,60
218,370 219,30 220,260 222,90
224,160 225,40 226,100 230,180
232,1041 233,130 234,290 235,30
238,80 244,30 246,40 252,80
254,350 255,30 256,210 258,60
260,50 266,1541 267,200 268,1181
269,150 270,140 280,120 281,30
282,40 294,631 295,130 296,9999
297,2112 298,220 308,340 309,60
310,200 311,30 316,100 318,30
330,450 331,80 332,140 344,3153
345,691 346,1081 347,210 380,30
##END=
