##TITLE=2-Thiopheneacetamide, N,N-diheptyl-
##JCAMP-DX=4.24
##DATA TYPE=MASS SPECTRUM
##ORIGIN=Zaikin V.G., TIPS RAS, Moscow, Russia
##OWNER=NIST Mass Spectrometry Data Center
Collection (C) 2014 copyright by the U.S. Secretary of Commerce
on behalf of the United States of America. All rights reserved.
##$NIST MASS SPEC NO=308140
##MOLFORM=C20 H35 N O S
##MW=337
##$NIST SOURCE=MSDC
##XUNITS=M/Z
##YUNITS=RELATIVE INTENSITY
##XFACTOR=1
##YFACTOR=1
##FIRSTX=29
##LASTX=339
##FIRSTY=110
##MAXX=339
##MINX=29
##MAXY=9999
##MINY=20
##NPOINTS=49
##PEAK TABLE=(XY..XY)
29,110 30,60 41,300 42,40
43,901 44,320 45,20 53,30
55,290 56,50 57,9999 58,460
69,50 70,30 71,90 84,40
96,30 97,1151 98,220 99,621
100,30 112,40 114,30 124,100
126,90 128,1401 129,110 142,771
143,60 154,30 156,90 168,50
212,160 238,30 239,60 240,8858
241,1541 242,130 248,40 252,170
253,120 266,40 280,50 304,30
308,20 336,60 337,1742 338,520
339,120
##END=
