##TITLE=Benzamide, N,N-diheptyl-2-trifluoromethyl-
##JCAMP-DX=4.24
##DATA TYPE=MASS SPECTRUM
##ORIGIN=Zaikin V.G., TIPS RAS, Moscow, Russia
##OWNER=NIST Mass Spectrometry Data Center
Collection (C) 2014 copyright by the U.S. Secretary of Commerce
on behalf of the United States of America. All rights reserved.
##$NIST MASS SPEC NO=308536
##MOLFORM=C22 H34 F3 N O
##MW=385
##$NIST SOURCE=MSDC
##XUNITS=M/Z
##YUNITS=RELATIVE INTENSITY
##XFACTOR=1
##YFACTOR=1
##FIRSTX=26
##LASTX=386
##FIRSTY=50
##MAXX=386
##MINX=26
##MAXY=9999
##MINY=30
##NPOINTS=86
##PEAK TABLE=(XY..XY)
26,50 27,130 28,50 29,140
30,40 39,130 40,30 41,400
42,230 43,310 44,110 50,50
51,30 53,30 54,30 55,300
56,150 57,210 67,30 69,70
70,80 75,50 76,30 77,40
84,80 95,90 96,50 98,30
125,70 126,150 127,60 130,160
134,30 144,40 145,1471 146,210
147,30 148,140 150,30 154,80
155,30 162,60 170,90 172,50
173,9999 174,791 175,50 182,170
183,50 190,50 196,70 197,50
202,170 203,110 214,30 216,671
217,360 218,60 230,160 231,60
232,200 233,30 244,120 245,40
246,60 258,170 259,30 260,30
272,70 286,60 288,50 300,711
301,280 302,40 314,160 315,30
316,921 317,220 328,140 329,30
342,90 356,70 366,90 384,320
385,260 386,60
##END=
