##TITLE=Propanamide, N,N-dihexyl-3-cyclopentyl-
##JCAMP-DX=4.24
##DATA TYPE=MASS SPECTRUM
##ORIGIN=Zaikin V.G., TIPS RAS, Moscow, Russia
##OWNER=NIST Mass Spectrometry Data Center
Collection (C) 2014 copyright by the U.S. Secretary of Commerce
on behalf of the United States of America. All rights reserved.
##$NIST MASS SPEC NO=308281
##MOLFORM=C20 H39 N O
##MW=309
##$NIST SOURCE=MSDC
##XUNITS=M/Z
##YUNITS=RELATIVE INTENSITY
##XFACTOR=1
##YFACTOR=1
##FIRSTX=26
##LASTX=310
##FIRSTY=30
##MAXX=310
##MINX=26
##MAXY=9999
##MINY=20
##NPOINTS=113
##PEAK TABLE=(XY..XY)
26,30 27,100 28,50 29,120
30,170 36,30 39,100 40,20
41,510 42,170 43,911 44,761
45,40 53,50 54,70 55,1061
56,170 57,210 58,70 60,50
67,250 68,70 69,320 70,140
71,40 72,120 73,190 74,20
77,20 79,250 80,80 81,330
82,80 83,120 84,120 85,170
86,230 87,410 88,20 91,20
95,100 96,30 97,210 98,120
99,40 100,350 101,190 102,20
107,390 108,30 109,20 111,30
112,220 113,50 114,9999 115,841
116,30 123,20 124,30 125,250
126,90 127,120 128,731 129,70
138,20 140,110 141,30 142,1061
143,310 144,110 154,60 155,30
156,6406 157,901 158,70 166,20
168,90 169,50 170,791 171,110
182,90 183,20 184,721 185,130
186,100 196,110 197,20 198,200
199,20 210,150 211,30 212,4804
213,721 214,60 224,130 225,30
226,100 227,1061 228,170 238,270
239,60 240,3193 241,561 242,40
252,130 253,20 266,360 267,60
280,240 294,60 308,150 309,150
310,70
##END=
