##TITLE=Butanamide, N,N-diundecyl-
##JCAMP-DX=4.24
##DATA TYPE=MASS SPECTRUM
##ORIGIN=Zaikin V.G., TIPS RAS, Moscow, Russia
##OWNER=NIST Mass Spectrometry Data Center
Collection (C) 2014 copyright by the U.S. Secretary of Commerce
on behalf of the United States of America. All rights reserved.
##$NIST MASS SPEC NO=308684
##MOLFORM=C26 H53 N O
##MW=395
##$NIST SOURCE=MSDC
##XUNITS=M/Z
##YUNITS=RELATIVE INTENSITY
##XFACTOR=1
##YFACTOR=1
##FIRSTX=25
##LASTX=396
##FIRSTY=30
##MAXX=396
##MINX=25
##MAXY=9999
##MINY=20
##NPOINTS=121
##PEAK TABLE=(XY..XY)
25,30 26,180 27,420 28,140
29,360 30,240 36,40 37,40
38,60 39,420 40,100 41,1091
42,460 43,1892 44,1111 45,30
50,30 51,30 53,90 54,110
55,811 56,490 57,701 58,120
67,140 68,90 69,410 70,450
71,991 72,110 73,100 79,40
81,90 82,70 83,170 84,270
85,150 86,100 87,150 88,90
91,30 95,60 96,60 97,100
98,200 99,90 100,220 101,190
109,30 110,30 111,40 112,190
113,70 114,220 115,220 126,150
127,30 128,170 129,70 140,130
141,20 142,180 143,40 154,100
156,240 157,30 168,70 170,220
171,40 182,290 183,40 184,9999
185,1241 186,80 196,50 198,821
199,110 210,90 212,1321 213,220
224,40 225,30 226,410 227,70
238,60 239,30 240,280 241,80
242,220 243,30 252,60 253,30
254,791 255,170 266,50 268,310
269,60 280,30 282,470 283,90
296,290 297,60 310,240 311,50
322,30 324,561 325,140 336,50
338,210 339,50 350,40 352,4864
353,1191 354,160 366,140 367,30
380,170 381,40 394,190 395,130
396,40
##END=
