##TITLE=Benzamide, N-heptyl-N-octyl-4-trifluoromethyl-
##JCAMP-DX=4.24
##DATA TYPE=MASS SPECTRUM
##ORIGIN=Zaikin V.G., TIPS RAS, Moscow, Russia
##OWNER=NIST Mass Spectrometry Data Center
Collection (C) 2014 copyright by the U.S. Secretary of Commerce
on behalf of the United States of America. All rights reserved.
##$NIST MASS SPEC NO=308253
##MOLFORM=C23 H36 F3 N O
##MW=399
##$NIST SOURCE=MSDC
##XUNITS=M/Z
##YUNITS=RELATIVE INTENSITY
##XFACTOR=1
##YFACTOR=1
##FIRSTX=28
##LASTX=401
##FIRSTY=20
##MAXX=401
##MINX=28
##MAXY=9999
##MINY=20
##NPOINTS=65
##PEAK TABLE=(XY..XY)
28,20 41,60 43,80 44,40
55,90 56,30 57,120 69,60
70,20 83,20 97,30 126,120
128,50 140,80 141,30 142,50
145,771 146,50 154,30 156,60
159,50 170,50 173,9999 174,901
175,40 190,160 202,280 203,230
204,30 216,2122 217,761 218,70
226,70 230,220 231,90 244,370
245,100 254,180 258,300 259,60
271,80 272,110 285,90 286,210
287,40 288,80 300,3083 301,771
302,160 314,3103 315,821 316,90
328,370 329,80 342,210 343,50
356,140 357,30 370,140 380,120
384,40 398,1752 399,1722 400,420
401,40
##END=
