##TITLE=Cyclopropanecarboxamide, N,N-dioctyl-
##JCAMP-DX=4.24
##DATA TYPE=MASS SPECTRUM
##ORIGIN=Zaikin V.G., TIPS RAS, Moscow, Russia
##OWNER=NIST Mass Spectrometry Data Center
Collection (C) 2014 copyright by the U.S. Secretary of Commerce
on behalf of the United States of America. All rights reserved.
##$NIST MASS SPEC NO=308582
##MOLFORM=C20 H39 N O
##MW=309
##$NIST SOURCE=MSDC
##XUNITS=M/Z
##YUNITS=RELATIVE INTENSITY
##XFACTOR=1
##YFACTOR=1
##FIRSTX=25
##LASTX=310
##FIRSTY=30
##MAXX=310
##MINX=25
##MAXY=9999
##MINY=20
##NPOINTS=91
##PEAK TABLE=(XY..XY)
25,30 26,160 27,420 28,220
29,550 30,230 36,50 37,30
38,60 39,561 40,140 41,2542
42,581 43,1161 44,891 53,90
54,80 55,711 56,400 57,591
58,100 67,100 68,200 69,5515
70,601 71,230 72,40 79,20
81,50 82,70 83,80 84,300
85,60 86,80 96,70 97,50
98,530 99,340 100,80 110,70
111,50 112,881 113,941 114,90
124,40 126,370 127,210 128,110
138,70 140,661 141,210 142,9999
143,1021 144,40 152,70 154,480
155,170 156,250 166,50 168,330
169,100 170,230 181,40 182,250
183,40 184,50 196,250 197,50
198,210 210,5165 211,1031 212,160
224,440 225,80 226,30 238,591
239,130 240,460 241,70 252,550
253,100 266,410 267,70 268,430
269,80 280,200 281,30 294,90
308,80 309,500 310,130
##END=
