##TITLE=Benzamide, N-ethyl-N-(3-methylphenyl)-2-fluoro-
##JCAMP-DX=4.24
##DATA TYPE=MASS SPECTRUM
##ORIGIN=Zaikin V.G., TIPS RAS, Moscow, Russia
##OWNER=NIST Mass Spectrometry Data Center
Collection (C) 2014 copyright by the U.S. Secretary of Commerce
on behalf of the United States of America. All rights reserved.
##$NIST MASS SPEC NO=308093
##MOLFORM=C16 H16 F N O
##MW=257
##$NIST SOURCE=MSDC
##XUNITS=M/Z
##YUNITS=RELATIVE INTENSITY
##XFACTOR=1
##YFACTOR=1
##FIRSTX=42
##LASTX=258
##FIRSTY=30
##MAXX=258
##MINX=42
##MAXY=9999
##MINY=30
##NPOINTS=33
##PEAK TABLE=(XY..XY)
42,30 65,110 75,170 77,50
91,290 92,30 94,30 95,1491
96,90 118,170 119,220 120,30
122,350 123,9999 124,781 125,30
132,40 133,30 134,490 135,50
140,60 150,1031 151,100 165,30
229,270 230,30 237,110 238,310
239,40 242,80 256,520 257,2282
258,370
##END=
