##TITLE=Propanamide, N,N-diundecyl-3-phenyl-
##JCAMP-DX=4.24
##DATA TYPE=MASS SPECTRUM
##ORIGIN=Zaikin V.G., TIPS RAS, Moscow, Russia
##OWNER=NIST Mass Spectrometry Data Center
Collection (C) 2014 copyright by the U.S. Secretary of Commerce
on behalf of the United States of America. All rights reserved.
##$NIST MASS SPEC NO=308222
##MOLFORM=C31 H55 N O
##MW=457
##$NIST SOURCE=MSDC
##XUNITS=M/Z
##YUNITS=RELATIVE INTENSITY
##XFACTOR=1
##YFACTOR=1
##FIRSTX=28
##LASTX=459
##FIRSTY=40
##MAXX=459
##MINX=28
##MAXY=9999
##MINY=30
##NPOINTS=99
##PEAK TABLE=(XY..XY)
28,40 30,120 41,50 43,250
44,881 55,130 56,30 57,330
58,70 69,90 70,30 71,140
72,40 83,70 84,30 85,90
86,50 91,671 97,70 100,60
104,150 105,811 106,130 112,30
114,30 128,30 131,60 132,30
133,290 163,260 170,180 172,30
176,120 177,360 182,100 184,8438
185,1101 186,50 190,100 191,100
198,971 199,120 204,120 205,60
212,1692 213,240 218,170 219,30
226,200 228,50 230,100 232,110
233,30 240,160 246,60 254,260
260,90 268,100 274,70 282,110
288,80 296,110 302,120 303,210
304,150 310,110 316,711 317,510
318,70 324,641 325,120 326,70
330,390 331,90 344,540 345,150
352,9999 353,2492 354,310 355,30
358,340 359,80 366,310 367,70
372,300 373,80 386,350 387,100
400,380 401,90 414,300 415,70
428,280 429,60 442,90 456,470
457,3313 458,1061 459,160
##END=
