##TITLE=Acetoxyacetic acid, 5-tetradecyl ester
##JCAMP-DX=4.24
##DATA TYPE=MASS SPECTRUM
##ORIGIN=Zaikin V.G., TIPS RAS, Moscow, Russia
##OWNER=NIST Mass Spectrometry Data Center
Collection (C) 2014 copyright by the U.S. Secretary of Commerce
on behalf of the United States of America. All rights reserved.
##$NIST MASS SPEC NO=308810
##MOLFORM=C18 H34 O4
##MW=314
##$NIST SOURCE=MSDC
##XUNITS=M/Z
##YUNITS=RELATIVE INTENSITY
##XFACTOR=1
##YFACTOR=1
##FIRSTX=26
##LASTX=213
##FIRSTY=90
##MAXX=213
##MINX=26
##MAXY=9999
##MINY=20
##NPOINTS=79
##PEAK TABLE=(XY..XY)
26,90 27,280 28,20 29,711
31,30 39,300 40,60 41,1802
42,490 43,4144 44,561 45,110
51,30 53,130 54,330 55,2262
56,1211 57,3613 58,230 61,90
65,30 66,30 67,450 68,330
69,1772 70,1121 71,2292 72,140
73,2392 74,340 75,40 77,40
79,80 81,310 82,440 83,1391
84,711 85,1641 86,110 91,340
95,160 96,310 97,1091 98,430
99,480 100,100 101,9999 102,440
103,60 109,60 110,230 111,631
112,340 113,350 114,30 119,681
124,120 125,360 126,180 127,260
128,40 138,70 139,180 140,100
141,170 142,30 152,30 153,70
154,70 155,210 167,30 168,140
170,30 187,40 196,691 197,310
198,30 212,30 213,70
##END=
