##TITLE=Octanamide, N,N-diundecyl-
##JCAMP-DX=4.24
##DATA TYPE=MASS SPECTRUM
##ORIGIN=Zaikin V.G., TIPS RAS, Moscow, Russia
##OWNER=NIST Mass Spectrometry Data Center
Collection (C) 2014 copyright by the U.S. Secretary of Commerce
on behalf of the United States of America. All rights reserved.
##$NIST MASS SPEC NO=308449
##MOLFORM=C30 H61 N O
##MW=451
##$NIST SOURCE=MSDC
##XUNITS=M/Z
##YUNITS=RELATIVE INTENSITY
##XFACTOR=1
##YFACTOR=1
##FIRSTX=25
##LASTX=452
##FIRSTY=30
##MAXX=452
##MINX=25
##MAXY=9999
##MINY=20
##NPOINTS=159
##PEAK TABLE=(XY..XY)
25,30 26,210 27,440 28,180
29,450 30,320 36,100 37,30
38,90 39,450 40,110 41,1341
42,571 43,1912 44,1471 45,50
50,30 51,40 53,110 54,140
55,1261 56,681 57,2432 58,230
59,30 60,50 65,30 67,250
68,120 69,611 70,500 71,380
72,150 73,240 74,20 77,40
79,70 81,150 82,130 83,310
84,380 85,220 86,230 87,320
91,40 93,30 95,90 96,170
97,180 98,330 99,110 100,240
101,140 109,110 110,50 111,60
112,230 113,90 114,260 115,80
124,30 125,40 126,220 127,410
128,280 129,50 133,50 138,20
140,180 141,40 142,170 143,40
144,60 154,140 155,30 156,160
157,50 168,110 169,20 170,280
171,80 172,20 182,450 183,70
184,9999 185,1411 186,80 191,60
193,30 196,90 197,90 198,861
199,120 210,170 211,30 212,1772
213,420 214,120 224,90 226,4694
227,861 228,90 238,90 239,40
240,721 241,130 252,100 253,40
254,621 255,120 266,80 267,30
268,410 269,80 280,70 281,40
282,360 283,70 294,80 296,390
297,100 298,220 299,40 308,50
310,611 311,160 322,100 324,871
325,230 326,60 336,50 338,520
339,120 350,140 351,40 352,8768
353,2322 354,300 355,60 364,40
366,220 367,240 368,50 378,50
380,1601 381,430 382,60 394,470
395,130 408,400 409,100 422,370
423,120 436,150 437,40 449,30
450,651 451,320 452,90
##END=
