##TITLE=Benzamide, N-heptyl-N-octyl-2-fluoro-
##JCAMP-DX=4.24
##DATA TYPE=MASS SPECTRUM
##ORIGIN=Zaikin V.G., TIPS RAS, Moscow, Russia
##OWNER=NIST Mass Spectrometry Data Center
Collection (C) 2014 copyright by the U.S. Secretary of Commerce
on behalf of the United States of America. All rights reserved.
##$NIST MASS SPEC NO=308098
##MOLFORM=C22 H36 F N O
##MW=349
##$NIST SOURCE=MSDC
##XUNITS=M/Z
##YUNITS=RELATIVE INTENSITY
##XFACTOR=1
##YFACTOR=1
##FIRSTX=28
##LASTX=351
##FIRSTY=10
##MAXX=351
##MINX=28
##MAXY=9999
##MINY=10
##NPOINTS=76
##PEAK TABLE=(XY..XY)
28,10 36,30 41,40 43,60
44,30 55,60 57,70 69,30
95,260 122,40 123,9999 124,791
125,40 126,60 128,40 140,170
142,40 146,100 147,40 148,40
152,280 153,250 154,50 156,40
160,100 161,70 166,1371 167,711
168,80 174,30 180,200 181,80
188,40 194,310 195,80 208,330
209,90 221,40 222,140 226,100
230,180 231,90 232,40 235,50
236,240 237,30 238,110 244,440
245,150 246,60 250,2672 251,751
252,180 254,90 258,260 259,60
264,2742 265,741 266,80 278,390
279,80 292,260 293,50 306,190
307,40 309,100 320,200 321,40
329,110 330,380 331,80 334,60
348,1281 349,1772 350,470 351,50
##END=
