##TITLE=Benzamide, N-ethyl-N-(3-methylphenyl)-3-methyl-
##JCAMP-DX=4.24
##DATA TYPE=MASS SPECTRUM
##ORIGIN=Zaikin V.G., TIPS RAS, Moscow, Russia
##OWNER=NIST Mass Spectrometry Data Center
Collection (C) 2014 copyright by the U.S. Secretary of Commerce
on behalf of the United States of America. All rights reserved.
##$NIST MASS SPEC NO=308555
##MOLFORM=C17 H19 N O
##MW=253
##$NIST SOURCE=MSDC
##XUNITS=M/Z
##YUNITS=RELATIVE INTENSITY
##XFACTOR=1
##YFACTOR=1
##FIRSTX=26
##LASTX=255
##FIRSTY=60
##MAXX=255
##MINX=26
##MAXY=9999
##MINY=10
##NPOINTS=56
##PEAK TABLE=(XY..XY)
26,60 27,80 28,10 29,40
36,130 38,70 39,260 40,30
41,120 42,30 44,100 50,90
51,160 52,70 53,30 62,50
63,200 64,70 65,1121 66,70
76,30 77,170 78,80 79,60
89,310 90,280 91,4424 92,420
93,30 104,60 105,50 106,30
107,30 116,30 117,60 118,450
119,9999 120,1011 121,60 128,30
132,60 133,100 134,260 135,110
136,160 146,300 147,30 149,50
165,40 224,30 225,130 238,70
252,861 253,2572 254,490 255,40
##END=
