##TITLE=Isonicotinamide, N,N-dinonyl-
##JCAMP-DX=4.24
##DATA TYPE=MASS SPECTRUM
##ORIGIN=Zaikin V.G., TIPS RAS, Moscow, Russia
##OWNER=NIST Mass Spectrometry Data Center
Collection (C) 2014 copyright by the U.S. Secretary of Commerce
on behalf of the United States of America. All rights reserved.
##$NIST MASS SPEC NO=308646
##MOLFORM=C24 H42 N2 O
##MW=374
##$NIST SOURCE=MSDC
##XUNITS=M/Z
##YUNITS=RELATIVE INTENSITY
##XFACTOR=1
##YFACTOR=1
##FIRSTX=25
##LASTX=376
##FIRSTY=50
##MAXX=376
##MINX=25
##MAXY=9999
##MINY=30
##NPOINTS=127
##PEAK TABLE=(XY..XY)
25,50 26,340 27,641 28,250
29,631 30,180 37,40 38,150
39,490 40,110 41,1351 42,691
43,1361 44,530 50,150 51,410
52,140 53,130 54,110 55,871
56,450 57,440 58,40 65,40
67,150 68,80 69,380 70,280
71,150 73,30 77,110 78,2182
79,430 80,110 81,100 82,60
83,160 84,200 85,90 91,40
92,80 93,110 95,60 96,70
97,50 98,80 105,80 106,9999
107,831 108,90 109,30 112,80
119,50 120,50 121,40 122,70
123,290 124,30 126,60 130,30
133,70 134,30 135,581 136,310
137,130 147,80 148,40 149,3393
150,731 151,70 154,240 156,90
161,50 163,240 164,90 170,30
175,60 177,380 178,80 182,70
184,470 185,50 189,80 190,80
191,360 192,70 193,30 203,80
204,30 205,160 206,130 217,50
219,110 232,120 233,60 245,30
247,380 248,80 249,340 250,50
259,50 261,4564 262,1191 263,140
266,30 268,100 273,50 275,510
276,130 282,30 289,340 290,80
296,701 297,140 303,140 304,40
317,160 318,30 331,160 332,40
345,140 346,30 359,60 373,1251
374,1211 375,310 376,30
##END=
