##TITLE=Isonicotinic acid, phenylmethyl ester
##JCAMP-DX=4.24
##DATA TYPE=MASS SPECTRUM
##ORIGIN=Zaikin V.G., TIPS RAS, Moscow, Russia
##OWNER=NIST Mass Spectrometry Data Center
Collection (C) 2014 copyright by the U.S. Secretary of Commerce
on behalf of the United States of America. All rights reserved.
##$NIST MASS SPEC NO=308346
##MOLFORM=C13 H11 N O2
##MW=213
##$NIST SOURCE=MSDC
##XUNITS=M/Z
##YUNITS=RELATIVE INTENSITY
##XFACTOR=1
##YFACTOR=1
##FIRSTX=26
##LASTX=215
##FIRSTY=50
##MAXX=215
##MINX=26
##MAXY=9999
##MINY=10
##NPOINTS=44
##PEAK TABLE=(XY..XY)
26,50 27,50 28,10 38,30
39,260 41,80 44,120 49,30
50,350 51,1231 52,230 53,40
62,40 63,210 64,80 65,941
66,50 75,40 76,60 77,661
78,1661 79,1852 80,120 89,661
90,2062 91,8047 92,611 105,370
106,7537 107,1201 108,290 123,70
166,30 167,190 168,460 169,80
184,30 185,50 195,641 196,90
212,1661 213,9999 214,1341 215,120
##END=
