##TITLE=Pentanamide, N,N-dihexyl-
##JCAMP-DX=4.24
##DATA TYPE=MASS SPECTRUM
##ORIGIN=Zaikin V.G., TIPS RAS, Moscow, Russia
##OWNER=NIST Mass Spectrometry Data Center
Collection (C) 2014 copyright by the U.S. Secretary of Commerce
on behalf of the United States of America. All rights reserved.
##$NIST MASS SPEC NO=308180
##MOLFORM=C17 H35 N O
##MW=269
##$NIST SOURCE=MSDC
##XUNITS=M/Z
##YUNITS=RELATIVE INTENSITY
##XFACTOR=1
##YFACTOR=1
##FIRSTX=29
##LASTX=270
##FIRSTY=140
##MAXX=270
##MINX=29
##MAXY=9999
##MINY=20
##NPOINTS=53
##PEAK TABLE=(XY..XY)
29,140 30,160 41,230 42,40
43,530 44,821 55,130 56,50
57,711 58,80 70,50 72,60
73,150 83,20 84,60 85,661
86,180 87,330 98,40 100,260
101,140 102,40 112,90 114,9999
115,821 126,30 127,40 128,751
129,120 140,40 142,991 143,310
144,40 156,2462 157,350 170,460
171,60 184,410 185,70 186,90
198,500 199,90 212,3013 213,410
226,260 227,350 228,40 240,931
241,130 254,70 268,50 269,300
270,140
##END=
