##TITLE=Isonicotinic acid, 2,2-dimethylpropyl ester
##JCAMP-DX=4.24
##DATA TYPE=MASS SPECTRUM
##ORIGIN=Zaikin V.G., TIPS RAS, Moscow, Russia
##OWNER=NIST Mass Spectrometry Data Center
Collection (C) 2014 copyright by the U.S. Secretary of Commerce
on behalf of the United States of America. All rights reserved.
##$NIST MASS SPEC NO=308335
##MOLFORM=C11 H15 N O2
##MW=193
##$NIST SOURCE=MSDC
##XUNITS=M/Z
##YUNITS=RELATIVE INTENSITY
##XFACTOR=1
##YFACTOR=1
##FIRSTX=26
##LASTX=194
##FIRSTY=160
##MAXX=194
##MINX=26
##MAXY=9999
##MINY=30
##NPOINTS=56
##PEAK TABLE=(XY..XY)
26,160 27,741 28,40 29,1872
30,30 35,30 39,931 40,150
41,3323 42,330 43,1301 44,260
45,40 49,50 50,971 51,3603
52,561 53,250 54,50 55,1421
56,801 57,9999 58,420 67,30
69,110 70,821 71,140 75,40
76,90 77,200 78,5025 79,4644
80,310 91,30 93,80 105,110
106,9238 107,7116 108,550 109,30
119,60 120,100 123,360 124,851
125,50 135,741 136,90 137,500
138,1511 139,110 163,80 178,530
179,50 192,40 193,1001 194,120
##END=
