##TITLE=Propanamide, N,N-dibutyl-2-methyl-
##JCAMP-DX=4.24
##DATA TYPE=MASS SPECTRUM
##ORIGIN=Zaikin V.G., TIPS RAS, Moscow, Russia
##OWNER=NIST Mass Spectrometry Data Center
Collection (C) 2014 copyright by the U.S. Secretary of Commerce
on behalf of the United States of America. All rights reserved.
##$NIST MASS SPEC NO=308081
##MOLFORM=C12 H25 N O
##MW=199
##$NIST SOURCE=MSDC
##XUNITS=M/Z
##YUNITS=RELATIVE INTENSITY
##XFACTOR=1
##YFACTOR=1
##FIRSTX=27
##LASTX=200
##FIRSTY=50
##MAXX=200
##MINX=27
##MAXY=9999
##MINY=30
##NPOINTS=28
##PEAK TABLE=(XY..XY)
27,50 29,240 30,140 41,470
42,90 43,2132 44,561 57,1011
70,50 71,1441 72,200 73,90
84,50 86,9999 87,510 100,1251
101,290 114,470 115,220 128,240
142,70 143,30 156,2072 157,190
170,50 184,30 199,1051 200,60
##END=
