##TITLE=Cyclobutanecarboxamide, N-heptyl-N-octyl-
##JCAMP-DX=4.24
##DATA TYPE=MASS SPECTRUM
##ORIGIN=Zaikin V.G., TIPS RAS, Moscow, Russia
##OWNER=NIST Mass Spectrometry Data Center
Collection (C) 2014 copyright by the U.S. Secretary of Commerce
on behalf of the United States of America. All rights reserved.
##$NIST MASS SPEC NO=308602
##MOLFORM=C20 H39 N O
##MW=309
##$NIST SOURCE=MSDC
##XUNITS=M/Z
##YUNITS=RELATIVE INTENSITY
##XFACTOR=1
##YFACTOR=1
##FIRSTX=25
##LASTX=310
##FIRSTY=70
##MAXX=310
##MINX=25
##MAXY=9999
##MINY=30
##NPOINTS=115
##PEAK TABLE=(XY..XY)
25,70 26,490 27,1081 28,460
29,1161 30,420 35,80 36,460
37,60 38,270 39,1051 40,250
41,2332 42,1091 43,2032 44,2382
45,50 50,130 51,150 52,100
53,520 54,410 55,9999 56,1291
57,1571 58,210 65,40 67,230
68,180 69,510 70,651 71,330
72,200 73,60 75,30 77,60
79,110 80,40 81,180 82,370
83,3163 84,791 85,230 86,120
91,40 93,30 95,50 96,140
97,100 98,781 99,280 100,190
102,40 110,110 111,50 112,711
113,400 114,210 124,110 125,30
126,1121 127,380 128,8027 129,751
130,80 135,60 138,90 140,1011
141,210 142,7977 143,811 144,30
147,30 152,60 154,520 155,120
156,1101 157,110 159,30 166,30
168,601 169,110 170,621 171,70
180,30 182,671 183,140 184,160
194,30 196,681 197,140 198,260
200,30 210,981 211,190 212,210
224,1001 225,190 226,1001 227,160
238,991 239,150 252,631 253,100
254,3723 255,671 256,50 266,290
267,50 280,530 281,130 294,120
308,80 309,260 310,80
##END=
