##TITLE=Phthalic acid, hexyl heptyl ester
##JCAMP-DX=4.24
##DATA TYPE=MASS SPECTRUM
##ORIGIN=Zaikin V.G., Institute of Petrochemical Synthesis RAS
##OWNER=NIST Mass Spectrometry Data Center
Collection (C) 2014 copyright by the U.S. Secretary of Commerce
on behalf of the United States of America. All rights reserved.
##$NIST MASS SPEC NO=308938
##MOLFORM=C21 H32 O4
##MW=348
##$NIST SOURCE=MSDC
##XUNITS=M/Z
##YUNITS=RELATIVE INTENSITY
##XFACTOR=1
##YFACTOR=1
##FIRSTX=26
##LASTX=266
##FIRSTY=40
##MAXX=266
##MINX=26
##MAXY=9999
##MINY=30
##NPOINTS=42
##PEAK TABLE=(XY..XY)
26,40 27,80 28,40 29,120
39,90 41,330 42,130 43,420
44,50 50,50 54,30 55,250
56,210 57,320 65,50 67,40
68,30 69,110 70,80 76,160
77,50 83,30 84,50 85,70
93,70 98,40 104,250 105,120
121,80 122,80 123,80 148,30
149,9999 150,821 151,90 167,110
233,100 247,50 251,310 252,40
265,230 266,30
##END=
