##TITLE=Benzamide, N,N-dinonyl-4-trifluoromethyl-
##JCAMP-DX=4.24
##DATA TYPE=MASS SPECTRUM
##ORIGIN=Zaikin V.G., TIPS RAS, Moscow, Russia
##OWNER=NIST Mass Spectrometry Data Center
Collection (C) 2014 copyright by the U.S. Secretary of Commerce
on behalf of the United States of America. All rights reserved.
##$NIST MASS SPEC NO=308255
##MOLFORM=C26 H42 F3 N O
##MW=441
##$NIST SOURCE=MSDC
##XUNITS=M/Z
##YUNITS=RELATIVE INTENSITY
##XFACTOR=1
##YFACTOR=1
##FIRSTX=28
##LASTX=443
##FIRSTY=20
##MAXX=443
##MINX=28
##MAXY=9999
##MINY=20
##NPOINTS=71
##PEAK TABLE=(XY..XY)
28,20 41,60 43,150 44,70
55,100 56,50 57,130 69,90
71,30 83,40 98,30 126,30
145,510 146,40 154,290 155,30
156,170 159,40 169,50 173,9999
174,911 175,40 182,30 184,160
190,160 202,300 203,310 204,60
216,2232 217,891 218,90 230,240
231,100 244,430 245,130 258,330
259,90 268,110 272,200 273,40
286,100 296,310 297,60 299,210
300,70 314,500 315,130 316,280
317,30 328,7817 329,2442 330,340
342,641 343,170 356,390 357,110
370,190 371,60 384,230 385,50
398,210 399,50 412,190 413,50
422,130 423,40 426,80 440,2582
441,2702 442,791 443,130
##END=
