##TITLE=Dichloroacetamide, N,N-dihexyl-
##JCAMP-DX=4.24
##DATA TYPE=MASS SPECTRUM
##ORIGIN=Zaikin V.G., TIPS RAS, Moscow, Russia
##OWNER=NIST Mass Spectrometry Data Center
Collection (C) 2014 copyright by the U.S. Secretary of Commerce
on behalf of the United States of America. All rights reserved.
##$NIST MASS SPEC NO=308634
##MOLFORM=C14 H27 Cl2 N O
##MW=295
##$NIST SOURCE=MSDC
##XUNITS=M/Z
##YUNITS=RELATIVE INTENSITY
##XFACTOR=1
##YFACTOR=1
##FIRSTX=25
##LASTX=268
##FIRSTY=50
##MAXX=268
##MINX=25
##MAXY=9999
##MINY=20
##NPOINTS=145
##PEAK TABLE=(XY..XY)
25,50 26,360 27,1341 28,671
29,1692 30,691 35,300 36,1121
37,150 38,480 39,1111 40,250
41,3873 42,2072 43,6986 44,2282
45,120 47,150 48,290 49,330
50,180 51,180 52,130 53,440
54,400 55,3633 56,1621 57,1651
58,280 63,50 64,60 65,80
66,40 67,380 68,270 69,721
70,1051 71,160 72,210 73,40
74,30 75,80 76,621 77,290
78,240 79,120 80,70 81,140
82,340 83,1872 84,1031 85,3013
86,250 87,60 89,20 90,40
91,100 92,60 93,40 94,80
95,70 96,130 97,60 98,631
99,280 100,130 104,30 105,50
106,340 107,40 108,130 110,100
111,90 112,1341 113,220 114,971
115,70 118,30 119,70 120,510
121,50 122,170 124,30 126,400
127,120 128,1341 129,90 130,90
132,60 134,40 139,50 140,1171
141,190 142,4094 143,340 144,400
146,90 148,90 154,9999 155,641
156,6456 157,390 158,1021 159,60
160,80 162,30 168,130 169,40
170,90 176,440 177,30 178,200
180,30 182,90 184,380 185,40
188,120 190,1041 191,110 192,320
193,30 196,50 204,40 210,230
211,30 212,7537 213,1161 214,240
216,40 224,1581 225,180 226,951
227,90 228,140 232,70 238,60
240,40 252,90 254,60 260,2973
261,470 262,991 263,130 266,50
268,30
##END=
