##TITLE=Methanesulfonamide, N,N-bis(2-ethylhexyl)-
##JCAMP-DX=4.24
##DATA TYPE=MASS SPECTRUM
##ORIGIN=Zaikin V.G., TIPS RAS, Moscow, Russia
##OWNER=NIST Mass Spectrometry Data Center
Collection (C) 2014 copyright by the U.S. Secretary of Commerce
on behalf of the United States of America. All rights reserved.
##$NIST MASS SPEC NO=308431
##MOLFORM=C17 H37 N O2 S
##MW=319
##$NIST SOURCE=MSDC
##XUNITS=M/Z
##YUNITS=RELATIVE INTENSITY
##XFACTOR=1
##YFACTOR=1
##FIRSTX=26
##LASTX=222
##FIRSTY=40
##MAXX=222
##MINX=26
##MAXY=9999
##MINY=30
##NPOINTS=52
##PEAK TABLE=(XY..XY)
26,40 27,120 29,220 30,210
39,160 40,30 41,831 42,470
43,821 44,310 48,40 53,60
54,60 55,581 56,320 57,1221
58,80 64,110 65,30 67,70
68,60 69,571 70,240 71,861
72,70 79,170 81,50 82,50
83,50 84,150 98,150 108,851
110,100 111,300 112,500 113,70
122,9999 123,470 124,520 126,70
136,30 140,310 141,120 142,80
154,90 156,140 168,30 208,40
218,30 220,2112 221,250 222,140
##END=
