##TITLE=Cyclohexanecarboxamide, N-decyl-N-methyl-
##JCAMP-DX=4.24
##DATA TYPE=MASS SPECTRUM
##ORIGIN=Zaikin V.G., TIPS RAS, Moscow, Russia
##OWNER=NIST Mass Spectrometry Data Center
Collection (C) 2014 copyright by the U.S. Secretary of Commerce
on behalf of the United States of America. All rights reserved.
##$NIST MASS SPEC NO=308522
##MOLFORM=C18 H35 N O
##MW=281
##$NIST SOURCE=MSDC
##XUNITS=M/Z
##YUNITS=RELATIVE INTENSITY
##XFACTOR=1
##YFACTOR=1
##FIRSTX=25
##LASTX=282
##FIRSTY=60
##MAXX=282
##MINX=25
##MAXY=9999
##MINY=20
##NPOINTS=110
##PEAK TABLE=(XY..XY)
25,60 26,370 27,961 29,1081
30,130 31,30 37,60 38,80
39,1151 40,260 41,3593 42,1451
43,2542 44,9999 45,330 50,90
51,120 52,80 53,460 54,571
55,4904 56,801 57,1531 58,1011
59,70 60,60 65,90 66,70
67,891 68,240 69,430 70,470
71,500 72,220 73,761 74,60
77,100 78,40 79,210 80,60
81,400 82,260 83,8618 84,801
85,430 86,1131 87,681 88,40
95,70 96,50 97,70 98,310
99,230 100,1181 101,250 109,110
110,280 111,2142 112,651 113,230
114,811 115,110 124,50 126,410
127,80 128,340 129,40 138,50
140,300 141,190 142,681 143,70
152,30 154,1351 155,1752 156,370
157,30 166,30 168,540 169,180
170,450 171,110 172,250 173,20
182,821 183,180 184,80 196,420
197,70 198,4354 199,601 200,80
210,330 211,60 224,380 225,70
226,4044 227,641 228,40 238,380
239,120 240,430 241,90 252,310
253,70 266,420 267,70 280,170
281,841 282,170
##END=
