##TITLE=Propanamide, N-decyl-N-methyl-2-chloro-
##JCAMP-DX=4.24
##DATA TYPE=MASS SPECTRUM
##ORIGIN=Zaikin V.G., TIPS RAS, Moscow, Russia
##OWNER=NIST Mass Spectrometry Data Center
Collection (C) 2014 copyright by the U.S. Secretary of Commerce
on behalf of the United States of America. All rights reserved.
##$NIST MASS SPEC NO=308386
##MOLFORM=C14 H28 Cl N O
##MW=261
##$NIST SOURCE=MSDC
##XUNITS=M/Z
##YUNITS=RELATIVE INTENSITY
##XFACTOR=1
##YFACTOR=1
##FIRSTX=27
##LASTX=263
##FIRSTY=130
##MAXX=263
##MINX=27
##MAXY=9999
##MINY=20
##NPOINTS=81
##PEAK TABLE=(XY..XY)
27,130 29,250 39,30 41,591
42,320 43,1371 44,9999 45,220
55,631 56,190 57,1942 58,550
63,430 65,130 67,20 68,20
69,290 70,240 71,1231 72,550
73,30 81,20 83,150 84,120
85,1201 86,701 87,70 88,190
91,140 93,20 97,90 98,180
99,200 100,2602 101,350 111,40
112,120 113,70 114,220 115,30
122,831 123,20 124,220 126,70
127,20 128,180 134,7347 135,1782
136,2492 137,550 138,30 148,460
149,20 150,130 156,651 157,50
162,360 164,90 168,30 169,20
170,681 171,140 182,30 190,40
196,310 197,20 198,9348 199,1251
200,50 218,60 225,70 226,5445
227,781 228,40 232,530 233,50
234,160 260,30 261,170 262,50
263,40
##END=
