##TITLE=But-2-enamide, N-ethyl-N-(3-methylphenyl)-3-methyl-
##JCAMP-DX=4.24
##DATA TYPE=MASS SPECTRUM
##ORIGIN=Zaikin V.G., TIPS RAS, Moscow, Russia
##OWNER=NIST Mass Spectrometry Data Center
Collection (C) 2014 copyright by the U.S. Secretary of Commerce
on behalf of the United States of America. All rights reserved.
##$NIST MASS SPEC NO=308236
##MOLFORM=C14 H19 N O
##MW=217
##$NIST SOURCE=MSDC
##XUNITS=M/Z
##YUNITS=RELATIVE INTENSITY
##XFACTOR=1
##YFACTOR=1
##FIRSTX=27
##LASTX=219
##FIRSTY=80
##MAXX=219
##MINX=27
##MAXY=9999
##MINY=30
##NPOINTS=38
##PEAK TABLE=(XY..XY)
27,80 29,350 39,150 53,100
55,1491 56,50 65,160 77,100
79,40 82,30 83,6946 84,360
91,581 92,80 93,30 105,30
106,30 107,60 110,40 118,250
119,210 120,5505 121,440 132,60
133,50 134,270 135,9999 136,1021
137,30 145,60 146,40 172,80
202,470 203,50 216,30 217,3924
218,611 219,30
##END=
