##TITLE=Benzamide, N,N-dibutyl-4-fluoro-
##JCAMP-DX=4.24
##DATA TYPE=MASS SPECTRUM
##ORIGIN=Zaikin V.G., TIPS RAS, Moscow, Russia
##OWNER=NIST Mass Spectrometry Data Center
Collection (C) 2014 copyright by the U.S. Secretary of Commerce
on behalf of the United States of America. All rights reserved.
##$NIST MASS SPEC NO=308303
##MOLFORM=C15 H22 F N O
##MW=251
##$NIST SOURCE=MSDC
##XUNITS=M/Z
##YUNITS=RELATIVE INTENSITY
##XFACTOR=1
##YFACTOR=1
##FIRSTX=27
##LASTX=252
##FIRSTY=40
##MAXX=252
##MINX=27
##MAXY=9999
##MINY=30
##NPOINTS=34
##PEAK TABLE=(XY..XY)
27,40 28,30 29,80 39,30
41,80 42,80 43,40 55,30
57,60 75,130 84,60 94,40
95,1101 96,100 99,50 109,30
122,40 123,9999 124,621 125,40
140,60 152,230 153,220 166,290
167,140 179,30 194,80 208,1121
209,280 210,30 222,50 250,360
251,530 252,80
##END=
