##TITLE=2-Methylpropionic acid, 4-methoxyphenyl ester
##JCAMP-DX=4.24
##DATA TYPE=MASS SPECTRUM
##ORIGIN=Zaikin V.G., TIPS RAS, Moscow, Russia
##OWNER=NIST Mass Spectrometry Data Center
Collection (C) 2014 copyright by the U.S. Secretary of Commerce
on behalf of the United States of America. All rights reserved.
##$NIST MASS SPEC NO=308017
##MOLFORM=C11 H14 O3
##MW=194
##$NIST SOURCE=MSDC
##XUNITS=M/Z
##YUNITS=RELATIVE INTENSITY
##XFACTOR=1
##YFACTOR=1
##FIRSTX=27
##LASTX=195
##FIRSTY=60
##MAXX=195
##MINX=27
##MAXY=9999
##MINY=10
##NPOINTS=52
##PEAK TABLE=(XY..XY)
27,60 28,10 36,50 39,50
41,190 42,10 43,1441 44,50
50,10 51,10 52,30 53,30
54,10 55,10 63,80 64,30
65,40 70,10 71,280 73,40
75,20 77,50 79,10 80,20
81,170 82,10 92,30 95,110
98,30 99,220 100,10 101,40
107,50 108,30 109,2122 110,130
111,60 123,220 124,9999 125,751
126,40 127,10 128,50 133,10
134,20 135,10 139,240 141,50
156,180 158,40 194,841 195,70
##END=
