##TITLE=But-2-enamide, N,N-diheptyl-3-methyl-
##JCAMP-DX=4.24
##DATA TYPE=MASS SPECTRUM
##ORIGIN=Zaikin V.G., TIPS RAS, Moscow, Russia
##OWNER=NIST Mass Spectrometry Data Center
Collection (C) 2014 copyright by the U.S. Secretary of Commerce
on behalf of the United States of America. All rights reserved.
##$NIST MASS SPEC NO=308240
##MOLFORM=C19 H37 N O
##MW=295
##$NIST SOURCE=MSDC
##XUNITS=M/Z
##YUNITS=RELATIVE INTENSITY
##XFACTOR=1
##YFACTOR=1
##FIRSTX=29
##LASTX=297
##FIRSTY=90
##MAXX=297
##MINX=29
##MAXY=9999
##MINY=30
##NPOINTS=61
##PEAK TABLE=(XY..XY)
29,90 30,60 39,30 41,100
43,130 44,230 55,571 56,60
57,230 58,40 69,50 70,40
82,110 83,9999 84,611 85,40
98,100 112,260 113,260 114,90
126,410 127,360 128,3934 129,370
140,290 141,120 142,480 143,40
154,430 155,110 156,70 168,290
169,110 170,40 182,500 183,90
184,50 196,821 197,230 198,100
210,2182 211,661 212,380 213,60
224,1331 225,220 238,1081 239,190
240,460 241,60 252,530 253,210
266,420 267,80 280,2252 281,410
282,40 294,160 295,2152 296,671
297,90
##END=
