##TITLE=Phenylthioacetamide, N,N-diheptyl-
##JCAMP-DX=4.24
##DATA TYPE=MASS SPECTRUM
##ORIGIN=Zaikin V.G., TIPS RAS, Moscow, Russia
##OWNER=NIST Mass Spectrometry Data Center
Collection (C) 2014 copyright by the U.S. Secretary of Commerce
on behalf of the United States of America. All rights reserved.
##$NIST MASS SPEC NO=308163
##MOLFORM=C22 H37 N O S
##MW=363
##$NIST SOURCE=MSDC
##XUNITS=M/Z
##YUNITS=RELATIVE INTENSITY
##XFACTOR=1
##YFACTOR=1
##FIRSTX=29
##LASTX=365
##FIRSTY=180
##MAXX=365
##MINX=29
##MAXY=9999
##MINY=20
##NPOINTS=68
##PEAK TABLE=(XY..XY)
29,180 30,250 41,380 42,110
43,1121 44,771 45,280 55,430
56,100 57,9999 58,480 69,80
70,70 71,110 72,80 77,60
79,30 84,70 85,40 86,50
91,60 97,80 98,50 99,400
105,20 109,110 110,120 112,50
114,50 116,70 121,50 123,711
124,280 125,40 126,130 128,2102
129,160 135,50 140,30 142,581
143,40 154,30 156,180 167,150
168,90 170,621 171,50 184,50
198,50 206,80 212,320 213,40
218,60 226,80 232,170 240,4034
241,631 242,30 254,2672 255,450
278,200 279,50 306,40 330,350
331,60 363,921 364,230 365,40
##END=
