##TITLE=Bromoacetamide, N,N-dihexyl-
##JCAMP-DX=4.24
##DATA TYPE=MASS SPECTRUM
##ORIGIN=Zaikin V.G., TIPS RAS, Moscow, Russia
##OWNER=NIST Mass Spectrometry Data Center
Collection (C) 2014 copyright by the U.S. Secretary of Commerce
on behalf of the United States of America. All rights reserved.
##$NIST MASS SPEC NO=308169
##MOLFORM=C14 H28 Br N O
##MW=305
##$NIST SOURCE=MSDC
##XUNITS=M/Z
##YUNITS=RELATIVE INTENSITY
##XFACTOR=1
##YFACTOR=1
##FIRSTX=27
##LASTX=308
##FIRSTY=60
##MAXX=308
##MINX=27
##MAXY=9999
##MINY=30
##NPOINTS=79
##PEAK TABLE=(XY..XY)
27,60 28,60 29,160 30,450
41,420 42,310 43,1491 44,2132
45,30 55,520 56,230 57,430
58,120 67,30 69,80 70,160
71,40 72,420 73,40 80,30
83,310 84,190 85,450 86,230
87,30 97,40 98,110 99,30
100,240 102,150 112,250 113,40
114,6606 115,520 121,170 123,160
126,160 128,480 138,40 140,110
142,1031 143,80 150,160 152,280
154,210 156,4714 157,440 164,4514
165,210 166,4534 167,210 170,100
184,691 185,90 192,40 194,40
198,50 212,7307 213,1041 214,60
222,240 224,220 226,9999 227,1551
228,110 234,2732 235,290 236,2692
237,260 248,120 250,130 262,200
264,190 276,70 278,70 290,40
292,30 306,90 308,40
##END=
