##TITLE=Pentafluoropropanamide, N-heptyl-N-octyl-
##JCAMP-DX=4.24
##DATA TYPE=MASS SPECTRUM
##ORIGIN=Zaikin V.G., TIPS RAS, Moscow, Russia
##OWNER=NIST Mass Spectrometry Data Center
Collection (C) 2014 copyright by the U.S. Secretary of Commerce
on behalf of the United States of America. All rights reserved.
##$NIST MASS SPEC NO=308514
##MOLFORM=C18 H32 F5 N O
##MW=373
##$NIST SOURCE=MSDC
##XUNITS=M/Z
##YUNITS=RELATIVE INTENSITY
##XFACTOR=1
##YFACTOR=1
##FIRSTX=25
##LASTX=355
##FIRSTY=40
##MAXX=355
##MINX=25
##MAXY=9999
##MINY=20
##NPOINTS=109
##PEAK TABLE=(XY..XY)
25,40 26,290 27,761 28,460
29,1161 30,160 31,70 35,30
36,200 37,20 38,120 39,561
40,130 41,2672 42,961 43,2732
44,591 45,50 50,90 51,120
52,30 53,160 54,220 55,2742
56,821 57,2722 58,190 65,30
67,280 68,200 69,2182 70,561
71,571 72,130 77,40 78,60
79,70 81,190 82,100 83,220
84,220 85,70 86,40 95,50
96,100 97,761 98,240 99,60
100,160 101,60 110,40 111,290
112,150 113,30 114,130 119,410
126,140 127,30 128,210 140,130
142,320 147,100 154,50 156,1091
157,100 160,40 164,160 168,100
170,901 171,100 172,80 176,460
177,240 178,611 182,30 184,40
189,50 190,9999 191,881 192,110
198,40 202,90 204,100 205,30
216,80 218,250 224,60 226,60
230,40 232,80 252,110 254,6226
255,1091 256,100 260,80 262,430
263,30 274,1772 275,210 276,360
277,30 288,1631 289,210 302,220
316,150 330,30 344,30 354,180
355,30
##END=
