##TITLE=Benzamide, N,N-dioctyl-3-bromo-
##JCAMP-DX=4.24
##DATA TYPE=MASS SPECTRUM
##ORIGIN=Zaikin V.G., TIPS RAS, Moscow, Russia
##OWNER=NIST Mass Spectrometry Data Center
Collection (C) 2014 copyright by the U.S. Secretary of Commerce
on behalf of the United States of America. All rights reserved.
##$NIST MASS SPEC NO=308627
##MOLFORM=C23 H38 Br N O
##MW=423
##$NIST SOURCE=MSDC
##XUNITS=M/Z
##YUNITS=RELATIVE INTENSITY
##XFACTOR=1
##YFACTOR=1
##FIRSTX=25
##LASTX=426
##FIRSTY=80
##MAXX=426
##MINX=25
##MAXY=9999
##MINY=30
##NPOINTS=208
##PEAK TABLE=(XY..XY)
25,80 26,500 27,1401 28,661
29,1661 30,350 35,40 36,180
37,160 38,330 39,1481 40,330
41,3873 42,2002 43,3283 44,1241
49,110 50,821 51,611 52,190
53,340 54,340 55,2112 56,1461
57,1471 58,140 61,30 62,60
63,140 64,50 65,160 66,60
67,360 68,260 69,891 70,801
71,400 72,40 73,150 74,290
75,691 76,1021 77,1822 78,430
79,530 80,701 81,500 82,831
83,210 84,530 85,170 86,30
89,110 90,100 91,510 92,110
93,60 94,30 95,100 96,100
97,90 98,280 99,80 102,140
103,200 104,340 105,3293 106,280
107,40 109,50 110,50 111,90
112,180 115,110 116,70 117,80
118,70 119,60 120,30 122,30
126,40 128,50 129,30 130,110
131,60 132,110 133,100 134,110
135,70 139,70 140,400 141,40
142,90 145,50 146,420 147,130
148,260 149,40 155,981 156,150
157,971 158,120 159,30 160,80
162,110 168,80 169,50 170,50
171,40 174,50 176,30 182,100
183,9999 184,841 185,9909 186,781
187,30 188,40 190,30 191,90
193,50 200,250 202,260 212,300
213,180 214,330 215,160 216,30
224,30 226,751 227,340 228,741
229,300 230,30 232,160 234,30
238,30 240,260 241,50 242,190
243,50 244,170 245,50 246,961
247,170 254,190 255,50 256,190
257,40 258,120 260,200 261,30
266,40 267,50 268,310 269,60
270,270 271,40 272,30 274,110
280,40 282,140 283,70 284,140
288,70 296,60 298,50 302,70
310,180 311,30 312,310 313,50
314,130 322,30 324,1441 325,470
326,1421 327,440 328,60 338,250
339,50 340,220 341,60 342,60
343,40 344,4724 345,1181 346,140
352,340 353,60 354,310 355,80
366,170 367,30 368,160 380,200
381,30 382,180 383,30 394,120
396,120 408,30 410,30 422,1171
423,701 424,1311 425,711 426,150
##END=
