##TITLE=Propanamide, N,N-didecyl-3-cyclopentyl-
##JCAMP-DX=4.24
##DATA TYPE=MASS SPECTRUM
##ORIGIN=Zaikin V.G., TIPS RAS, Moscow, Russia
##OWNER=NIST Mass Spectrometry Data Center
Collection (C) 2014 copyright by the U.S. Secretary of Commerce
on behalf of the United States of America. All rights reserved.
##$NIST MASS SPEC NO=308288
##MOLFORM=C28 H55 N O
##MW=421
##$NIST SOURCE=MSDC
##XUNITS=M/Z
##YUNITS=RELATIVE INTENSITY
##XFACTOR=1
##YFACTOR=1
##FIRSTX=26
##LASTX=423
##FIRSTY=100
##MAXX=423
##MINX=26
##MAXY=9999
##MINY=10
##NPOINTS=196
##PEAK TABLE=(XY..XY)
26,100 27,200 28,10 29,250
30,300 36,70 38,40 39,210
40,100 41,791 42,250 43,1181
44,1621 45,110 50,20 51,30
52,20 53,80 54,110 55,1641
56,420 57,881 58,140 60,110
65,30 66,30 67,420 68,140
69,711 70,330 71,350 72,160
73,310 74,40 77,60 78,30
79,340 80,110 81,480 82,150
83,330 84,230 85,280 86,270
87,400 88,20 91,60 93,50
94,30 95,230 96,220 97,410
98,220 99,100 100,260 101,160
105,40 107,440 108,50 109,100
110,50 111,100 112,190 113,80
114,280 115,80 119,30 121,40
122,30 123,90 124,60 125,310
126,200 127,60 128,300 129,50
131,20 133,80 135,30 136,20
137,40 138,30 139,30 140,120
141,40 142,190 143,40 147,30
149,30 151,30 152,30 153,20
154,110 155,60 156,310 157,60
158,20 163,20 165,20 166,40
167,30 168,380 169,70 170,9999
171,1301 172,70 177,40 179,20
180,20 182,100 183,160 184,781
185,100 189,30 191,130 192,10
193,50 194,30 196,180 197,40
198,1591 199,390 200,190 201,20
210,160 211,30 212,8918 213,1531
214,140 222,20 224,130 225,50
226,941 227,160 236,20 238,110
239,40 240,591 241,120 252,110
253,20 254,380 255,70 265,30
266,70 267,80 268,360 269,70
278,30 280,180 281,410 282,490
283,190 292,20 294,330 295,90
296,891 297,200 298,80 306,30
308,190 309,40 310,170 311,30
322,480 323,120 324,8898 325,2202
326,260 327,20 334,20 336,250
337,70 338,50 339,751 340,180
341,40 350,210 351,50 352,3633
353,941 354,110 355,60 356,20
364,180 365,40 378,240 379,60
392,230 393,70 406,110 407,30
419,20 421,530 422,250 423,70
##END=
