##TITLE=Octanamide, N,N-dinonyl-
##JCAMP-DX=4.24
##DATA TYPE=MASS SPECTRUM
##ORIGIN=Zaikin V.G., TIPS RAS, Moscow, Russia
##OWNER=NIST Mass Spectrometry Data Center
Collection (C) 2014 copyright by the U.S. Secretary of Commerce
on behalf of the United States of America. All rights reserved.
##$NIST MASS SPEC NO=308447
##MOLFORM=C26 H53 N O
##MW=395
##$NIST SOURCE=MSDC
##XUNITS=M/Z
##YUNITS=RELATIVE INTENSITY
##XFACTOR=1
##YFACTOR=1
##FIRSTX=25
##LASTX=397
##FIRSTY=20
##MAXX=397
##MINX=25
##MAXY=9999
##MINY=10
##NPOINTS=171
##PEAK TABLE=(XY..XY)
25,20 26,130 27,360 28,180
29,450 30,280 36,40 37,20
38,60 39,370 40,90 41,1281
42,530 43,1782 44,1231 45,40
50,20 51,30 52,20 53,100
54,110 55,1091 56,591 57,2062
58,200 59,20 60,40 65,20
66,10 67,190 68,90 69,470
70,430 71,380 72,150 73,210
74,20 77,20 79,50 80,20
81,110 82,110 83,250 84,350
85,240 86,240 87,320 88,20
91,20 93,20 94,10 95,60
96,60 97,100 98,320 99,110
100,260 101,150 102,10 105,10
107,10 108,10 109,90 110,40
111,30 112,240 113,90 114,270
115,80 123,10 124,20 125,30
126,230 127,440 128,270 129,50
133,10 138,10 140,150 141,40
142,310 143,60 144,80 152,10
154,360 155,60 156,9999 157,1171
158,70 168,110 169,90 170,811
171,130 172,10 182,150 183,30
184,1521 185,370 186,100 191,10
193,10 196,80 197,10 198,4074
199,691 200,60 207,170 208,30
209,20 210,100 211,50 212,831
213,140 214,10 224,100 225,40
226,691 227,130 228,10 238,80
239,10 240,400 241,70 252,40
253,30 254,330 255,60 266,70
267,10 268,801 269,190 270,230
271,40 280,40 281,50 282,450
283,110 284,10 294,120 295,30
296,7417 297,1581 298,180 299,10
308,30 310,440 311,290 312,50
322,30 324,1661 325,410 326,40
336,10 338,420 339,100 340,10
350,10 352,450 353,110 354,10
364,10 366,460 367,130 368,10
380,150 381,40 393,10 394,390
395,270 396,120 397,20
##END=
