##TITLE=Propanamide, N,N-bis(2-ethylhexyl)-2-chloro-
##JCAMP-DX=4.24
##DATA TYPE=MASS SPECTRUM
##ORIGIN=Zaikin V.G., TIPS RAS, Moscow, Russia
##OWNER=NIST Mass Spectrometry Data Center
Collection (C) 2014 copyright by the U.S. Secretary of Commerce
on behalf of the United States of America. All rights reserved.
##$NIST MASS SPEC NO=308387
##MOLFORM=C19 H38 Cl N O
##MW=331
##$NIST SOURCE=MSDC
##XUNITS=M/Z
##YUNITS=RELATIVE INTENSITY
##XFACTOR=1
##YFACTOR=1
##FIRSTX=28
##LASTX=332
##FIRSTY=40
##MAXX=332
##MINX=28
##MAXY=9999
##MINY=20
##NPOINTS=83
##PEAK TABLE=(XY..XY)
28,40 29,110 30,160 36,90
41,220 42,80 43,460 44,1251
55,280 56,70 57,691 58,30
63,120 65,20 69,490 70,180
71,550 72,30 79,50 80,110
82,120 83,70 84,80 85,20
86,60 91,30 97,20 98,80
100,70 108,70 110,20 111,180
112,90 113,40 120,410 121,50
122,440 124,90 126,30 128,50
134,9999 135,631 136,3403 137,190
140,180 142,1231 143,110 154,110
156,661 157,50 168,100 170,771
171,60 180,20 183,20 184,370
185,20 196,170 197,30 198,140
218,30 220,671 221,50 222,190
232,4754 233,641 234,1621 235,190
236,20 238,20 240,120 266,90
268,3163 269,571 270,40 274,20
288,20 296,1531 297,330 298,20
302,60 331,50 332,20
##END=
