##TITLE=Benzamide, N-decyl-N-methyl-4-ethyl-
##JCAMP-DX=4.24
##DATA TYPE=MASS SPECTRUM
##ORIGIN=Zaikin V.G., TIPS RAS, Moscow, Russia
##OWNER=NIST Mass Spectrometry Data Center
Collection (C) 2014 copyright by the U.S. Secretary of Commerce
on behalf of the United States of America. All rights reserved.
##$NIST MASS SPEC NO=308546
##MOLFORM=C20 H33 N O
##MW=303
##$NIST SOURCE=MSDC
##XUNITS=M/Z
##YUNITS=RELATIVE INTENSITY
##XFACTOR=1
##YFACTOR=1
##FIRSTX=26
##LASTX=305
##FIRSTY=60
##MAXX=305
##MINX=26
##MAXY=9999
##MINY=30
##NPOINTS=74
##PEAK TABLE=(XY..XY)
26,60 27,150 28,50 29,130
39,150 40,30 41,350 42,240
43,280 44,320 50,40 51,80
53,50 55,190 56,90 57,150
58,130 63,40 65,50 69,60
70,90 76,40 77,490 78,130
79,591 80,40 84,40 89,100
90,140 91,150 102,40 103,400
104,200 105,851 106,90 107,40
118,50 119,60 131,110 132,80
133,9999 134,1021 135,120 146,60
148,50 150,40 161,30 162,350
163,190 164,80 170,50 174,30
176,1802 177,691 178,70 190,370
191,70 198,60 204,350 205,70
218,190 219,50 232,220 233,40
246,240 247,40 260,160 261,30
274,110 288,50 302,1181 303,1201
304,270 305,30
##END=
