##TITLE=Acetoxyacetic acid, heptadecyl ester
##JCAMP-DX=4.24
##DATA TYPE=MASS SPECTRUM
##ORIGIN=Zaikin V.G., TIPS RAS, Moscow, Russia
##OWNER=NIST Mass Spectrometry Data Center
Collection (C) 2014 copyright by the U.S. Secretary of Commerce
on behalf of the United States of America. All rights reserved.
##$NIST MASS SPEC NO=308321
##MOLFORM=C21 H40 O4
##MW=356
##$NIST SOURCE=MSDC
##XUNITS=M/Z
##YUNITS=RELATIVE INTENSITY
##XFACTOR=1
##YFACTOR=1
##FIRSTX=26
##LASTX=357
##FIRSTY=80
##MAXX=357
##MINX=26
##MAXY=9999
##MINY=20
##NPOINTS=141
##PEAK TABLE=(XY..XY)
26,80 27,250 28,20 29,681
31,40 36,120 38,60 39,360
40,80 41,2552 42,741 43,5525
44,540 45,50 50,30 51,40
53,180 54,621 55,4614 56,2392
57,5495 58,320 59,80 60,30
61,641 65,40 66,80 67,1031
68,1091 69,4424 70,2462 71,3443
72,300 73,1682 74,290 75,30
76,1071 77,230 78,30 79,140
80,70 81,781 82,1852 83,4934
84,1812 85,2392 86,360 90,80
91,4284 92,160 93,80 94,50
95,530 96,1151 97,4574 98,1351
99,641 100,350 101,3513 102,170
103,30 108,50 109,250 110,571
111,2562 112,901 113,440 114,360
115,30 118,921 119,9999 120,490
121,120 122,30 123,150 124,370
125,1331 126,701 127,340 128,350
129,30 134,50 135,60 136,40
137,80 138,270 139,540 140,490
141,240 142,340 143,30 151,40
152,180 153,300 154,350 155,190
156,300 157,30 159,50 166,120
167,180 168,230 169,140 170,250
171,30 180,80 181,120 182,190
183,100 184,190 185,30 194,40
195,70 196,90 197,50 198,100
199,40 210,540 211,90 213,30
216,30 230,120 236,100 237,30
238,621 239,230 240,30 244,150
255,40 258,140 272,140 283,1992
284,410 285,60 286,120 300,100
314,6756 315,1441 316,180 356,120
357,70
##END=
