##TITLE=Acetoxyacetic acid, 3-pentadecyl ester
##JCAMP-DX=4.24
##DATA TYPE=MASS SPECTRUM
##ORIGIN=Zaikin V.G., TIPS RAS, Moscow, Russia
##OWNER=NIST Mass Spectrometry Data Center
Collection (C) 2014 copyright by the U.S. Secretary of Commerce
on behalf of the United States of America. All rights reserved.
##$NIST MASS SPEC NO=308811
##MOLFORM=C19 H36 O4
##MW=328
##$NIST SOURCE=MSDC
##XUNITS=M/Z
##YUNITS=RELATIVE INTENSITY
##XFACTOR=1
##YFACTOR=1
##FIRSTX=26
##LASTX=227
##FIRSTY=230
##MAXX=227
##MINX=26
##MAXY=9999
##MINY=30
##NPOINTS=90
##PEAK TABLE=(XY..XY)
26,230 27,621 28,70 29,1561
30,60 31,110 35,50 39,601
40,140 41,3493 42,961 43,7247
44,721 45,130 50,50 51,70
52,60 53,230 54,550 55,4264
56,2272 57,5865 58,290 59,120
60,60 61,230 65,40 66,70
67,841 68,671 69,3153 70,1982
71,3503 72,330 73,3233 74,490
75,60 77,70 78,40 79,180
80,50 81,530 82,831 83,2452
84,1201 85,2142 86,130 91,1001
93,50 95,330 96,561 97,2152
98,691 99,631 100,40 101,9999
102,410 103,50 109,130 110,300
111,1141 112,440 113,360 114,30
119,2452 120,80 123,60 124,150
125,561 126,310 127,280 128,60
138,80 139,200 140,160 141,180
152,70 153,110 154,130 155,110
159,50 167,60 168,30 169,50
181,60 182,130 197,60 210,561
211,210 227,40
##END=
