##TITLE=Bromoacetamide, N,N-dinonyl-
##JCAMP-DX=4.24
##DATA TYPE=MASS SPECTRUM
##ORIGIN=Zaikin V.G., TIPS RAS, Moscow, Russia
##OWNER=NIST Mass Spectrometry Data Center
Collection (C) 2014 copyright by the U.S. Secretary of Commerce
on behalf of the United States of America. All rights reserved.
##$NIST MASS SPEC NO=308174
##MOLFORM=C20 H40 Br N O
##MW=389
##$NIST SOURCE=MSDC
##XUNITS=M/Z
##YUNITS=RELATIVE INTENSITY
##XFACTOR=1
##YFACTOR=1
##FIRSTX=29
##LASTX=390
##FIRSTY=140
##MAXX=390
##MINX=29
##MAXY=9999
##MINY=20
##NPOINTS=98
##PEAK TABLE=(XY..XY)
29,140 30,390 41,380 42,220
43,1041 44,2142 45,40 55,520
56,220 57,280 58,190 60,70
67,50 69,771 70,240 71,170
72,390 73,80 81,50 82,30
83,440 84,230 86,290 87,150
97,20 98,130 100,80 112,160
114,80 121,90 126,150 128,90
138,50 140,160 142,230 144,150
150,120 152,280 154,450 156,4544
157,480 164,3944 165,170 166,3904
167,130 168,120 169,40 170,470
171,50 182,60 184,871 185,110
186,80 196,130 198,6176 199,821
200,40 210,20 212,120 224,30
226,40 234,100 236,70 240,50
254,60 262,30 264,320 266,250
268,621 269,100 276,2242 277,270
278,2242 279,270 282,80 290,100
292,110 294,70 296,8137 297,1631
298,160 304,150 306,140 310,9999
311,2212 312,220 318,70 320,60
332,40 346,20 360,30 362,30
374,260 375,40 376,240 377,40
388,30 390,60
##END=
