##TITLE=2-Bromopropionic acid, 3,4-dichlorophenyl ester
##JCAMP-DX=4.24
##DATA TYPE=MASS SPECTRUM
##ORIGIN=Zaikin V.G., TIPS RAS, Moscow, Russia
##OWNER=NIST Mass Spectrometry Data Center
Collection (C) 2014 copyright by the U.S. Secretary of Commerce
on behalf of the United States of America. All rights reserved.
##$NIST MASS SPEC NO=308026
##MOLFORM=C9 H7 Br Cl2 O2
##MW=296
##$NIST SOURCE=MSDC
##XUNITS=M/Z
##YUNITS=RELATIVE INTENSITY
##XFACTOR=1
##YFACTOR=1
##FIRSTX=27
##LASTX=302
##FIRSTY=420
##MAXX=302
##MINX=27
##MAXY=9999
##MINY=10
##NPOINTS=71
##PEAK TABLE=(XY..XY)
27,420 28,60 36,150 38,30
39,30 44,60 51,40 52,60
55,280 56,310 57,40 62,70
63,671 64,30 65,70 73,110
74,20 75,50 77,30 79,290
80,250 81,60 82,280 83,10
91,190 92,40 93,10 97,30
98,70 99,260 101,20 106,70
107,2923 108,80 109,2512 110,90
119,280 120,60 123,110 124,20
126,70 127,40 128,40 133,490
134,1141 135,1651 136,1161 137,1321
139,20 144,150 145,230 147,90
152,230 154,10 161,80 162,9999
163,751 164,6486 165,340 166,991
167,20 189,80 191,40 241,100
243,100 296,731 297,50 298,1161
299,70 300,520 302,40
##END=
