##TITLE=Benzamide, N,N-dioctyl-4-fluoro-
##JCAMP-DX=4.24
##DATA TYPE=MASS SPECTRUM
##ORIGIN=Zaikin V.G., TIPS RAS, Moscow, Russia
##OWNER=NIST Mass Spectrometry Data Center
Collection (C) 2014 copyright by the U.S. Secretary of Commerce
on behalf of the United States of America. All rights reserved.
##$NIST MASS SPEC NO=308310
##MOLFORM=C23 H38 F N O
##MW=363
##$NIST SOURCE=MSDC
##XUNITS=M/Z
##YUNITS=RELATIVE INTENSITY
##XFACTOR=1
##YFACTOR=1
##FIRSTX=27
##LASTX=365
##FIRSTY=20
##MAXX=365
##MINX=27
##MAXY=9999
##MINY=10
##NPOINTS=78
##PEAK TABLE=(XY..XY)
27,20 28,10 29,30 36,20
39,20 41,100 42,50 43,110
44,80 55,90 56,50 57,90
58,20 69,60 70,40 71,30
75,30 84,30 95,470 96,60
98,30 109,30 112,20 122,30
123,9999 124,671 125,40 140,140
142,80 152,180 153,210 154,20
155,50 156,30 164,20 166,500
167,310 168,50 170,50 180,140
181,50 194,200 195,60 206,20
207,30 208,320 209,40 212,20
220,30 222,100 223,20 235,70
236,40 240,70 250,210 251,60
252,90 262,30 264,2943 265,761
266,100 268,60 277,30 278,250
279,60 292,230 293,50 306,120
307,30 320,150 321,30 334,120
335,30 348,50 362,1121 363,1101
364,290 365,40
##END=
