##TITLE=Benzamide, N,N-dihexyl-4-trifluoromethyl-
##JCAMP-DX=4.24
##DATA TYPE=MASS SPECTRUM
##ORIGIN=Zaikin V.G., TIPS RAS, Moscow, Russia
##OWNER=NIST Mass Spectrometry Data Center
Collection (C) 2014 copyright by the U.S. Secretary of Commerce
on behalf of the United States of America. All rights reserved.
##$NIST MASS SPEC NO=308249
##MOLFORM=C20 H30 F3 N O
##MW=357
##$NIST SOURCE=MSDC
##XUNITS=M/Z
##YUNITS=RELATIVE INTENSITY
##XFACTOR=1
##YFACTOR=1
##FIRSTX=28
##LASTX=359
##FIRSTY=20
##MAXX=359
##MINX=28
##MAXY=9999
##MINY=20
##NPOINTS=55
##PEAK TABLE=(XY..XY)
28,20 41,50 43,130 44,30
55,70 56,40 57,90 71,40
85,30 112,110 114,60 126,40
127,40 140,30 142,80 145,921
146,70 154,40 159,50 173,9999
174,911 175,50 184,40 190,130
202,270 203,210 212,120 216,1621
217,651 218,60 230,270 231,100
244,340 245,60 256,30 257,120
258,110 272,310 273,60 274,110
286,4764 287,1191 288,140 300,400
301,70 314,260 315,60 328,120
338,190 339,30 342,40 356,1491
357,1732 358,410 359,40
##END=
