##TITLE=Chloroacetamide, N,N-bis(2-ethylhexyl)-
##JCAMP-DX=4.24
##DATA TYPE=MASS SPECTRUM
##ORIGIN=Zaikin V.G., TIPS RAS, Moscow, Russia
##OWNER=NIST Mass Spectrometry Data Center
Collection (C) 2014 copyright by the U.S. Secretary of Commerce
on behalf of the United States of America. All rights reserved.
##$NIST MASS SPEC NO=308477
##MOLFORM=C18 H36 Cl N O
##MW=317
##$NIST SOURCE=MSDC
##XUNITS=M/Z
##YUNITS=RELATIVE INTENSITY
##XFACTOR=1
##YFACTOR=1
##FIRSTX=26
##LASTX=288
##FIRSTY=60
##MAXX=288
##MINX=26
##MAXY=9999
##MINY=20
##NPOINTS=115
##PEAK TABLE=(XY..XY)
26,60 27,180 28,130 29,320
30,280 35,80 36,530 38,170
39,250 40,60 41,1281 42,510
43,1331 44,1381 45,40 49,70
50,70 51,80 52,80 53,130
54,100 55,1121 56,490 57,1471
58,130 60,30 65,30 67,160
68,110 69,1231 70,691 71,941
72,200 73,60 77,210 78,50
79,140 80,30 81,100 82,90
83,170 84,310 85,70 86,320
87,40 93,40 94,150 95,60
96,140 97,40 98,220 99,20
100,40 105,40 106,661 107,120
108,721 109,70 110,180 111,230
112,310 113,50 114,40 119,40
120,9999 121,611 122,3413 123,250
124,30 126,160 127,30 128,70
134,40 140,440 141,50 142,1041
143,110 148,30 154,220 155,30
156,581 157,60 168,100 170,1371
171,160 172,40 176,40 182,180
183,60 184,440 185,50 189,30
196,30 204,40 206,861 207,150
208,350 209,30 210,30 218,4334
219,550 220,1501 221,190 222,30
224,60 240,50 252,60 254,30
260,30 268,1601 269,300 274,30
282,781 283,160 288,70
##END=
