##TITLE=Isonicotinamide, N-decyl-N-methyl-
##JCAMP-DX=4.24
##DATA TYPE=MASS SPECTRUM
##ORIGIN=Zaikin V.G., TIPS RAS, Moscow, Russia
##OWNER=NIST Mass Spectrometry Data Center
Collection (C) 2014 copyright by the U.S. Secretary of Commerce
on behalf of the United States of America. All rights reserved.
##$NIST MASS SPEC NO=308642
##MOLFORM=C17 H28 N2 O
##MW=276
##$NIST SOURCE=MSDC
##XUNITS=M/Z
##YUNITS=RELATIVE INTENSITY
##XFACTOR=1
##YFACTOR=1
##FIRSTX=25
##LASTX=277
##FIRSTY=50
##MAXX=277
##MINX=25
##MAXY=9999
##MINY=30
##NPOINTS=87
##PEAK TABLE=(XY..XY)
25,50 26,360 27,741 28,300
29,771 30,100 39,520 40,100
41,1491 42,951 43,1081 44,971
49,40 50,270 51,1191 52,250
53,200 54,100 55,671 56,270
57,430 58,50 63,30 65,40
67,90 68,60 69,190 70,230
71,50 75,30 76,70 77,160
78,3273 79,500 80,120 81,80
82,50 83,110 84,70 91,60
92,100 93,100 98,50 104,30
105,60 106,9999 107,711 108,100
114,70 119,80 122,40 123,30
128,40 133,30 135,781 136,90
137,571 139,30 142,40 147,30
149,4664 150,1601 151,120 156,80
161,60 163,811 164,150 168,40
170,140 171,30 177,450 178,70
183,30 191,190 192,50 198,941
199,80 205,150 216,110 219,200
220,120 233,120 247,50 261,50
275,611 276,821 277,110
##END=
