##TITLE=Pentanamide, N,N-dibutyl-
##JCAMP-DX=4.24
##DATA TYPE=MASS SPECTRUM
##ORIGIN=Zaikin V.G., TIPS RAS, Moscow, Russia
##OWNER=NIST Mass Spectrometry Data Center
Collection (C) 2014 copyright by the U.S. Secretary of Commerce
on behalf of the United States of America. All rights reserved.
##$NIST MASS SPEC NO=308178
##MOLFORM=C13 H27 N O
##MW=213
##$NIST SOURCE=MSDC
##XUNITS=M/Z
##YUNITS=RELATIVE INTENSITY
##XFACTOR=1
##YFACTOR=1
##FIRSTX=27
##LASTX=214
##FIRSTY=30
##MAXX=214
##MINX=27
##MAXY=9999
##MINY=30
##NPOINTS=52
##PEAK TABLE=(XY..XY)
27,30 28,140 29,350 30,180
36,60 41,440 42,70 43,70
44,571 55,120 56,60 57,1471
58,80 60,30 70,30 72,220
73,330 84,110 85,801 86,9999
87,761 98,40 99,30 100,831
101,60 105,40 111,220 112,30
114,651 115,721 116,50 120,30
123,30 128,1932 129,380 130,30
135,30 136,30 142,370 152,40
156,1862 157,160 158,30 170,280
171,791 172,80 184,1021 185,110
198,90 212,30 213,520 214,120
##END=
