##TITLE=Propanamide, N-tetrahydrofurfuryl-3-phenyl-
##JCAMP-DX=4.24
##DATA TYPE=MASS SPECTRUM
##ORIGIN=Zaikin V.G., TIPS RAS, Moscow, Russia
##OWNER=NIST Mass Spectrometry Data Center
Collection (C) 2014 copyright by the U.S. Secretary of Commerce
on behalf of the United States of America. All rights reserved.
##$NIST MASS SPEC NO=308113
##MOLFORM=C14 H19 N O2
##MW=233
##$NIST SOURCE=MSDC
##XUNITS=M/Z
##YUNITS=RELATIVE INTENSITY
##XFACTOR=1
##YFACTOR=1
##FIRSTX=26
##LASTX=235
##FIRSTY=60
##MAXX=235
##MINX=26
##MAXY=9999
##MINY=20
##NPOINTS=88
##PEAK TABLE=(XY..XY)
26,60 27,350 28,40 29,260
30,851 31,50 36,30 39,290
40,50 41,721 42,230 43,2252
44,611 50,80 51,280 52,80
53,80 54,70 55,230 56,390
57,120 58,140 59,40 63,100
65,500 66,30 67,110 68,40
69,60 70,290 71,9999 72,971
73,80 74,30 75,30 76,50
77,791 78,490 79,510 80,40
82,120 83,150 84,4844 85,621
86,170 89,100 90,50 91,3974
92,420 93,20 98,30 99,40
100,130 101,110 102,460 103,701
104,1992 105,2873 106,911 107,270
115,30 117,80 118,30 128,30
131,270 132,260 133,1712 134,190
146,60 148,100 149,90 150,2602
151,270 160,30 162,320 163,5085
164,1111 165,90 174,80 175,40
189,400 190,180 205,30 215,30
232,50 233,1852 234,400 235,40
##END=
