##TITLE=Nicotinamide, N-(4-methoxyphenyl)-
##JCAMP-DX=4.24
##DATA TYPE=MASS SPECTRUM
##ORIGIN=Zaikin V.G., TIPS RAS, Moscow, Russia
##OWNER=NIST Mass Spectrometry Data Center
Collection (C) 2014 copyright by the U.S. Secretary of Commerce
on behalf of the United States of America. All rights reserved.
##$NIST MASS SPEC NO=308107
##MOLFORM=C13 H12 N2 O2
##MW=228
##$NIST SOURCE=MSDC
##XUNITS=M/Z
##YUNITS=RELATIVE INTENSITY
##XFACTOR=1
##YFACTOR=1
##FIRSTX=26
##LASTX=230
##FIRSTY=40
##MAXX=230
##MINX=26
##MAXY=9999
##MINY=10
##NPOINTS=45
##PEAK TABLE=(XY..XY)
26,40 27,70 28,10 38,20
39,90 41,200 50,160 51,911
52,390 53,190 63,90 64,100
65,140 67,60 76,40 77,150
78,3743 79,430 80,210 81,50
90,30 91,40 92,60 95,621
96,40 105,40 106,9459 107,731
108,190 109,150 122,2182 123,290
124,821 125,60 134,80 149,40
155,30 184,30 211,30 212,30
213,30 227,180 228,9999 229,1511
230,140
##END=
