##TITLE=Cyclopentanecarboxamide, N,N-bis(2-ethylhexyl)-
##JCAMP-DX=4.24
##DATA TYPE=MASS SPECTRUM
##ORIGIN=Zaikin V.G., TIPS RAS, Moscow, Russia
##OWNER=NIST Mass Spectrometry Data Center
Collection (C) 2014 copyright by the U.S. Secretary of Commerce
on behalf of the United States of America. All rights reserved.
##$NIST MASS SPEC NO=308612
##MOLFORM=C22 H43 N O
##MW=337
##$NIST SOURCE=MSDC
##XUNITS=M/Z
##YUNITS=RELATIVE INTENSITY
##XFACTOR=1
##YFACTOR=1
##FIRSTX=26
##LASTX=337
##FIRSTY=50
##MAXX=337
##MINX=26
##MAXY=9999
##MINY=30
##NPOINTS=84
##PEAK TABLE=(XY..XY)
26,50 27,90 28,30 29,70
30,30 35,30 36,160 38,40
39,140 40,40 41,450 42,120
43,230 44,290 51,30 53,50
54,30 55,220 56,100 57,310
65,30 67,190 68,100 69,2012
70,220 71,130 72,40 73,40
79,50 81,40 82,30 83,40
84,100 85,30 86,80 95,70
96,110 97,911 98,160 99,30
100,60 110,30 111,40 112,120
113,30 114,130 126,140 127,130
128,150 130,50 135,30 138,60
140,260 141,90 142,9999 143,1101
144,40 154,80 156,460 157,40
166,30 168,130 169,80 170,330
171,30 180,40 182,50 184,130
196,140 197,30 210,40 212,80
225,90 226,110 238,721 239,120
240,110 268,851 269,160 280,50
294,30 296,30 308,60 337,60
##END=
