##TITLE=Propanamide, N-(2-fluorophenyl)-2-methyl-
##JCAMP-DX=4.24
##DATA TYPE=MASS SPECTRUM
##ORIGIN=Zaikin V.G., TIPS RAS, Moscow, Russia
##OWNER=NIST Mass Spectrometry Data Center
Collection (C) 2014 copyright by the U.S. Secretary of Commerce
on behalf of the United States of America. All rights reserved.
##$NIST MASS SPEC NO=308080
##MOLFORM=C10 H12 F N O
##MW=181
##$NIST SOURCE=MSDC
##XUNITS=M/Z
##YUNITS=RELATIVE INTENSITY
##XFACTOR=1
##YFACTOR=1
##FIRSTX=39
##LASTX=182
##FIRSTY=70
##MAXX=182
##MINX=39
##MAXY=9999
##MINY=50
##NPOINTS=18
##PEAK TABLE=(XY..XY)
39,70 41,270 43,2913 44,290
70,130 71,821 83,80 84,70
86,430 91,110 95,200 110,150
111,9999 112,961 123,50 138,110
181,1661 182,70
##END=
