##TITLE=Benzamide, N,N-bis(2-ethylhexyl)-4-trifluoromethyl-
##JCAMP-DX=4.24
##DATA TYPE=MASS SPECTRUM
##ORIGIN=Zaikin V.G., TIPS RAS, Moscow, Russia
##OWNER=NIST Mass Spectrometry Data Center
Collection (C) 2014 copyright by the U.S. Secretary of Commerce
on behalf of the United States of America. All rights reserved.
##$NIST MASS SPEC NO=308251
##MOLFORM=C24 H38 F3 N O
##MW=413
##$NIST SOURCE=MSDC
##XUNITS=M/Z
##YUNITS=RELATIVE INTENSITY
##XFACTOR=1
##YFACTOR=1
##FIRSTX=28
##LASTX=413
##FIRSTY=10
##MAXX=413
##MINX=28
##MAXY=9999
##MINY=10
##NPOINTS=53
##PEAK TABLE=(XY..XY)
28,10 29,40 36,30 41,130
42,40 43,190 44,40 55,150
56,40 57,280 69,220 70,130
71,160 81,30 83,60 84,50
95,30 97,50 111,80 112,50
126,40 140,40 145,771 146,40
154,50 159,40 170,30 173,9999
174,821 190,190 202,270 203,290
204,90 216,5475 217,761 218,30
244,130 245,30 272,240 273,30
285,80 286,30 288,40 300,60
301,30 302,240 312,50 314,4934
315,921 316,80 384,30 394,50
413,140
##END=
