##TITLE=Butanamide, N,N-dioctyl-
##JCAMP-DX=4.24
##DATA TYPE=MASS SPECTRUM
##ORIGIN=Zaikin V.G., TIPS RAS, Moscow, Russia
##OWNER=NIST Mass Spectrometry Data Center
Collection (C) 2014 copyright by the U.S. Secretary of Commerce
on behalf of the United States of America. All rights reserved.
##$NIST MASS SPEC NO=308681
##MOLFORM=C20 H41 N O
##MW=311
##$NIST SOURCE=MSDC
##XUNITS=M/Z
##YUNITS=RELATIVE INTENSITY
##XFACTOR=1
##YFACTOR=1
##FIRSTX=26
##LASTX=312
##FIRSTY=90
##MAXX=312
##MINX=26
##MAXY=9999
##MINY=30
##NPOINTS=82
##PEAK TABLE=(XY..XY)
26,90 27,230 28,80 29,210
30,180 36,100 38,60 39,190
40,50 41,641 42,260 43,1171
44,891 53,40 54,40 55,320
56,210 57,320 58,70 67,40
68,30 69,180 70,210 71,661
72,90 73,90 82,30 83,30
84,130 85,30 86,80 87,130
88,60 98,100 99,30 100,170
101,140 112,130 113,40 114,220
115,220 126,80 128,250 129,80
140,220 141,30 142,9999 143,1001
144,50 154,70 156,971 157,110
168,80 170,1141 171,170 182,30
183,30 184,450 185,60 196,40
198,280 199,60 200,150 210,30
212,761 213,140 226,270 227,40
240,631 241,120 254,200 255,30
268,3293 269,641 270,60 282,190
283,30 296,170 297,30 310,70
311,130 312,40
##END=
