##TITLE=Octanamide, N,N-dioctyl-
##JCAMP-DX=4.24
##DATA TYPE=MASS SPECTRUM
##ORIGIN=Zaikin V.G., TIPS RAS, Moscow, Russia
##OWNER=NIST Mass Spectrometry Data Center
Collection (C) 2014 copyright by the U.S. Secretary of Commerce
on behalf of the United States of America. All rights reserved.
##$NIST MASS SPEC NO=308446
##MOLFORM=C24 H49 N O
##MW=367
##$NIST SOURCE=MSDC
##XUNITS=M/Z
##YUNITS=RELATIVE INTENSITY
##XFACTOR=1
##YFACTOR=1
##FIRSTX=26
##LASTX=368
##FIRSTY=120
##MAXX=368
##MINX=26
##MAXY=9999
##MINY=30
##NPOINTS=115
##PEAK TABLE=(XY..XY)
26,120 27,320 28,170 29,430
30,250 36,40 38,30 39,320
40,70 41,1201 42,470 43,1531
44,1111 45,40 51,30 53,80
54,80 55,931 56,480 57,2012
58,190 60,40 67,170 68,80
69,440 70,370 71,420 72,140
73,200 79,40 81,80 82,90
83,160 84,290 85,100 86,220
87,310 95,40 96,40 97,70
98,310 99,100 100,250 101,150
109,80 110,30 111,30 112,200
113,80 114,240 115,70 126,180
127,400 128,380 129,60 140,340
141,60 142,9999 143,991 144,80
154,100 155,90 156,781 157,110
168,140 169,40 170,1421 171,370
172,80 182,70 184,3823 185,601
186,50 196,90 197,50 198,791
199,110 210,70 211,30 212,641
213,110 224,50 226,340 227,60
238,50 239,30 240,681 241,130
242,50 252,40 254,230 255,50
256,130 266,80 268,6486 269,1231
270,120 280,40 282,170 283,240
284,40 296,1712 297,360 298,40
310,440 311,90 324,350 325,70
338,420 339,100 352,130 353,30
366,230 367,190 368,80
##END=
