##TITLE=Phenylthioacetamide, N,N-dinonyl-
##JCAMP-DX=4.24
##DATA TYPE=MASS SPECTRUM
##ORIGIN=Zaikin V.G., TIPS RAS, Moscow, Russia
##OWNER=NIST Mass Spectrometry Data Center
Collection (C) 2014 copyright by the U.S. Secretary of Commerce
on behalf of the United States of America. All rights reserved.
##$NIST MASS SPEC NO=308166
##MOLFORM=C26 H45 N O S
##MW=419
##$NIST SOURCE=MSDC
##XUNITS=M/Z
##YUNITS=RELATIVE INTENSITY
##XFACTOR=1
##YFACTOR=1
##FIRSTX=29
##LASTX=422
##FIRSTY=70
##MAXX=422
##MINX=29
##MAXY=9999
##MINY=30
##NPOINTS=90
##PEAK TABLE=(XY..XY)
29,70 30,160 41,240 42,70
43,1451 44,741 45,130 55,300
56,100 57,3113 58,230 69,290
70,90 71,5075 72,280 77,30
83,140 84,90 85,3393 86,250
91,40 98,70 99,30 105,30
106,30 109,90 110,80 112,80
123,841 124,390 125,50 126,80
127,250 135,30 140,50 142,80
144,160 154,200 156,3223 157,340
167,260 168,50 170,691 171,60
182,70 184,390 185,30 186,40
196,190 198,1291 199,150 210,30
212,80 226,160 240,60 246,170
254,80 260,380 261,50 266,40
268,971 269,190 270,70 282,270
283,40 293,30 294,80 296,9999
297,2152 298,210 306,490 307,150
308,70 310,7497 311,1581 312,160
334,160 348,80 362,40 376,50
386,1131 387,300 388,30 390,100
404,70 418,170 419,2212 420,771
421,210 422,30
##END=
