##TITLE=Furan-2-carboxamide, N,N-dihexyl-
##JCAMP-DX=4.24
##DATA TYPE=MASS SPECTRUM
##ORIGIN=Zaikin V.G., TIPS RAS, Moscow, Russia
##OWNER=NIST Mass Spectrometry Data Center
Collection (C) 2014 copyright by the U.S. Secretary of Commerce
on behalf of the United States of America. All rights reserved.
##$NIST MASS SPEC NO=308204
##MOLFORM=C17 H29 N O2
##MW=279
##$NIST SOURCE=MSDC
##XUNITS=M/Z
##YUNITS=RELATIVE INTENSITY
##XFACTOR=1
##YFACTOR=1
##FIRSTX=29
##LASTX=280
##FIRSTY=50
##MAXX=280
##MINX=29
##MAXY=9999
##MINY=20
##NPOINTS=60
##PEAK TABLE=(XY..XY)
29,50 39,70 41,130 42,60
43,270 44,130 55,120 56,50
57,60 58,70 67,40 70,40
81,150 82,30 83,30 84,30
85,20 95,9999 96,591 97,60
110,90 111,60 112,260 114,240
123,30 124,400 125,320 126,100
127,100 128,200 138,4614 139,901
140,110 152,310 153,80 166,611
167,90 178,60 179,130 180,320
181,120 182,30 184,140 194,621
195,110 196,110 208,6636 209,1211
210,120 222,881 223,150 236,891
237,220 250,691 251,170 262,40
264,80 278,70 279,2662 280,540
##END=
