##TITLE=Propanamide, N,N-dioctyl-2-bromo-
##JCAMP-DX=4.24
##DATA TYPE=MASS SPECTRUM
##ORIGIN=Zaikin V.G., TIPS RAS, Moscow, Russia
##OWNER=NIST Mass Spectrometry Data Center
Collection (C) 2014 copyright by the U.S. Secretary of Commerce
on behalf of the United States of America. All rights reserved.
##$NIST MASS SPEC NO=308378
##MOLFORM=C19 H38 Br N O
##MW=375
##$NIST SOURCE=MSDC
##XUNITS=M/Z
##YUNITS=RELATIVE INTENSITY
##XFACTOR=1
##YFACTOR=1
##FIRSTX=27
##LASTX=377
##FIRSTY=30
##MAXX=377
##MINX=27
##MAXY=9999
##MINY=10
##NPOINTS=106
##PEAK TABLE=(XY..XY)
27,30 28,50 29,120 30,200
41,250 42,120 43,520 44,1241
45,20 55,290 56,140 57,791
58,60 67,20 69,360 70,120
71,691 72,50 74,20 80,20
81,20 82,20 83,70 84,90
85,50 86,190 87,30 97,30
98,100 99,20 100,90 101,30
107,150 109,140 111,30 112,80
113,20 114,30 126,80 128,170
130,20 135,80 137,80 140,180
142,6966 143,711 154,230 155,20
156,440 157,30 164,40 166,90
168,140 170,130 178,1742 179,80
180,1742 181,80 182,50 184,851
185,90 186,40 196,150 197,20
198,3283 199,420 200,50 210,60
212,130 220,90 222,90 224,100
226,60 238,50 240,851 241,150
252,90 254,10 264,160 266,220
267,20 268,3833 269,691 270,40
276,1661 277,210 278,1672 279,200
290,60 292,60 294,80 295,20
296,9999 297,2012 298,200 304,80
306,90 318,50 320,30 346,561
347,90 348,581 349,100 374,20
376,50 377,20
##END=
