##TITLE=l-Proline, N-butyryl-, methyl ester
##JCAMP-DX=4.24
##DATA TYPE=MASS SPECTRUM
##ORIGIN=Zaikin V.G., TIPS RAS, Moscow, Russia
##OWNER=NIST Mass Spectrometry Data Center
Collection (C) 2014 copyright by the U.S. Secretary of Commerce
on behalf of the United States of America. All rights reserved.
##$NIST MASS SPEC NO=308816
##MOLFORM=C10 H17 N O3
##MW=199
##$NIST SOURCE=MSDC
##XUNITS=M/Z
##YUNITS=RELATIVE INTENSITY
##XFACTOR=1
##YFACTOR=1
##FIRSTX=27
##LASTX=200
##FIRSTY=180
##MAXX=200
##MINX=27
##MAXY=9999
##MINY=10
##NPOINTS=34
##PEAK TABLE=(XY..XY)
27,180 28,10 29,30 39,110
40,30 41,500 42,190 43,801
44,80 55,120 56,40 59,70
68,280 69,200 70,9999 71,771
72,30 82,30 83,30 85,30
88,80 96,40 111,40 112,130
113,30 120,50 128,320 140,2552
141,230 167,60 168,50 171,90
199,490 200,60
##END=
