##TITLE=Cyclopropanecarboxamide, N,N-didecyl-
##JCAMP-DX=4.24
##DATA TYPE=MASS SPECTRUM
##ORIGIN=Zaikin V.G., TIPS RAS, Moscow, Russia
##OWNER=NIST Mass Spectrometry Data Center
Collection (C) 2014 copyright by the U.S. Secretary of Commerce
on behalf of the United States of America. All rights reserved.
##$NIST MASS SPEC NO=308584
##MOLFORM=C24 H47 N O
##MW=365
##$NIST SOURCE=MSDC
##XUNITS=M/Z
##YUNITS=RELATIVE INTENSITY
##XFACTOR=1
##YFACTOR=1
##FIRSTX=26
##LASTX=367
##FIRSTY=140
##MAXX=367
##MINX=26
##MAXY=9999
##MINY=30
##NPOINTS=111
##PEAK TABLE=(XY..XY)
26,140 27,280 28,120 29,300
30,150 36,60 38,40 39,340
40,90 41,1471 42,360 43,1011
44,741 53,70 54,70 55,691
56,350 57,520 58,90 67,110
68,140 69,4174 70,480 71,150
72,30 79,30 81,70 82,70
83,140 84,280 85,120 86,80
95,40 96,70 97,80 98,430
99,320 100,60 110,60 111,40
112,761 113,851 114,90 124,50
126,420 127,200 128,40 138,70
140,360 141,190 142,30 152,50
154,460 155,160 156,110 166,50
168,641 169,110 170,9999 171,1281
172,60 180,30 182,240 183,70
184,270 185,30 194,30 196,270
197,90 198,270 199,30 210,280
211,50 212,50 222,30 224,350
225,90 226,280 227,40 228,50
236,50 238,6746 239,1651 240,270
252,651 253,130 254,100 266,721
267,190 268,50 280,771 281,210
282,40 294,591 295,130 296,751
297,170 308,410 309,90 322,550
323,130 324,851 325,190 336,350
337,90 350,160 351,30 364,260
365,811 366,250 367,30
##END=
