##TITLE=Pentanamide, N,N-dibutyl-5-bromo-
##JCAMP-DX=4.24
##DATA TYPE=MASS SPECTRUM
##ORIGIN=Zaikin V.G., TIPS RAS, Moscow, Russia
##OWNER=NIST Mass Spectrometry Data Center
Collection (C) 2014 copyright by the U.S. Secretary of Commerce
on behalf of the United States of America. All rights reserved.
##$NIST MASS SPEC NO=308258
##MOLFORM=C13 H26 Br N O
##MW=291
##$NIST SOURCE=MSDC
##XUNITS=M/Z
##YUNITS=RELATIVE INTENSITY
##XFACTOR=1
##YFACTOR=1
##FIRSTX=27
##LASTX=293
##FIRSTY=70
##MAXX=293
##MINX=27
##MAXY=9999
##MINY=30
##NPOINTS=47
##PEAK TABLE=(XY..XY)
27,70 29,350 30,270 39,40
41,290 42,90 43,70 44,540
53,30 55,841 56,100 57,851
58,60 65,30 70,40 72,120
84,100 86,9999 87,550 100,821
112,30 114,500 120,530 128,500
129,30 135,550 137,310 142,230
156,2192 157,200 160,40 163,200
165,170 170,290 184,631 185,50
198,160 212,2863 213,400 248,320
249,40 250,340 251,40 262,40
264,40 291,130 293,140
##END=
