##TITLE=Nicotinic acid, (4-methoxyphenyl)methyl ester
##JCAMP-DX=4.24
##DATA TYPE=MASS SPECTRUM
##ORIGIN=Zaikin V.G., TIPS RAS, Moscow, Russia
##OWNER=NIST Mass Spectrometry Data Center
Collection (C) 2014 copyright by the U.S. Secretary of Commerce
on behalf of the United States of America. All rights reserved.
##$NIST MASS SPEC NO=308351
##MOLFORM=C14 H13 N O3
##MW=243
##$NIST SOURCE=MSDC
##XUNITS=M/Z
##YUNITS=RELATIVE INTENSITY
##XFACTOR=1
##YFACTOR=1
##FIRSTX=26
##LASTX=245
##FIRSTY=30
##MAXX=245
##MINX=26
##MAXY=9999
##MINY=20
##NPOINTS=43
##PEAK TABLE=(XY..XY)
26,30 27,30 28,60 39,70
41,30 44,90 50,140 51,440
52,160 53,40 63,70 64,50
65,110 66,40 76,40 77,621
78,1161 79,330 89,210 90,190
91,681 92,190 94,90 105,220
106,1021 107,170 108,20 109,300
119,150 120,1571 121,9999 122,811
123,140 135,210 136,100 137,230
198,30 228,400 229,50 242,150
243,6316 244,951 245,100
##END=
