##TITLE=Cyclobutanecarboxamide, N,N-dioctyl-
##JCAMP-DX=4.24
##DATA TYPE=MASS SPECTRUM
##ORIGIN=Zaikin V.G., TIPS RAS, Moscow, Russia
##OWNER=NIST Mass Spectrometry Data Center
Collection (C) 2014 copyright by the U.S. Secretary of Commerce
on behalf of the United States of America. All rights reserved.
##$NIST MASS SPEC NO=308603
##MOLFORM=C21 H41 N O
##MW=323
##$NIST SOURCE=MSDC
##XUNITS=M/Z
##YUNITS=RELATIVE INTENSITY
##XFACTOR=1
##YFACTOR=1
##FIRSTX=25
##LASTX=324
##FIRSTY=50
##MAXX=324
##MINX=25
##MAXY=9999
##MINY=30
##NPOINTS=115
##PEAK TABLE=(XY..XY)
25,50 26,380 27,791 28,350
29,871 30,320 35,60 36,360
37,50 38,200 39,841 40,200
41,1952 42,891 43,1832 44,2002
45,50 50,110 51,130 52,80
53,420 54,340 55,8007 56,1081
57,1101 58,180 65,30 67,190
68,150 69,530 70,550 71,440
72,160 73,40 77,40 79,80
81,140 82,260 83,2262 84,571
85,160 86,80 91,30 95,30
96,80 97,70 98,561 99,200
100,140 110,80 111,40 112,530
113,290 114,50 124,70 126,410
127,220 128,220 130,30 135,30
138,70 140,1071 141,150 142,9999
143,1101 144,40 152,50 154,370
155,100 156,811 157,70 166,30
168,500 169,80 170,991 171,100
182,270 183,70 184,130 196,861
197,160 198,140 210,821 211,210
212,701 213,100 214,150 222,50
224,2712 225,571 226,210 236,40
238,1121 239,210 240,2002 241,370
242,40 252,2082 253,400 254,50
266,1071 267,210 268,7767 269,1561
270,150 280,500 281,80 294,1181
295,270 296,30 308,300 309,60
322,240 323,550 324,180
##END=
