##TITLE=Benzamide, N-ethyl-N-(3-methylphenyl)-4-chloro-
##JCAMP-DX=4.24
##DATA TYPE=MASS SPECTRUM
##ORIGIN=Zaikin V.G., TIPS RAS, Moscow, Russia
##OWNER=NIST Mass Spectrometry Data Center
Collection (C) 2014 copyright by the U.S. Secretary of Commerce
on behalf of the United States of America. All rights reserved.
##$NIST MASS SPEC NO=308587
##MOLFORM=C16 H16 Cl N O
##MW=273
##$NIST SOURCE=MSDC
##XUNITS=M/Z
##YUNITS=RELATIVE INTENSITY
##XFACTOR=1
##YFACTOR=1
##FIRSTX=26
##LASTX=276
##FIRSTY=90
##MAXX=276
##MINX=26
##MAXY=9999
##MINY=30
##NPOINTS=83
##PEAK TABLE=(XY..XY)
26,90 27,140 28,40 29,100
36,180 37,30 38,110 39,220
40,70 41,110 42,50 44,250
49,30 50,310 51,280 52,90
53,50 55,30 62,40 63,150
64,60 65,520 66,40 73,50
74,150 75,871 76,390 77,360
78,140 79,80 85,70 87,30
89,130 90,70 91,1061 92,140
93,30 102,40 103,60 104,270
105,90 106,40 107,40 110,40
111,3013 112,270 113,961 114,90
115,30 117,50 118,490 119,450
120,200 132,90 133,130 134,601
135,110 137,70 138,150 139,9999
140,871 141,3343 142,260 152,40
153,30 155,50 156,60 165,70
166,581 167,80 168,190 180,30
191,30 244,30 245,250 246,40
247,80 258,80 272,1121 273,2422
274,801 275,801 276,130
##END=
