##TITLE=Propanamide, N,N-dinonyl-2-bromo-
##JCAMP-DX=4.24
##DATA TYPE=MASS SPECTRUM
##ORIGIN=Zaikin V.G., TIPS RAS, Moscow, Russia
##OWNER=NIST Mass Spectrometry Data Center
Collection (C) 2014 copyright by the U.S. Secretary of Commerce
on behalf of the United States of America. All rights reserved.
##$NIST MASS SPEC NO=308379
##MOLFORM=C21 H42 Br N O
##MW=403
##$NIST SOURCE=MSDC
##XUNITS=M/Z
##YUNITS=RELATIVE INTENSITY
##XFACTOR=1
##YFACTOR=1
##FIRSTX=28
##LASTX=406
##FIRSTY=30
##MAXX=406
##MINX=28
##MAXY=9999
##MINY=10
##NPOINTS=110
##PEAK TABLE=(XY..XY)
28,30 29,90 30,170 41,180
42,70 43,490 44,961 55,260
56,120 57,450 58,30 67,20
69,240 70,100 71,440 72,40
74,20 80,30 81,30 82,20
83,140 84,90 85,270 86,150
87,40 97,30 98,80 99,20
100,80 101,40 107,100 109,90
112,70 114,30 126,60 127,20
128,10 135,50 137,60 140,50
142,140 144,20 154,190 156,5565
157,641 158,20 164,30 166,80
168,210 170,460 171,40 178,1431
179,60 180,1411 181,80 182,110
184,140 196,40 198,731 199,90
200,60 210,130 211,20 212,2983
213,450 214,50 224,100 226,150
234,90 236,80 238,80 240,60
252,30 254,30 266,50 268,901
269,180 278,170 279,20 280,140
290,1611 291,220 292,1551 293,230
294,220 295,50 296,4034 297,851
298,80 304,60 306,60 318,90
320,80 322,50 324,9999 325,2462
326,280 327,10 332,40 334,40
346,20 374,721 375,160 376,741
377,140 402,30 403,30 404,80
405,50 406,40
##END=
