##TITLE=Isonicotinamide, N,N-didecyl-
##JCAMP-DX=4.24
##DATA TYPE=MASS SPECTRUM
##ORIGIN=Zaikin V.G., TIPS RAS, Moscow, Russia
##OWNER=NIST Mass Spectrometry Data Center
Collection (C) 2014 copyright by the U.S. Secretary of Commerce
on behalf of the United States of America. All rights reserved.
##$NIST MASS SPEC NO=308647
##MOLFORM=C26 H46 N2 O
##MW=402
##$NIST SOURCE=MSDC
##XUNITS=M/Z
##YUNITS=RELATIVE INTENSITY
##XFACTOR=1
##YFACTOR=1
##FIRSTX=25
##LASTX=403
##FIRSTY=60
##MAXX=403
##MINX=25
##MAXY=9999
##MINY=30
##NPOINTS=135
##PEAK TABLE=(XY..XY)
25,60 26,350 27,731 28,290
29,721 30,190 37,70 38,120
39,571 40,110 41,1702 42,701
43,1742 44,510 49,30 50,210
51,450 52,150 53,160 54,130
55,1111 56,510 57,711 58,40
65,50 67,240 68,120 69,470
70,330 71,150 73,70 75,60
76,40 77,140 78,2032 79,490
80,180 81,170 82,100 83,220
84,220 85,100 91,80 92,70
93,130 94,40 95,120 96,90
97,110 98,110 104,30 105,120
106,9999 107,851 108,90 109,60
110,30 111,60 112,60 117,40
119,70 120,40 121,50 122,80
123,300 126,70 130,60 131,30
133,100 134,50 135,611 136,280
137,150 140,40 147,110 148,50
149,3393 150,701 151,70 154,30
161,40 162,30 163,230 164,70
168,270 170,120 175,60 177,350
178,70 183,90 184,30 185,90
189,70 191,320 192,60 193,80
196,50 198,420 199,50 203,40
204,80 205,190 217,50 219,90
220,100 233,100 246,110 247,60
259,40 261,430 262,80 263,430
264,50 267,40 273,50 275,4924
276,1311 277,160 287,60 289,510
290,130 296,100 303,300 304,70
317,130 324,721 325,130 331,140
345,140 359,130 373,120 387,50
401,1381 402,1381 403,370
##END=
