##TITLE=2-Bromopropionic acid, 4-benzyloxyphenyl ester
##JCAMP-DX=4.24
##DATA TYPE=MASS SPECTRUM
##ORIGIN=Zaikin V.G., TIPS RAS, Moscow, Russia
##OWNER=NIST Mass Spectrometry Data Center
Collection (C) 2014 copyright by the U.S. Secretary of Commerce
on behalf of the United States of America. All rights reserved.
##$NIST MASS SPEC NO=308029
##MOLFORM=C16 H15 Br O3
##MW=334
##$NIST SOURCE=MSDC
##XUNITS=M/Z
##YUNITS=RELATIVE INTENSITY
##XFACTOR=1
##YFACTOR=1
##FIRSTX=27
##LASTX=337
##FIRSTY=60
##MAXX=337
##MINX=27
##MAXY=9999
##MINY=10
##NPOINTS=37
##PEAK TABLE=(XY..XY)
27,60 28,10 36,20 39,30
44,10 51,10 52,10 54,10
55,30 56,40 57,10 63,20
64,20 65,410 77,10 79,10
80,60 81,20 82,50 89,60
90,50 91,9999 92,781 107,170
109,160 110,40 119,30 135,150
136,10 137,30 152,30 200,1511
201,170 334,581 335,70 336,540
337,80
##END=
