##TITLE=(Phenylthio)acetic acid, 1-naphthyl ester
##JCAMP-DX=4.24
##DATA TYPE=MASS SPECTRUM
##ORIGIN=Zaikin V.G., TIPS RAS, Moscow, Russia
##OWNER=NIST Mass Spectrometry Data Center
Collection (C) 2014 copyright by the U.S. Secretary of Commerce
on behalf of the United States of America. All rights reserved.
##$NIST MASS SPEC NO=308341
##MOLFORM=C18 H14 O2 S
##MW=294
##$NIST SOURCE=MSDC
##XUNITS=M/Z
##YUNITS=RELATIVE INTENSITY
##XFACTOR=1
##YFACTOR=1
##FIRSTX=28
##LASTX=296
##FIRSTY=10
##MAXX=296
##MINX=28
##MAXY=9999
##MINY=10
##NPOINTS=60
##PEAK TABLE=(XY..XY)
28,10 36,30 39,100 41,30
43,30 44,60 45,490 50,70
51,170 55,40 57,50 62,40
63,140 65,220 66,50 69,110
71,40 74,40 75,50 76,30
77,380 78,140 79,170 87,30
88,60 89,250 90,30 91,80
97,20 105,250 108,60 109,290
110,190 113,80 114,130 115,2522
116,631 117,50 121,420 122,260
123,3033 124,300 125,160 126,50
127,110 128,60 129,60 143,480
144,9999 145,1151 146,70 150,520
151,50 152,30 157,90 168,40
277,30 294,701 295,130 296,40
##END=
