##TITLE=Benzamide, N,N-diundecyl-4-bromo-
##JCAMP-DX=4.24
##DATA TYPE=MASS SPECTRUM
##ORIGIN=Zaikin V.G., TIPS RAS, Moscow, Russia
##OWNER=NIST Mass Spectrometry Data Center
Collection (C) 2014 copyright by the U.S. Secretary of Commerce
on behalf of the United States of America. All rights reserved.
##$NIST MASS SPEC NO=308461
##MOLFORM=C29 H50 Br N O
##MW=507
##$NIST SOURCE=MSDC
##XUNITS=M/Z
##YUNITS=RELATIVE INTENSITY
##XFACTOR=1
##YFACTOR=1
##FIRSTX=25
##LASTX=511
##FIRSTY=20
##MAXX=511
##MINX=25
##MAXY=9999
##MINY=10
##NPOINTS=287
##PEAK TABLE=(XY..XY)
25,20 26,150 27,300 28,130
29,340 30,150 36,30 37,30
38,60 39,330 40,90 41,991
42,480 43,1091 44,490 49,10
50,130 51,80 52,30 53,90
54,110 55,871 56,500 57,671
58,130 63,10 65,30 66,20
67,170 68,100 69,410 70,390
71,180 72,20 73,40 74,50
75,120 76,280 77,250 78,70
79,130 80,180 81,170 82,240
83,190 84,300 85,120 86,20
89,10 90,10 91,110 92,30
93,20 94,10 95,60 96,130
97,110 98,200 99,50 100,10
102,20 103,60 104,821 105,1361
106,120 107,20 108,10 109,30
110,30 111,40 112,170 113,30
114,10 115,30 116,20 117,30
118,20 119,20 120,30 121,10
122,30 123,10 124,20 125,10
126,110 127,10 128,70 129,20
130,10 131,30 132,40 133,40
134,50 135,30 136,10 138,10
139,10 140,90 141,10 142,10
145,20 146,70 147,20 148,80
149,40 151,10 152,10 154,70
155,530 156,80 157,500 158,70
159,10 160,20 161,10 162,20
163,10 168,40 169,70 170,40
171,60 172,10 174,10 176,10
180,10 181,10 182,631 183,9999
184,1191 185,9479 186,751 187,40
188,10 189,10 190,20 191,10
193,10 196,30 197,100 198,130
199,30 200,150 201,30 202,120
203,10 204,10 210,110 211,30
212,340 213,290 214,240 215,260
216,30 224,70 225,20 226,641
227,370 228,601 229,330 230,30
232,10 238,40 239,10 240,190
241,70 242,150 243,60 244,10
252,40 253,10 254,250 255,80
256,230 257,70 258,10 259,10
266,50 267,20 268,250 269,60
270,200 271,50 272,10 274,30
276,10 280,40 281,30 282,170
283,50 284,110 285,20 286,30
287,10 288,200 289,60 294,10
296,100 297,20 298,80 299,10
300,20 302,20 308,10 310,110
311,20 312,100 313,20 316,10
322,50 323,10 324,190 325,70
326,70 327,20 337,100 338,60
339,120 340,50 341,20 350,20
352,370 353,100 354,380 355,110
356,140 357,20 358,10 364,40
365,10 366,2823 367,941 368,2953
369,901 370,140 371,10 378,30
380,280 381,80 382,240 383,70
384,10 394,230 395,60 396,220
397,50 400,10 408,130 409,30
410,130 411,30 422,150 423,40
424,160 425,40 426,10 427,10
428,180 429,90 430,20 436,130
437,40 438,130 439,30 450,130
451,30 452,120 453,30 464,120
465,30 466,110 467,30 478,90
479,30 480,90 481,20 490,10
492,60 493,10 494,40 504,10
505,30 506,1401 507,1191 508,1672
509,1151 510,320 511,50
##END=
