##TITLE=Benzamide, N-decyl-N-methyl-4-fluoro-
##JCAMP-DX=4.24
##DATA TYPE=MASS SPECTRUM
##ORIGIN=Zaikin V.G., TIPS RAS, Moscow, Russia
##OWNER=NIST Mass Spectrometry Data Center
Collection (C) 2014 copyright by the U.S. Secretary of Commerce
on behalf of the United States of America. All rights reserved.
##$NIST MASS SPEC NO=308306
##MOLFORM=C18 H28 F N O
##MW=293
##$NIST SOURCE=MSDC
##XUNITS=M/Z
##YUNITS=RELATIVE INTENSITY
##XFACTOR=1
##YFACTOR=1
##FIRSTX=27
##LASTX=295
##FIRSTY=30
##MAXX=295
##MINX=27
##MAXY=9999
##MINY=10
##NPOINTS=57
##PEAK TABLE=(XY..XY)
27,30 28,10 29,40 36,40
39,30 41,120 42,80 43,110
44,170 55,100 56,30 57,150
58,80 69,30 70,40 75,80
83,20 84,20 94,30 95,861
96,100 97,20 109,30 122,30
123,9999 124,721 125,50 136,60
140,30 152,490 153,280 154,190
164,20 166,2813 167,1051 168,100
170,60 180,530 181,100 194,340
195,90 198,70 208,180 209,40
222,200 223,40 236,210 237,40
250,140 251,30 264,110 265,20
278,60 292,981 293,1141 294,240
295,20
##END=
