##TITLE=Benzamide, N,N-dinonyl-2,6-difluoro-
##JCAMP-DX=4.24
##DATA TYPE=MASS SPECTRUM
##ORIGIN=Zaikin V.G., TIPS RAS, Moscow, Russia
##OWNER=NIST Mass Spectrometry Data Center
Collection (C) 2014 copyright by the U.S. Secretary of Commerce
on behalf of the United States of America. All rights reserved.
##$NIST MASS SPEC NO=308671
##MOLFORM=C25 H41 F2 N O
##MW=409
##$NIST SOURCE=MSDC
##XUNITS=M/Z
##YUNITS=RELATIVE INTENSITY
##XFACTOR=1
##YFACTOR=1
##FIRSTX=26
##LASTX=410
##FIRSTY=70
##MAXX=410
##MINX=26
##MAXY=9999
##MINY=30
##NPOINTS=104
##PEAK TABLE=(XY..XY)
26,70 27,160 28,100 29,260
30,60 36,30 38,30 39,250
40,50 41,691 42,370 43,681
44,240 50,40 51,30 53,60
54,60 55,470 56,260 57,240
58,30 63,100 67,70 68,50
69,190 70,170 71,70 81,40
82,30 83,70 84,120 85,40
94,30 95,30 98,50 112,50
113,350 114,150 123,60 126,30
127,50 136,40 140,120 141,9999
142,761 143,50 152,70 154,120
156,50 158,200 164,130 165,100
166,190 170,150 171,220 172,80
178,100 179,80 180,40 182,30
184,1081 185,591 186,50 192,40
198,110 199,50 206,60 210,30
212,120 213,40 220,40 226,150
234,30 240,90 254,50 268,60
276,160 277,100 278,130 282,160
283,30 284,170 285,30 290,300
291,70 292,30 296,1301 297,470
298,60 304,40 310,200 311,50
324,160 325,30 338,80 352,80
366,70 380,60 389,50 390,370
391,100 408,120 409,330 410,90
##END=
