##TITLE=Bromoacetamide, N,N-bis(2-ethylhexyl)-
##JCAMP-DX=4.24
##DATA TYPE=MASS SPECTRUM
##ORIGIN=Zaikin V.G., TIPS RAS, Moscow, Russia
##OWNER=NIST Mass Spectrometry Data Center
Collection (C) 2014 copyright by the U.S. Secretary of Commerce
on behalf of the United States of America. All rights reserved.
##$NIST MASS SPEC NO=308170
##MOLFORM=C18 H36 Br N O
##MW=361
##$NIST SOURCE=MSDC
##XUNITS=M/Z
##YUNITS=RELATIVE INTENSITY
##XFACTOR=1
##YFACTOR=1
##FIRSTX=27
##LASTX=284
##FIRSTY=20
##MAXX=284
##MINX=27
##MAXY=9999
##MINY=20
##NPOINTS=67
##PEAK TABLE=(XY..XY)
27,20 29,300 30,671 41,731
42,440 43,1601 44,3083 55,851
56,260 57,1712 58,130 60,20
67,30 69,1501 70,751 71,1231
72,460 73,50 81,30 82,60
83,120 84,270 85,30 86,300
95,20 98,90 111,440 112,350
113,50 121,60 123,30 126,120
128,110 138,70 140,430 142,1601
143,140 150,290 152,631 154,631
155,30 156,641 164,9999 165,440
166,9168 167,410 168,50 170,1181
171,70 182,140 184,2803 185,280
240,60 250,791 251,40 252,771
253,30 262,4644 263,530 264,4744
265,571 266,40 268,1842 269,320
282,3383 283,571 284,30
##END=
