##TITLE=2,3,4-Trifluorobenzoic acid, 3-methylphenyl ester
##JCAMP-DX=4.24
##DATA TYPE=MASS SPECTRUM
##ORIGIN=Zaikin V.G., TIPS RAS, Moscow, Russia
##OWNER=NIST Mass Spectrometry Data Center
Collection (C) 2014 copyright by the U.S. Secretary of Commerce
on behalf of the United States of America. All rights reserved.
##$NIST MASS SPEC NO=308030
##MOLFORM=C14 H9 F3 O2
##MW=266
##$NIST SOURCE=MSDC
##XUNITS=M/Z
##YUNITS=RELATIVE INTENSITY
##XFACTOR=1
##YFACTOR=1
##FIRSTX=27
##LASTX=267
##FIRSTY=30
##MAXX=267
##MINX=27
##MAXY=9999
##MINY=30
##NPOINTS=23
##PEAK TABLE=(XY..XY)
27,30 39,80 51,70 52,40
53,50 62,30 63,40 65,40
77,190 78,70 79,80 81,460
107,60 108,30 112,40 130,40
131,1381 132,110 159,9999 160,721
161,40 266,1491 267,230
##END=
