##TITLE=Cyclobutanecarboxamide, N,N-didecyl-
##JCAMP-DX=4.24
##DATA TYPE=MASS SPECTRUM
##ORIGIN=Zaikin V.G., TIPS RAS, Moscow, Russia
##OWNER=NIST Mass Spectrometry Data Center
Collection (C) 2014 copyright by the U.S. Secretary of Commerce
on behalf of the United States of America. All rights reserved.
##$NIST MASS SPEC NO=308605
##MOLFORM=C25 H49 N O
##MW=379
##$NIST SOURCE=MSDC
##XUNITS=M/Z
##YUNITS=RELATIVE INTENSITY
##XFACTOR=1
##YFACTOR=1
##FIRSTX=25
##LASTX=380
##FIRSTY=80
##MAXX=380
##MINX=25
##MAXY=9999
##MINY=30
##NPOINTS=123
##PEAK TABLE=(XY..XY)
25,80 26,490 27,1111 28,450
29,1141 30,390 36,40 37,70
38,120 39,1021 40,200 41,2172
42,941 43,2532 44,1611 45,40
50,100 51,110 52,60 53,380
54,330 55,6786 56,1071 57,1101
58,150 65,30 67,220 68,150
69,510 70,591 71,270 72,140
77,30 79,60 80,30 81,150
82,260 83,1972 84,661 85,260
86,90 95,60 96,130 97,120
98,571 99,220 100,140 110,90
111,40 112,561 113,290 114,70
124,100 125,30 126,500 127,230
128,50 138,70 140,320 141,70
142,30 152,60 154,280 155,50
156,190 166,50 168,1341 169,180
170,9999 171,1261 172,60 180,30
182,310 183,80 184,841 185,100
194,30 196,330 197,60 198,1001
199,130 210,230 211,60 212,120
222,30 224,801 225,170 226,110
236,40 238,370 239,100 240,370
241,50 242,100 252,1181 253,250
254,140 266,410 267,80 268,50
280,510 281,110 282,60 294,450
295,100 296,931 297,200 308,711
309,160 322,420 323,100 324,4464
325,1031 326,110 336,300 337,60
350,571 351,140 364,130 365,30
378,210 379,200 380,80
##END=
