##TITLE=Benzamide, N,N-dinonyl-4-bromo-
##JCAMP-DX=4.24
##DATA TYPE=MASS SPECTRUM
##ORIGIN=Zaikin V.G., TIPS RAS, Moscow, Russia
##OWNER=NIST Mass Spectrometry Data Center
Collection (C) 2014 copyright by the U.S. Secretary of Commerce
on behalf of the United States of America. All rights reserved.
##$NIST MASS SPEC NO=308459
##MOLFORM=C25 H42 Br N O
##MW=451
##$NIST SOURCE=MSDC
##XUNITS=M/Z
##YUNITS=RELATIVE INTENSITY
##XFACTOR=1
##YFACTOR=1
##FIRSTX=26
##LASTX=455
##FIRSTY=100
##MAXX=455
##MINX=26
##MAXY=9999
##MINY=30
##NPOINTS=159
##PEAK TABLE=(XY..XY)
26,100 27,250 28,120 29,300
30,110 36,30 38,40 39,250
40,60 41,831 42,430 43,891
44,330 50,120 51,70 53,60
54,70 55,571 56,340 57,370
58,70 67,80 68,50 69,230
70,250 71,100 74,50 75,160
76,360 77,210 78,40 79,70
80,70 81,80 82,120 83,100
84,210 85,80 91,70 96,30
97,30 98,120 99,30 103,60
104,891 105,631 106,60 112,110
126,90 132,40 133,30 134,30
140,30 146,70 147,30 148,40
154,410 155,821 156,320 157,761
158,90 169,130 170,60 171,50
182,120 183,9999 184,901 185,9949
186,741 187,50 198,30 200,120
202,100 212,240 213,260 214,270
215,250 216,30 224,60 225,30
226,641 227,340 228,611 229,330
230,30 238,30 240,190 241,70
242,170 243,60 252,30 254,250
255,70 256,220 257,60 258,30
260,60 266,70 268,430 269,90
270,220 271,40 280,40 281,30
282,200 283,50 284,150 285,30
296,200 297,40 298,70 309,90
310,60 311,100 312,40 324,240
325,60 326,330 327,70 328,100
336,50 338,2622 339,771 340,2552
341,751 342,100 350,30 352,270
353,60 354,240 355,60 366,230
367,60 368,220 369,50 372,80
373,30 380,130 381,30 382,120
383,30 394,140 395,30 396,140
397,30 408,140 409,30 410,140
411,30 422,110 424,100 436,50
438,40 450,1201 451,1041 452,1421
453,1031 454,270 455,30
##END=
