##TITLE=Methanesulfonamide, N,N-didecyl-
##JCAMP-DX=4.24
##DATA TYPE=MASS SPECTRUM
##ORIGIN=Zaikin V.G., TIPS RAS, Moscow, Russia
##OWNER=NIST Mass Spectrometry Data Center
Collection (C) 2014 copyright by the U.S. Secretary of Commerce
on behalf of the United States of America. All rights reserved.
##$NIST MASS SPEC NO=308436
##MOLFORM=C21 H45 N O2 S
##MW=375
##$NIST SOURCE=MSDC
##XUNITS=M/Z
##YUNITS=RELATIVE INTENSITY
##XFACTOR=1
##YFACTOR=1
##FIRSTX=26
##LASTX=297
##FIRSTY=70
##MAXX=297
##MINX=26
##MAXY=9999
##MINY=30
##NPOINTS=64
##PEAK TABLE=(XY..XY)
26,70 27,150 28,70 29,190
30,170 36,70 39,160 40,40
41,631 42,330 43,911 44,460
48,40 53,50 54,70 55,691
56,360 57,731 58,70 64,110
67,110 68,70 69,440 70,270
71,260 79,100 81,90 82,60
83,561 84,641 85,250 95,60
96,110 97,300 98,280 99,40
108,470 110,160 111,40 112,150
122,9999 123,450 124,490 126,190
140,80 148,40 156,30 168,310
169,70 170,190 196,40 210,170
224,30 236,420 237,50 238,30
246,40 248,4944 249,741 250,290
251,30 294,30 296,320 297,70
##END=
