##TITLE=Benzamide, N-(2-fluorophenyl)-2-trifluoromethyl-
##JCAMP-DX=4.24
##DATA TYPE=MASS SPECTRUM
##ORIGIN=Zaikin V.G., TIPS RAS, Moscow, Russia
##OWNER=NIST Mass Spectrometry Data Center
Collection (C) 2014 copyright by the U.S. Secretary of Commerce
on behalf of the United States of America. All rights reserved.
##$NIST MASS SPEC NO=308530
##MOLFORM=C14 H9 F4 N O
##MW=283
##$NIST SOURCE=MSDC
##XUNITS=M/Z
##YUNITS=RELATIVE INTENSITY
##XFACTOR=1
##YFACTOR=1
##FIRSTX=28
##LASTX=284
##FIRSTY=10
##MAXX=284
##MINX=28
##MAXY=9999
##MINY=10
##NPOINTS=44
##PEAK TABLE=(XY..XY)
28,10 38,30 39,50 50,150
51,80 52,30 57,200 62,30
63,70 64,50 69,70 74,80
75,330 76,90 77,30 81,60
82,60 83,370 84,70 91,30
94,50 95,460 96,70 99,50
107,30 109,40 110,70 111,230
119,50 125,290 126,170 127,50
143,30 144,70 145,3753 146,330
173,9999 174,761 175,40 190,80
244,110 264,80 283,1892 284,280
##END=
