##TITLE=Propanamide, N,N-dinonyl-3-phenyl-
##JCAMP-DX=4.24
##DATA TYPE=MASS SPECTRUM
##ORIGIN=Zaikin V.G., TIPS RAS, Moscow, Russia
##OWNER=NIST Mass Spectrometry Data Center
Collection (C) 2014 copyright by the U.S. Secretary of Commerce
on behalf of the United States of America. All rights reserved.
##$NIST MASS SPEC NO=308220
##MOLFORM=C27 H47 N O
##MW=401
##$NIST SOURCE=MSDC
##XUNITS=M/Z
##YUNITS=RELATIVE INTENSITY
##XFACTOR=1
##YFACTOR=1
##FIRSTX=29
##LASTX=403
##FIRSTY=30
##MAXX=403
##MINX=29
##MAXY=9999
##MINY=30
##NPOINTS=101
##PEAK TABLE=(XY..XY)
29,30 30,150 41,90 43,360
44,1041 45,30 55,130 56,40
57,240 58,100 69,120 70,60
71,180 72,60 83,60 84,40
85,110 86,80 91,971 92,70
98,40 100,100 103,30 104,170
105,1151 106,180 112,40 114,60
126,30 128,40 131,80 132,40
133,380 134,30 142,230 143,30
144,60 154,120 156,9999 157,1191
158,50 162,40 163,350 164,30
170,1151 171,130 176,170 177,480
178,50 182,30 184,1872 185,230
190,180 191,160 198,250 200,50
202,140 204,190 205,70 212,210
218,260 219,60 226,310 227,30
232,180 233,50 240,140 246,130
254,110 260,100 268,591 269,130
270,120 274,160 275,230 276,150
288,801 289,550 290,80 296,8578
297,1792 298,200 302,460 303,110
310,390 311,80 316,681 317,180
330,380 331,90 344,350 345,90
358,460 359,120 372,440 373,120
386,130 400,270 401,3703 402,1271
403,210
##END=
