##TITLE=Benzamide, N,N-diheptyl-4-fluoro-
##JCAMP-DX=4.24
##DATA TYPE=MASS SPECTRUM
##ORIGIN=Zaikin V.G., TIPS RAS, Moscow, Russia
##OWNER=NIST Mass Spectrometry Data Center
Collection (C) 2014 copyright by the U.S. Secretary of Commerce
on behalf of the United States of America. All rights reserved.
##$NIST MASS SPEC NO=308308
##MOLFORM=C21 H34 F N O
##MW=335
##$NIST SOURCE=MSDC
##XUNITS=M/Z
##YUNITS=RELATIVE INTENSITY
##XFACTOR=1
##YFACTOR=1
##FIRSTX=27
##LASTX=337
##FIRSTY=30
##MAXX=337
##MINX=27
##MAXY=9999
##MINY=10
##NPOINTS=71
##PEAK TABLE=(XY..XY)
27,30 28,20 29,50 30,20
39,20 41,120 42,70 43,110
44,50 55,100 56,50 57,100
58,20 69,20 70,30 75,40
84,30 94,10 95,561 96,70
98,20 109,30 122,30 123,9999
124,631 125,40 126,90 128,60
140,60 141,50 142,20 152,160
153,170 154,30 156,20 164,20
166,410 167,250 168,20 180,130
181,50 194,180 195,50 206,30
208,210 209,40 212,40 220,20
221,50 222,50 236,150 237,40
238,60 240,30 248,20 250,2062
251,490 252,60 264,170 265,30
278,160 279,30 292,80 293,20
306,90 307,20 320,30 334,731
335,801 336,190 337,20
##END=
