##TITLE=Isonicotinic acid, (4-methoxyphenyl)methyl ester
##JCAMP-DX=4.24
##DATA TYPE=MASS SPECTRUM
##ORIGIN=Zaikin V.G., TIPS RAS, Moscow, Russia
##OWNER=NIST Mass Spectrometry Data Center
Collection (C) 2014 copyright by the U.S. Secretary of Commerce
on behalf of the United States of America. All rights reserved.
##$NIST MASS SPEC NO=308347
##MOLFORM=C14 H13 N O3
##MW=243
##$NIST SOURCE=MSDC
##XUNITS=M/Z
##YUNITS=RELATIVE INTENSITY
##XFACTOR=1
##YFACTOR=1
##FIRSTX=26
##LASTX=245
##FIRSTY=30
##MAXX=245
##MINX=26
##MAXY=9999
##MINY=10
##NPOINTS=47
##PEAK TABLE=(XY..XY)
26,30 27,20 28,10 36,30
39,110 41,50 44,70 50,220
51,761 52,240 53,60 55,30
63,120 64,80 65,170 66,60
76,50 77,911 78,1461 79,370
89,300 90,240 91,1001 92,270
93,40 94,130 105,260 106,791
107,220 108,30 109,410 110,30
119,190 120,2072 121,9999 122,921
123,210 125,30 135,240 136,90
137,190 228,290 229,40 242,80
243,6176 244,1001 245,100
##END=
