##TITLE=Nicotinamide, N-(4-bromophenyl)-
##JCAMP-DX=4.24
##DATA TYPE=MASS SPECTRUM
##ORIGIN=Zaikin V.G., TIPS RAS, Moscow, Russia
##OWNER=NIST Mass Spectrometry Data Center
Collection (C) 2014 copyright by the U.S. Secretary of Commerce
on behalf of the United States of America. All rights reserved.
##$NIST MASS SPEC NO=308108
##MOLFORM=C12 H9 Br N2 O
##MW=276
##$NIST SOURCE=MSDC
##XUNITS=M/Z
##YUNITS=RELATIVE INTENSITY
##XFACTOR=1
##YFACTOR=1
##FIRSTX=26
##LASTX=280
##FIRSTY=30
##MAXX=280
##MINX=26
##MAXY=9999
##MINY=20
##NPOINTS=45
##PEAK TABLE=(XY..XY)
26,30 27,60 28,20 38,60
39,100 50,230 51,1041 52,210
53,40 62,50 63,260 64,200
65,170 75,80 76,100 77,110
78,3954 79,350 90,120 91,370
92,130 105,60 106,9999 107,671
108,40 117,40 119,40 143,130
145,130 155,30 157,30 168,30
170,60 171,200 172,110 173,180
174,50 196,80 197,40 275,140
276,3223 277,601 278,3133 279,450
280,30
##END=
