##TITLE=Pentanamide, N-heptyl-N-octyl-5-bromo-
##JCAMP-DX=4.24
##DATA TYPE=MASS SPECTRUM
##ORIGIN=Zaikin V.G., TIPS RAS, Moscow, Russia
##OWNER=NIST Mass Spectrometry Data Center
Collection (C) 2014 copyright by the U.S. Secretary of Commerce
on behalf of the United States of America. All rights reserved.
##$NIST MASS SPEC NO=308264
##MOLFORM=C20 H40 Br N O
##MW=389
##$NIST SOURCE=MSDC
##XUNITS=M/Z
##YUNITS=RELATIVE INTENSITY
##XFACTOR=1
##YFACTOR=1
##FIRSTX=28
##LASTX=392
##FIRSTY=30
##MAXX=392
##MINX=28
##MAXY=9999
##MINY=20
##NPOINTS=134
##PEAK TABLE=(XY..XY)
28,30 29,70 30,140 36,140
41,240 42,40 43,400 44,1321
52,30 55,871 56,160 57,821
58,90 69,220 70,140 71,370
72,60 79,110 80,110 81,240
82,160 83,290 84,110 85,110
86,120 95,70 96,30 97,100
98,130 99,40 100,280 109,40
111,60 112,140 113,60 114,310
125,40 126,190 127,110 128,9859
129,811 135,350 137,320 140,120
141,60 142,9999 143,951 154,110
155,40 156,2002 157,200 163,290
165,280 168,130 170,1682 171,180
182,90 184,731 185,110 193,40
194,30 195,30 196,80 198,901
199,110 206,70 210,150 211,20
212,1001 213,110 220,40 222,50
224,110 225,30 226,891 227,150
228,110 234,40 236,140 237,40
238,340 239,80 240,190 248,120
250,110 252,130 254,9639 255,1651
256,130 262,40 264,50 266,150
268,170 276,30 277,30 278,120
280,80 281,110 282,1391 283,240
290,490 291,60 292,540 293,70
294,90 296,210 304,520 305,70
306,490 307,60 308,40 309,50
310,7707 311,1672 312,150 318,220
320,220 322,370 323,50 324,160
332,240 334,230 346,130 348,80
349,90 351,90 360,100 362,110
374,30 388,50 389,210 390,100
391,200 392,60
##END=
