##TITLE=Acetamide, N-[1-(3-acetoxyphenyl)-2-propyl]-
##JCAMP-DX=4.24
##DATA TYPE=MASS SPECTRUM
##ORIGIN=T.Kraemer ET AL., J.Chrom., B, 738,107 (2000)
##OWNER=NIST Mass Spectrometry Data Center
Collection (C) 2014 copyright by the U.S. Secretary of Commerce
on behalf of the United States of America. All rights reserved.
##$NIST MASS SPEC NO=308745
##MOLFORM=C13 H17 N O3
##MW=235
##$NIST SOURCE=MSDC
##XUNITS=M/Z
##YUNITS=RELATIVE INTENSITY
##XFACTOR=1
##YFACTOR=1
##FIRSTX=52
##LASTX=235
##FIRSTY=510
##MAXX=235
##MINX=52
##MAXY=9999
##MINY=40
##NPOINTS=33
##PEAK TABLE=(XY..XY)
52,510 53,370 55,160 56,40
57,150 60,130 63,260 64,70
65,270 72,110 77,1852 78,731
79,440 80,50 85,130 86,7016
87,380 89,180 90,160 91,420
103,110 105,380 107,4634 108,921
133,1792 134,9999 135,1141 136,130
150,160 176,7146 177,991 178,200
235,90
##END=
