##TITLE=Benzamide, N,N-dioctyl-2-trifluoromethyl-
##JCAMP-DX=4.24
##DATA TYPE=MASS SPECTRUM
##ORIGIN=Zaikin V.G., TIPS RAS, Moscow, Russia
##OWNER=NIST Mass Spectrometry Data Center
Collection (C) 2014 copyright by the U.S. Secretary of Commerce
on behalf of the United States of America. All rights reserved.
##$NIST MASS SPEC NO=308538
##MOLFORM=C24 H38 F3 N O
##MW=413
##$NIST SOURCE=MSDC
##XUNITS=M/Z
##YUNITS=RELATIVE INTENSITY
##XFACTOR=1
##YFACTOR=1
##FIRSTX=26
##LASTX=414
##FIRSTY=30
##MAXX=414
##MINX=26
##MAXY=9999
##MINY=30
##NPOINTS=96
##PEAK TABLE=(XY..XY)
26,30 27,60 28,30 29,80
39,80 41,260 42,130 43,230
44,70 50,30 55,190 56,110
57,150 67,40 69,120 70,90
71,60 75,30 81,30 83,40
84,50 95,60 96,40 98,30
112,30 125,40 126,90 127,40
130,110 140,60 144,30 145,1081
146,160 148,100 149,90 150,40
154,70 155,30 162,50 170,100
172,50 173,9999 174,821 175,50
182,160 183,50 190,80 196,70
197,50 202,180 203,130 204,30
214,30 216,791 217,430 218,50
230,190 231,70 232,30 244,160
245,50 246,260 247,40 258,240
259,50 260,80 272,130 273,30
274,40 282,40 286,50 294,30
300,80 302,100 314,971 315,420
316,70 328,240 329,50 342,250
343,60 344,1321 345,350 346,40
356,140 357,30 370,130 371,30
384,100 392,40 394,110 395,30
398,30 412,601 413,470 414,120
##END=
