##TITLE=Acetamide, 1-acetoxy-1-phenyl-2-propyl-
##JCAMP-DX=4.24
##DATA TYPE=MASS SPECTRUM
##ORIGIN=T.Kraemer ET AL., J.Chrom., B, 738,107 (2000)
##OWNER=NIST Mass Spectrometry Data Center
Collection (C) 2014 copyright by the U.S. Secretary of Commerce
on behalf of the United States of America. All rights reserved.
##$NIST MASS SPEC NO=308748
##MOLFORM=C13 H17 N O3
##MW=235
##$NIST SOURCE=MSDC
##XUNITS=M/Z
##YUNITS=RELATIVE INTENSITY
##XFACTOR=1
##YFACTOR=1
##FIRSTX=52
##LASTX=176
##FIRSTY=130
##MAXX=176
##MINX=52
##MAXY=9999
##MINY=70
##NPOINTS=32
##PEAK TABLE=(XY..XY)
52,130 56,110 57,150 60,70
63,150 65,170 72,641 73,220
77,1381 78,260 79,791 86,9999
87,2412 88,110 89,220 90,150
91,500 105,811 107,1311 108,220
115,500 116,150 117,440 118,170
119,110 129,771 130,90 132,170
133,350 134,701 175,180 176,500
##END=
