##TITLE=Benzamide, N,N-dinonyl-3-fluoro-
##JCAMP-DX=4.24
##DATA TYPE=MASS SPECTRUM
##ORIGIN=Zaikin V.G., TIPS RAS, Moscow, Russia
##OWNER=NIST Mass Spectrometry Data Center
Collection (C) 2014 copyright by the U.S. Secretary of Commerce
on behalf of the United States of America. All rights reserved.
##$NIST MASS SPEC NO=308402
##MOLFORM=C25 H42 F N O
##MW=391
##$NIST SOURCE=MSDC
##XUNITS=M/Z
##YUNITS=RELATIVE INTENSITY
##XFACTOR=1
##YFACTOR=1
##FIRSTX=27
##LASTX=393
##FIRSTY=50
##MAXX=393
##MINX=27
##MAXY=9999
##MINY=30
##NPOINTS=79
##PEAK TABLE=(XY..XY)
27,50 28,30 29,70 30,30
39,40 41,200 42,110 43,260
44,100 55,180 56,90 57,120
69,90 70,70 71,40 75,30
83,40 84,60 95,561 96,90
98,30 109,140 112,30 122,40
123,9999 124,661 125,40 140,120
152,210 153,200 154,160 156,100
164,40 166,731 167,370 168,40
180,140 181,60 182,30 184,80
194,230 195,60 206,30 208,230
209,60 220,30 222,120 223,30
236,60 249,80 250,40 264,250
265,60 266,170 267,30 268,80
276,40 278,3623 279,1001 280,150
292,290 293,80 296,140 297,30
306,240 307,60 320,120 321,30
334,140 335,30 348,130 349,30
362,120 363,30 376,50 390,1131
391,1271 392,360 393,50
##END=
