##TITLE=Benzamide, N,N-didecyl-2-trifluoromethyl-
##JCAMP-DX=4.24
##DATA TYPE=MASS SPECTRUM
##ORIGIN=Zaikin V.G., TIPS RAS, Moscow, Russia
##OWNER=NIST Mass Spectrometry Data Center
Collection (C) 2014 copyright by the U.S. Secretary of Commerce
on behalf of the United States of America. All rights reserved.
##$NIST MASS SPEC NO=308540
##MOLFORM=C28 H46 F3 N O
##MW=469
##$NIST SOURCE=MSDC
##XUNITS=M/Z
##YUNITS=RELATIVE INTENSITY
##XFACTOR=1
##YFACTOR=1
##FIRSTX=26
##LASTX=471
##FIRSTY=40
##MAXX=471
##MINX=26
##MAXY=9999
##MINY=20
##NPOINTS=128
##PEAK TABLE=(XY..XY)
26,40 27,80 28,30 29,80
36,40 39,100 41,290 42,120
43,330 44,130 50,30 53,30
54,30 55,310 56,160 57,220
67,80 68,30 69,190 70,120
71,90 73,30 75,30 77,40
79,30 81,80 82,40 83,120
84,90 85,70 91,20 95,80
96,70 97,100 98,40 105,30
109,50 111,50 112,30 123,30
125,70 126,80 127,40 130,110
133,40 134,30 145,781 146,140
147,30 148,100 150,40 154,70
155,30 162,50 168,80 170,130
172,40 173,9999 174,851 175,60
182,160 183,60 190,110 191,50
196,70 197,50 202,190 203,170
204,50 210,30 216,921 217,500
218,70 230,220 231,80 244,160
245,50 258,220 259,50 260,30
272,170 273,40 274,320 275,60
286,120 287,30 288,90 296,30
300,70 302,50 310,50 314,70
316,40 322,30 328,120 329,40
330,160 331,30 342,1461 343,711
344,160 356,380 357,100 358,30
370,360 371,90 384,230 385,60
398,220 399,70 400,2212 401,701
402,110 412,180 413,50 426,180
427,50 440,170 441,40 448,70
449,50 450,150 451,40 454,50
468,1151 469,931 470,270 471,40
##END=
