##TITLE=Cyclopropanecarboxamide, N,N-dinonyl-
##JCAMP-DX=4.24
##DATA TYPE=MASS SPECTRUM
##ORIGIN=Zaikin V.G., TIPS RAS, Moscow, Russia
##OWNER=NIST Mass Spectrometry Data Center
Collection (C) 2014 copyright by the U.S. Secretary of Commerce
on behalf of the United States of America. All rights reserved.
##$NIST MASS SPEC NO=308583
##MOLFORM=C22 H43 N O
##MW=337
##$NIST SOURCE=MSDC
##XUNITS=M/Z
##YUNITS=RELATIVE INTENSITY
##XFACTOR=1
##YFACTOR=1
##FIRSTX=25
##LASTX=338
##FIRSTY=40
##MAXX=338
##MINX=25
##MAXY=9999
##MINY=30
##NPOINTS=103
##PEAK TABLE=(XY..XY)
25,40 26,290 27,661 28,280
29,701 30,340 36,40 37,50
38,90 39,751 40,220 41,2863
42,841 43,1852 44,1151 45,30
50,30 51,40 52,30 53,130
54,130 55,1091 56,651 57,721
58,130 67,150 68,270 69,7267
70,831 71,300 72,70 79,40
81,90 82,120 83,210 84,460
85,190 86,110 95,40 96,100
97,80 98,651 99,480 100,100
110,90 111,50 112,1081 113,1131
114,120 124,60 126,480 127,230
128,30 138,70 140,370 141,200
142,110 152,60 154,801 155,180
156,9999 157,1051 158,50 166,40
168,290 169,80 170,230 182,230
183,70 184,210 195,40 196,220
197,40 198,40 210,250 211,60
212,200 214,30 222,40 224,4774
225,1021 226,180 238,390 239,70
240,30 252,410 253,90 266,420
267,90 268,350 269,60 280,270
281,30 294,210 295,40 296,340
297,60 308,160 309,30 322,60
336,80 337,320 338,90
##END=
