##TITLE=Benzamide, N,N-dibutyl-4-bromo-
##JCAMP-DX=4.24
##DATA TYPE=MASS SPECTRUM
##ORIGIN=Zaikin V.G., TIPS RAS, Moscow, Russia
##OWNER=NIST Mass Spectrometry Data Center
Collection (C) 2014 copyright by the U.S. Secretary of Commerce
on behalf of the United States of America. All rights reserved.
##$NIST MASS SPEC NO=308451
##MOLFORM=C15 H22 Br N O
##MW=311
##$NIST SOURCE=MSDC
##XUNITS=M/Z
##YUNITS=RELATIVE INTENSITY
##XFACTOR=1
##YFACTOR=1
##FIRSTX=26
##LASTX=314
##FIRSTY=50
##MAXX=314
##MINX=26
##MAXY=9999
##MINY=20
##NPOINTS=82
##PEAK TABLE=(XY..XY)
26,50 27,160 28,100 29,250
30,50 38,20 39,140 41,360
42,360 43,190 44,60 50,240
51,90 55,120 56,110 57,190
70,40 74,100 75,460 76,821
77,220 78,30 79,30 80,60
81,30 82,60 84,230 86,60
99,80 100,30 103,80 104,811
105,220 114,30 119,30 155,1481
156,230 157,1481 158,130 161,70
169,40 171,40 182,40 183,9999
184,791 185,9449 186,731 187,40
189,30 199,30 200,50 201,30
202,40 212,370 213,330 214,380
215,320 226,460 227,230 228,440
229,200 239,50 240,50 241,50
242,30 254,140 255,30 256,140
257,30 268,1581 269,380 270,1541
271,350 272,30 282,90 284,80
296,30 310,691 311,761 312,831
313,751 314,140
##END=
