##TITLE=Benzamide, N,N-diundecyl-2-fluoro-
##JCAMP-DX=4.24
##DATA TYPE=MASS SPECTRUM
##ORIGIN=Zaikin V.G., TIPS RAS, Moscow, Russia
##OWNER=NIST Mass Spectrometry Data Center
Collection (C) 2014 copyright by the U.S. Secretary of Commerce
on behalf of the United States of America. All rights reserved.
##$NIST MASS SPEC NO=308102
##MOLFORM=C29 H50 F N O
##MW=447
##$NIST SOURCE=MSDC
##XUNITS=M/Z
##YUNITS=RELATIVE INTENSITY
##XFACTOR=1
##YFACTOR=1
##FIRSTX=41
##LASTX=449
##FIRSTY=60
##MAXX=449
##MINX=41
##MAXY=9999
##MINY=30
##NPOINTS=98
##PEAK TABLE=(XY..XY)
41,60 43,140 44,90 55,100
56,30 57,120 58,50 69,60
70,30 71,40 83,30 95,110
97,30 123,9999 124,761 125,40
140,220 146,130 147,40 148,30
152,280 153,320 154,80 160,180
161,110 166,1591 167,931 168,80
174,40 175,30 180,230 181,100
182,250 183,30 184,170 188,40
194,350 195,100 198,50 207,40
208,350 209,70 210,40 212,100
222,160 223,40 236,110 250,140
264,110 277,150 278,90 286,591
287,360 288,120 292,601 293,170
294,390 295,70 300,951 301,270
302,40 304,30 306,6876 307,2432
308,360 314,60 315,30 320,581
321,170 322,50 324,190 325,40
334,430 335,100 348,250 349,60
352,170 353,30 362,280 363,70
376,240 377,70 390,220 391,60
404,190 405,60 418,220 419,60
427,270 428,520 429,140 430,50
432,100 433,30 446,2042 447,2522
448,801 449,120
##END=
