##TITLE=Hexanamide, N,N-diundecyl-6-bromo-
##JCAMP-DX=4.24
##DATA TYPE=MASS SPECTRUM
##ORIGIN=Zaikin V.G., TIPS RAS, Moscow, Russia
##OWNER=NIST Mass Spectrometry Data Center
Collection (C) 2014 copyright by the U.S. Secretary of Commerce
on behalf of the United States of America. All rights reserved.
##$NIST MASS SPEC NO=308655
##MOLFORM=C28 H56 Br N O
##MW=501
##$NIST SOURCE=MSDC
##XUNITS=M/Z
##YUNITS=RELATIVE INTENSITY
##XFACTOR=1
##YFACTOR=1
##FIRSTX=24
##LASTX=503
##FIRSTY=30
##MAXX=503
##MINX=24
##MAXY=9999
##MINY=20
##NPOINTS=210
##PEAK TABLE=(XY..XY)
24,30 25,150 26,1011 27,1762
28,490 29,1221 30,771 35,130
36,711 37,160 38,440 39,1521
40,370 41,3673 42,1311 43,3523
44,3313 45,140 50,220 51,260
52,210 53,370 54,350 55,2562
56,1091 57,1722 58,250 59,30
60,120 63,60 65,100 66,80
67,581 68,310 69,3283 70,891
71,641 72,210 73,400 74,50
75,80 76,30 77,190 78,120
79,671 80,751 81,631 82,841
83,380 84,510 85,290 86,240
87,280 91,170 92,40 93,90
94,50 95,210 96,250 97,400
98,380 99,180 100,240 101,100
102,30 103,40 105,90 106,100
107,100 108,30 109,130 110,80
111,100 112,320 113,90 114,260
115,100 117,40 119,70 121,30
122,30 123,60 124,50 125,30
126,270 127,70 128,250 129,40
130,50 131,30 133,220 134,40
135,60 138,30 139,30 140,250
141,90 142,220 143,30 147,50
149,70 151,50 152,40 154,180
155,40 156,160 163,30 168,140
169,20 170,250 171,30 177,350
178,40 179,250 180,40 182,561
183,80 184,9999 185,1371 186,80
191,260 192,40 193,150 194,40
196,110 197,60 198,741 199,80
210,200 211,30 212,1381 213,300
214,50 222,30 224,90 226,2292
227,370 228,30 238,90 240,430
241,60 249,20 250,40 252,100
254,390 255,60 262,50 264,90
265,40 266,100 267,90 268,430
269,70 280,140 282,410 283,140
294,70 296,180 308,70 310,190
311,30 322,80 324,581 325,120
326,40 336,100 338,100 348,90
350,200 351,50 352,5865 353,1491
354,190 355,40 360,170 361,30
362,160 363,30 364,50 366,30
367,60 374,50 376,50 378,60
380,711 381,180 388,130 390,110
394,120 402,70 404,60 416,50
418,40 420,50 421,30 422,1141
423,350 424,30 430,90 432,70
444,70 446,60 458,60 460,60
472,40 474,30 500,80 501,30
502,80 503,30
##END=
