##TITLE=2,2-Dimethylpropanoic acid, 3-methylphenyl ester
##JCAMP-DX=4.24
##DATA TYPE=MASS SPECTRUM
##ORIGIN=Zaikin V.G., TIPS RAS, Moscow, Russia
##OWNER=NIST Mass Spectrometry Data Center
Collection (C) 2014 copyright by the U.S. Secretary of Commerce
on behalf of the United States of America. All rights reserved.
##$NIST MASS SPEC NO=308039
##MOLFORM=C12 H16 O2
##MW=192
##$NIST SOURCE=MSDC
##XUNITS=M/Z
##YUNITS=RELATIVE INTENSITY
##XFACTOR=1
##YFACTOR=1
##FIRSTX=27
##LASTX=193
##FIRSTY=70
##MAXX=193
##MINX=27
##MAXY=9999
##MINY=30
##NPOINTS=33
##PEAK TABLE=(XY..XY)
27,70 28,130 29,330 39,200
41,641 42,70 51,60 52,50
53,70 55,70 56,50 57,4334
58,160 65,140 69,60 77,330
78,70 79,380 80,200 81,30
85,1641 86,70 90,180 91,290
107,1191 108,9999 109,921 110,40
124,120 128,80 149,190 192,1351
193,160
##END=
