##TITLE=Phenylacetamide, N-decyl-N-methyl-
##JCAMP-DX=4.24
##DATA TYPE=MASS SPECTRUM
##ORIGIN=Zaikin V.G., TIPS RAS, Moscow, Russia
##OWNER=NIST Mass Spectrometry Data Center
Collection (C) 2014 copyright by the U.S. Secretary of Commerce
on behalf of the United States of America. All rights reserved.
##$NIST MASS SPEC NO=308409
##MOLFORM=C19 H31 N O
##MW=289
##$NIST SOURCE=MSDC
##XUNITS=M/Z
##YUNITS=RELATIVE INTENSITY
##XFACTOR=1
##YFACTOR=1
##FIRSTX=26
##LASTX=291
##FIRSTY=80
##MAXX=291
##MINX=26
##MAXY=9999
##MINY=30
##NPOINTS=101
##PEAK TABLE=(XY..XY)
26,80 27,230 28,200 29,500
30,80 39,270 40,60 41,1321
42,671 43,3523 44,8788 45,230
51,50 53,60 54,60 55,1081
56,370 57,5685 58,791 59,30
63,90 64,30 65,500 66,30
67,60 68,40 69,390 70,290
71,3853 72,631 73,40 74,140
77,30 83,180 84,110 85,4204
86,470 87,40 89,250 90,370
91,5155 92,1922 93,140 97,60
98,100 99,711 100,190 104,200
105,50 106,90 107,90 112,90
113,50 114,240 117,40 118,460
119,110 120,190 126,40 128,110
132,30 141,30 142,80 146,30
148,581 149,160 150,290 156,90
162,1021 163,2252 164,250 170,360
171,50 172,50 176,350 177,110
190,661 191,110 198,9999 199,1391
200,100 204,270 205,40 216,220
217,30 218,150 219,30 232,180
233,30 246,250 247,50 254,240
255,40 260,210 261,30 274,300
275,50 288,170 289,2352 290,540
291,50
##END=
