##TITLE=Benzamide, N,N-diheptyl-4-ethyl-
##JCAMP-DX=4.24
##DATA TYPE=MASS SPECTRUM
##ORIGIN=Zaikin V.G., TIPS RAS, Moscow, Russia
##OWNER=NIST Mass Spectrometry Data Center
Collection (C) 2014 copyright by the U.S. Secretary of Commerce
on behalf of the United States of America. All rights reserved.
##$NIST MASS SPEC NO=308548
##MOLFORM=C23 H39 N O
##MW=345
##$NIST SOURCE=MSDC
##XUNITS=M/Z
##YUNITS=RELATIVE INTENSITY
##XFACTOR=1
##YFACTOR=1
##FIRSTX=26
##LASTX=346
##FIRSTY=100
##MAXX=346
##MINX=26
##MAXY=9999
##MINY=20
##NPOINTS=80
##PEAK TABLE=(XY..XY)
26,100 27,280 28,110 29,290
30,70 39,180 40,40 41,490
42,290 43,480 44,200 50,30
51,60 53,40 54,30 55,250
56,170 57,200 58,50 63,20
65,30 69,50 70,80 77,290
78,80 79,420 84,70 89,50
90,80 91,130 98,30 103,270
104,170 105,701 106,80 118,50
119,80 126,120 128,70 131,90
132,110 133,9999 134,931 135,90
142,100 148,30 150,50 162,170
163,170 174,30 176,360 177,220
190,130 191,50 204,210 205,60
212,50 216,40 218,240 219,40
231,40 232,70 240,40 246,150
247,40 248,40 258,30 260,1121
261,350 262,50 274,150 275,30
288,180 289,40 302,110 316,110
330,20 344,991 345,861 346,210
##END=
