##TITLE=Propanamide, N,N-didecyl-2-bromo-
##JCAMP-DX=4.24
##DATA TYPE=MASS SPECTRUM
##ORIGIN=Zaikin V.G., TIPS RAS, Moscow, Russia
##OWNER=NIST Mass Spectrometry Data Center
Collection (C) 2014 copyright by the U.S. Secretary of Commerce
on behalf of the United States of America. All rights reserved.
##$NIST MASS SPEC NO=308380
##MOLFORM=C23 H46 Br N O
##MW=431
##$NIST SOURCE=MSDC
##XUNITS=M/Z
##YUNITS=RELATIVE INTENSITY
##XFACTOR=1
##YFACTOR=1
##FIRSTX=28
##LASTX=434
##FIRSTY=30
##MAXX=434
##MINX=28
##MAXY=9999
##MINY=20
##NPOINTS=119
##PEAK TABLE=(XY..XY)
28,30 29,80 30,150 41,140
42,50 43,430 44,871 55,270
56,110 57,490 58,50 67,20
69,180 70,90 71,260 72,40
74,20 80,20 81,20 82,40
83,150 84,60 85,250 86,130
87,40 95,20 96,20 97,80
98,100 99,50 100,70 101,40
107,70 109,70 112,70 114,20
126,70 128,20 135,50 137,40
140,40 142,30 154,40 156,120
164,30 166,60 168,220 170,4814
171,601 172,20 178,1241 179,60
180,1201 181,40 182,250 183,20
184,561 185,60 196,110 198,170
199,20 210,100 212,671 213,100
214,70 224,150 225,20 226,2883
227,440 228,150 238,120 239,20
240,140 248,80 250,80 252,140
253,20 254,80 266,60 268,30
278,20 280,50 282,30 292,150
294,160 296,911 297,210 304,1421
305,220 306,1461 307,220 308,30
318,60 320,50 322,310 323,60
324,4134 325,981 326,100 332,70
334,70 346,50 348,40 350,110
351,30 352,9999 353,2662 354,330
360,20 362,20 402,811 403,170
404,781 405,160 430,40 431,30
432,80 433,40 434,30
##END=
