##TITLE=Benzamide, N,N-dinonyl-4-chloro-
##JCAMP-DX=4.24
##DATA TYPE=MASS SPECTRUM
##ORIGIN=Zaikin V.G., TIPS RAS, Moscow, Russia
##OWNER=NIST Mass Spectrometry Data Center
Collection (C) 2014 copyright by the U.S. Secretary of Commerce
on behalf of the United States of America. All rights reserved.
##$NIST MASS SPEC NO=308593
##MOLFORM=C25 H42 Cl N O
##MW=407
##$NIST SOURCE=MSDC
##XUNITS=M/Z
##YUNITS=RELATIVE INTENSITY
##XFACTOR=1
##YFACTOR=1
##FIRSTX=26
##LASTX=410
##FIRSTY=70
##MAXX=410
##MINX=26
##MAXY=9999
##MINY=20
##NPOINTS=117
##PEAK TABLE=(XY..XY)
26,70 27,160 28,70 29,190
30,60 36,40 39,160 40,30
41,490 42,260 43,510 44,240
50,60 51,40 53,40 54,40
55,340 56,200 57,220 58,40
67,50 68,30 69,140 70,150
71,60 74,30 75,120 76,100
77,80 81,30 82,30 83,60
84,120 85,40 91,30 98,70
104,180 105,120 111,741 112,190
113,240 114,30 125,60 126,50
138,40 139,9999 140,761 141,3073
142,240 154,240 155,30 156,260
158,30 168,220 169,250 170,100
171,70 180,40 182,561 183,330
184,220 185,100 194,20 196,170
197,60 198,60 210,220 211,60
212,70 222,30 224,240 225,50
226,70 236,30 238,160 239,30
240,50 252,80 265,90 266,60
267,40 268,100 280,240 281,140
282,200 283,50 284,30 292,40
294,2462 295,701 296,991 297,250
298,30 306,30 308,240 309,60
310,80 322,230 323,50 324,80
336,130 337,30 338,40 350,140
351,30 352,50 364,140 365,30
366,50 378,110 380,30 392,40
406,1121 407,901 408,601 409,320
410,70
##END=
