##TITLE=Dichloroacetamide, N-heptyl-N-octyl-
##JCAMP-DX=4.24
##DATA TYPE=MASS SPECTRUM
##ORIGIN=Zaikin V.G., TIPS RAS, Moscow, Russia
##OWNER=NIST Mass Spectrometry Data Center
Collection (C) 2014 copyright by the U.S. Secretary of Commerce
on behalf of the United States of America. All rights reserved.
##$NIST MASS SPEC NO=308636
##MOLFORM=C17 H33 Cl2 N O
##MW=337
##$NIST SOURCE=MSDC
##XUNITS=M/Z
##YUNITS=RELATIVE INTENSITY
##XFACTOR=1
##YFACTOR=1
##FIRSTX=25
##LASTX=305
##FIRSTY=170
##MAXX=305
##MINX=25
##MAXY=9999
##MINY=20
##NPOINTS=182
##PEAK TABLE=(XY..XY)
25,170 26,1001 27,2602 28,1481
29,3703 30,1601 35,561 36,3383
37,310 38,1061 39,2012 40,540
41,8167 42,3583 43,7817 44,4354
45,130 47,130 48,270 49,330
50,240 51,230 52,180 53,601
54,611 55,6055 56,2562 57,9318
58,681 62,30 63,70 64,70
65,160 66,80 67,761 68,550
69,3263 70,1611 71,2372 72,360
73,100 74,60 75,140 76,540
77,420 78,230 79,290 80,190
81,440 82,470 83,1081 84,1131
85,661 86,190 87,60 89,40
90,50 91,180 92,100 93,90
94,150 95,190 96,280 97,661
98,871 99,290 100,80 102,40
103,30 104,60 105,110 106,400
107,80 108,200 109,90 110,200
111,250 112,550 113,150 114,120
115,40 117,30 118,50 119,130
120,991 121,110 122,340 123,30
124,90 126,971 127,130 128,971
129,60 130,160 132,80 133,90
134,70 135,50 138,60 139,170
140,1511 141,300 142,2042 143,160
144,470 146,120 147,50 148,50
152,50 154,9999 155,631 156,6676
157,651 158,1071 159,90 160,50
162,70 166,40 168,500 169,70
170,1651 171,150 174,80 176,70
177,30 180,50 182,340 183,220
184,110 185,140 190,250 191,60
192,170 193,60 194,70 196,140
198,90 200,30 202,100 204,861
205,80 206,320 207,80 208,30
210,80 212,60 216,80 218,641
219,50 220,190 224,90 226,360
227,40 228,110 230,40 232,40
238,881 239,80 240,691 241,60
242,190 244,20 252,1201 253,140
254,8067 255,1351 256,150 266,350
267,40 268,240 269,30 274,70
280,60 281,50 282,50 288,250
289,30 290,70 302,3353 303,591
304,1101 305,180
##END=
