##TITLE=Cyclobutanecarboxamide, N,N-diheptyl-
##JCAMP-DX=4.24
##DATA TYPE=MASS SPECTRUM
##ORIGIN=Zaikin V.G., TIPS RAS, Moscow, Russia
##OWNER=NIST Mass Spectrometry Data Center
Collection (C) 2014 copyright by the U.S. Secretary of Commerce
on behalf of the United States of America. All rights reserved.
##$NIST MASS SPEC NO=308601
##MOLFORM=C19 H37 N O
##MW=295
##$NIST SOURCE=MSDC
##XUNITS=M/Z
##YUNITS=RELATIVE INTENSITY
##XFACTOR=1
##YFACTOR=1
##FIRSTX=26
##LASTX=296
##FIRSTY=160
##MAXX=296
##MINX=26
##MAXY=9999
##MINY=30
##NPOINTS=85
##PEAK TABLE=(XY..XY)
26,160 27,350 28,140 29,370
30,130 36,60 39,260 40,50
41,561 42,270 43,470 44,530
53,120 54,80 55,2252 56,270
57,370 58,40 67,40 68,30
69,80 70,140 71,30 72,80
79,30 81,80 82,180 83,1461
84,430 85,120 86,60 96,70
97,60 98,420 99,160 100,90
110,60 111,30 112,420 113,250
114,200 124,60 126,1071 127,280
128,9999 129,921 130,70 138,60
140,340 141,130 142,691 143,60
152,40 154,330 155,60 156,671
157,60 168,360 169,80 170,110
182,661 183,130 184,80 196,270
197,60 198,200 200,40 210,901
211,180 212,601 213,90 224,520
225,80 238,420 239,70 240,1942
241,330 252,180 253,30 266,300
267,50 280,60 294,40 295,150
296,50
##END=
