##TITLE=Carbamic acid, 4-bromophenyl-, ethyl ester
##JCAMP-DX=4.24
##DATA TYPE=MASS SPECTRUM
##ORIGIN=Zaikin V.G., TIPS RAS, Moscow, Russia
##OWNER=NIST Mass Spectrometry Data Center
Collection (C) 2014 copyright by the U.S. Secretary of Commerce
on behalf of the United States of America. All rights reserved.
##$NIST MASS SPEC NO=314760
##MOLFORM=C9 H10 Br N O2
##MW=243
##$NIST SOURCE=MSDC
##XUNITS=M/Z
##YUNITS=RELATIVE INTENSITY
##XFACTOR=1
##YFACTOR=1
##FIRSTX=25
##LASTX=247
##FIRSTY=20
##MAXX=247
##MINX=25
##MAXY=9999
##MINY=20
##NPOINTS=72
##PEAK TABLE=(XY..XY)
25,20 26,300 27,1982 28,3333
29,8348 30,180 31,250 37,330
38,631 39,711 40,130 45,841
46,30 49,50 50,691 51,40
52,240 61,340 62,881 63,3203
64,2192 65,1922 66,160 74,340
75,611 76,641 88,70 90,2132
91,4364 92,2672 93,400 104,60
105,611 117,460 118,110 119,741
120,340 135,290 136,30 145,1301
146,130 155,370 156,30 157,530
158,60 163,20 170,2933 171,8818
172,3773 173,7987 174,601 182,80
183,60 184,6506 185,601 186,6226
187,510 197,1521 198,831 199,1611
200,841 201,50 214,20 215,921
216,120 217,901 218,70 243,9999
244,1081 245,9719 246,1031 247,60
##END=
