##TITLE=Methyl 2-hydroxyhexadecanoate, TBDMS derivative
##JCAMP-DX=4.24
##DATA TYPE=MASS SPECTRUM
##ORIGIN=D. L. Chance ET AL. J. Chrom. A, 793, 91(1998)
##OWNER=NIST Mass Spectrometry Data Center
Collection (C) 2014 copyright by the U.S. Secretary of Commerce
on behalf of the United States of America. All rights reserved.
##$NIST MASS SPEC NO=314795
##MOLFORM=C23 H48 O3 Si
##MW=400
##$NIST SOURCE=MSDC
##XUNITS=M/Z
##YUNITS=RELATIVE INTENSITY
##XFACTOR=1
##YFACTOR=1
##FIRSTX=27
##LASTX=387
##FIRSTY=1231
##MAXX=387
##MINX=27
##MAXY=9999
##MINY=90
##NPOINTS=122
##PEAK TABLE=(XY..XY)
27,1231 29,2512 30,190 31,230
33,210 36,160 37,120 38,190
39,881 41,3553 42,1321 43,4434
44,320 45,1672 46,190 47,490
48,190 50,160 51,280 53,581
54,651 55,3093 56,2202 57,4044
58,510 59,671 60,160 61,210
62,140 63,160 64,230 66,140
67,320 68,160 69,1371 70,120
71,1231 72,510 73,7457 74,2552
75,3924 76,741 77,651 78,160
79,350 80,320 81,951 82,350
83,1742 84,370 85,1021 86,300
87,460 88,160 89,9338 90,390
91,390 93,350 94,280 95,1141
96,440 97,1792 98,530 99,651
100,300 101,841 102,280 107,951
108,230 109,460 110,210 111,440
112,230 113,791 114,320 115,2322
116,230 117,320 120,1862 121,280
129,420 131,260 133,300 145,1021
146,1141 157,280 159,1551 160,210
185,230 186,210 201,721 202,140
203,140 204,160 238,350 255,160
269,120 272,90 282,420 284,90
286,190 300,260 315,2973 316,320
317,120 320,120 322,160 325,420
326,120 331,160 332,160 334,190
336,120 341,1231 342,350 343,9999
344,2272 345,581 346,120 385,721
386,230 387,120
##END=
