##TITLE=Benzoic acid, 4-(1-oxo-2-pyrrolidinohexyl)-, trimethylsilyl ester
##JCAMP-DX=4.24
##DATA TYPE=MASS SPECTRUM
##ORIGIN=D.Springer ET AL. J.Chrom.B, 789,79(2003)
##OWNER=NIST Mass Spectrometry Data Center
Collection (C) 2014 copyright by the U.S. Secretary of Commerce
on behalf of the United States of America. All rights reserved.
##$NIST MASS SPEC NO=314306
##MOLFORM=C20 H31 N O3 Si
##MW=361
##$NIST SOURCE=MSDC
##XUNITS=M/Z
##YUNITS=RELATIVE INTENSITY
##XFACTOR=1
##YFACTOR=1
##FIRSTX=53
##LASTX=355
##FIRSTY=50
##MAXX=355
##MINX=53
##MAXY=9999
##MINY=50
##NPOINTS=28
##PEAK TABLE=(XY..XY)
53,50 54,100 55,210 56,230
68,60 69,390 73,290 74,80
76,420 84,490 96,420 97,390
98,150 103,210 104,571 133,130
134,160 135,160 140,9999 141,1251
142,60 146,80 150,80 178,631
179,110 221,230 346,240 355,50
##END=
