##TITLE=4'-Methyl-.alpha.-pyrrolidinohexanophenone
##JCAMP-DX=4.24
##DATA TYPE=MASS SPECTRUM
##ORIGIN=D.Springer ET AL. J.Chrom.B, 789,79(2003)
##OWNER=NIST Mass Spectrometry Data Center
Collection (C) 2014 copyright by the U.S. Secretary of Commerce
on behalf of the United States of America. All rights reserved.
##$NIST MASS SPEC NO=314299
##MOLFORM=C17 H25 N O
##MW=259
##$NIST SOURCE=MSDC
##XUNITS=M/Z
##YUNITS=RELATIVE INTENSITY
##XFACTOR=1
##YFACTOR=1
##FIRSTX=52
##LASTX=259
##FIRSTY=70
##MAXX=259
##MINX=52
##MAXY=9999
##MINY=30
##NPOINTS=47
##PEAK TABLE=(XY..XY)
52,70 53,80 54,230 55,410
56,210 63,110 65,490 66,50
67,110 68,160 69,440 70,260
83,70 84,500 85,30 89,110
90,80 91,781 92,70 93,50
94,70 96,420 97,310 98,180
105,80 106,70 108,70 110,490
111,70 115,70 116,30 117,50
119,420 120,80 123,30 124,50
136,80 137,30 138,230 140,9999
141,1061 142,70 202,130 203,30
228,70 258,30 259,30
##END=
