##TITLE=Benzoic acid, 4-[1-hydroxy-2-(2-oxopyrrolidino)hexyl]-, ethyl ester
##JCAMP-DX=4.24
##DATA TYPE=MASS SPECTRUM
##ORIGIN=D.Springer ET AL. J.Chrom. B, 789,79(2003)
##OWNER=NIST Mass Spectrometry Data Center
Collection (C) 2014 copyright by the U.S. Secretary of Commerce
on behalf of the United States of America. All rights reserved.
##$NIST MASS SPEC NO=314305
##MOLFORM=C19 H27 N O4
##MW=333
##$NIST SOURCE=MSDC
##XUNITS=M/Z
##YUNITS=RELATIVE INTENSITY
##XFACTOR=1
##YFACTOR=1
##FIRSTX=52
##LASTX=289
##FIRSTY=50
##MAXX=289
##MINX=52
##MAXY=9999
##MINY=20
##NPOINTS=65
##PEAK TABLE=(XY..XY)
52,50 54,80 55,160 56,280
57,50 59,80 61,50 63,60
65,50 68,210 69,751 70,390
71,60 73,100 75,100 76,130
77,410 78,240 79,340 80,60
82,60 83,130 84,110 86,601
87,150 89,80 91,180 93,50
95,100 96,130 98,2993 99,440
100,60 102,20 103,50 104,50
105,340 106,571 107,100 109,260
111,80 112,581 113,100 116,100
117,60 119,160 126,130 130,60
133,310 134,310 147,80 149,150
150,80 151,110 154,9999 155,1461
156,130 158,80 160,30 163,80
177,80 179,520 287,30 288,160
289,20
##END=
