##TITLE=4'-Ethoxycarbonyl-.alpha.-(2-oxopyrrolidino)hexanophene
##JCAMP-DX=4.24
##DATA TYPE=MASS SPECTRUM
##ORIGIN=D.Springer ET AL. J.Chrom. B, 789,79(2003)
##OWNER=NIST Mass Spectrometry Data Center
Collection (C) 2014 copyright by the U.S. Secretary of Commerce
on behalf of the United States of America. All rights reserved.
##$NIST MASS SPEC NO=314302
##MOLFORM=C19 H25 N O4
##MW=331
##$NIST SOURCE=MSDC
##XUNITS=M/Z
##YUNITS=RELATIVE INTENSITY
##XFACTOR=1
##YFACTOR=1
##FIRSTX=54
##LASTX=286
##FIRSTY=60
##MAXX=286
##MINX=54
##MAXY=9999
##MINY=60
##NPOINTS=35
##PEAK TABLE=(XY..XY)
54,60 55,110 56,60 59,60
65,160 66,80 68,60 69,751
70,180 71,110 75,130 76,160
79,80 83,110 85,140 86,641
87,180 91,160 97,110 98,3033
99,130 104,480 106,110 112,160
115,160 121,130 124,100 133,100
143,100 149,540 151,190 154,9999
155,1051 177,290 286,240
##END=
