##TITLE=Acetic acid, 3-mercapto-3-methylbutyl ester
##JCAMP-DX=4.24
##DATA TYPE=MASS SPECTRUM
##ORIGIN=T.Tominaga ET AL. J.Agric. Food Chem., 48, 2874(2000)
##OWNER=NIST Mass Spectrometry Data Center
Collection (C) 2014 copyright by the U.S. Secretary of Commerce
on behalf of the United States of America. All rights reserved.
##$NIST MASS SPEC NO=314314
##MOLFORM=C7 H14 O2 S
##MW=162
##$NIST SOURCE=MSDC
##XUNITS=M/Z
##YUNITS=RELATIVE INTENSITY
##XFACTOR=1
##YFACTOR=1
##FIRSTX=38
##LASTX=162
##FIRSTY=70
##MAXX=162
##MINX=38
##MAXY=9999
##MINY=20
##NPOINTS=31
##PEAK TABLE=(XY..XY)
38,70 39,1461 40,220 41,4534
42,571 43,9999 44,220 45,440
47,490 53,440 55,651 56,721
57,270 59,831 60,160 61,330
67,300 68,460 69,7667 70,420
71,340 73,120 74,360 75,1071
77,50 86,180 87,771 102,1692
103,100 104,100 162,20
##END=
