##TITLE=Carbamic acid, 3-chlorophenyl-, methyl ester
##JCAMP-DX=4.24
##DATA TYPE=MASS SPECTRUM
##ORIGIN=Zaikin V.G., TIPS RAS, Moscow, Russia
##OWNER=NIST Mass Spectrometry Data Center
Collection (C) 2014 copyright by the U.S. Secretary of Commerce
on behalf of the United States of America. All rights reserved.
##$NIST MASS SPEC NO=314750
##MOLFORM=C8 H8 Cl N O2
##MW=185
##$NIST SOURCE=MSDC
##XUNITS=M/Z
##YUNITS=RELATIVE INTENSITY
##XFACTOR=1
##YFACTOR=1
##FIRSTX=26
##LASTX=188
##FIRSTY=20
##MAXX=188
##MINX=26
##MAXY=9999
##MINY=20
##NPOINTS=80
##PEAK TABLE=(XY..XY)
26,20 27,20 28,30 29,70
30,50 31,90 36,40 37,80
38,220 39,260 40,30 44,110
45,60 49,50 50,160 51,130
52,130 59,1742 60,50 61,110
62,280 63,871 64,530 65,220
66,20 72,30 73,360 74,120
75,490 76,70 77,400 78,110
79,340 80,20 85,60 86,30
87,40 88,60 89,140 90,901
91,881 92,70 97,20 98,80
99,1752 100,190 101,571 102,50
105,140 106,390 107,40 111,681
112,230 113,290 114,130 124,40
125,741 126,1151 127,601 128,440
129,40 130,40 132,20 135,100
138,30 140,5545 141,360 142,1852
149,50 150,30 153,4454 154,901
155,1481 156,210 169,40 184,30
185,9999 186,891 187,3313 188,270
##END=
