##TITLE=4'-Ethoxycarbonyl-.alpha.-pyrrolidinohexanophene
##JCAMP-DX=4.24
##DATA TYPE=MASS SPECTRUM
##ORIGIN=D.Springer ET AL. J.Chrom.B, 789,79(2003)
##OWNER=NIST Mass Spectrometry Data Center
Collection (C) 2014 copyright by the U.S. Secretary of Commerce
on behalf of the United States of America. All rights reserved.
##$NIST MASS SPEC NO=314301
##MOLFORM=C19 H27 N O3
##MW=317
##$NIST SOURCE=MSDC
##XUNITS=M/Z
##YUNITS=RELATIVE INTENSITY
##XFACTOR=1
##YFACTOR=1
##FIRSTX=52
##LASTX=272
##FIRSTY=60
##MAXX=272
##MINX=52
##MAXY=9999
##MINY=50
##NPOINTS=43
##PEAK TABLE=(XY..XY)
52,60 53,110 54,310 55,601
56,320 57,60 59,60 63,60
65,450 67,100 68,230 69,681
70,320 72,80 74,60 75,150
76,581 77,210 82,150 84,731
91,110 93,60 94,60 96,671
97,450 98,310 103,260 105,150
110,410 115,60 119,50 121,230
132,60 138,80 140,9999 141,1962
142,110 149,420 177,290 198,360
260,160 261,50 272,370
##END=
