##TITLE=Ephedrine, N-propyloxycarbonyl-
##JCAMP-DX=4.24
##DATA TYPE=MASS SPECTRUM
##ORIGIN=R.Meatherall, J.Anal.Tox., 19,316(1995)
##OWNER=NIST Mass Spectrometry Data Center
Collection (C) 2014 copyright by the U.S. Secretary of Commerce
on behalf of the United States of America. All rights reserved.
##$NIST MASS SPEC NO=314784
##MOLFORM=C14 H21 N O3
##MW=251
##$NIST SOURCE=MSDC
##XUNITS=M/Z
##YUNITS=RELATIVE INTENSITY
##XFACTOR=1
##YFACTOR=1
##FIRSTX=44
##LASTX=235
##FIRSTY=981
##MAXX=235
##MINX=44
##MAXY=9999
##MINY=80
##NPOINTS=55
##PEAK TABLE=(XY..XY)
44,981 45,100 50,450 51,1061
52,260 53,200 54,150 55,410
56,1451 57,911 58,9999 59,360
62,90 63,260 64,90 65,260
67,90 69,100 70,140 71,80
76,240 77,2883 78,701 79,2092
80,190 89,150 91,591 100,370
101,240 102,4664 103,370 104,100
105,791 106,190 107,500 115,320
116,100 117,500 118,180 130,200
131,190 133,230 141,220 142,200
143,1281 144,9669 145,591 146,320
147,180 148,561 149,80 176,130
192,270 234,190 235,80
##END=
