##TITLE=Amphetamine, N-propoxycarbonyl-
##JCAMP-DX=4.24
##DATA TYPE=MASS SPECTRUM
##ORIGIN=R.Meatherall, J.Anal, Tox., 19,,316(1995)
##OWNER=NIST Mass Spectrometry Data Center
Collection (C) 2014 copyright by the U.S. Secretary of Commerce
on behalf of the United States of America. All rights reserved.
##$NIST MASS SPEC NO=314780
##MOLFORM=C13 H19 N O2
##MW=221
##$NIST SOURCE=MSDC
##XUNITS=M/Z
##YUNITS=RELATIVE INTENSITY
##XFACTOR=1
##YFACTOR=1
##FIRSTX=44
##LASTX=222
##FIRSTY=9999
##MAXX=222
##MINX=44
##MAXY=9999
##MINY=90
##NPOINTS=35
##PEAK TABLE=(XY..XY)
44,9999 45,270 50,260 51,510
52,130 55,100 61,230 63,480
64,220 65,1631 66,180 69,210
77,400 78,150 79,90 86,280
87,170 88,450 89,420 90,150
91,5505 92,661 103,190 115,370
116,150 117,721 118,731 119,400
120,190 128,390 129,1381 130,6716
131,330 162,280 222,280
##END=
