##TITLE=Carbamic acid, (4-ethoxyphenyl)-, ethyl ester
##JCAMP-DX=4.24
##DATA TYPE=MASS SPECTRUM
##ORIGIN=A.A.Kutin, Moscow, Russia
##OWNER=NIST Mass Spectrometry Data Center
Collection (C) 2014 copyright by the U.S. Secretary of Commerce
on behalf of the United States of America. All rights reserved.
##$NIST MASS SPEC NO=319476
##MOLFORM=C11 H15 N O3
##MW=209
##$NIST SOURCE=MSDC
##XUNITS=M/Z
##YUNITS=RELATIVE INTENSITY
##XFACTOR=1
##YFACTOR=1
##FIRSTX=29
##LASTX=212
##FIRSTY=1730
##MAXX=212
##MINX=29
##MAXY=9999
##MINY=10
##NPOINTS=65
##PEAK TABLE=(XY..XY)
29,1730 30,40 31,160 32,230
39,120 40,40 41,30 42,20
43,60 45,180 46,30 50,50
51,80 52,420 53,480 54,70
63,170 64,150 65,170 66,30
77,80 78,140 79,300 80,790
81,1020 82,70 83,10 90,80
91,160 92,60 93,50 106,160
107,430 108,7499 109,2850 110,220
111,10 122,1030 123,80 124,20
134,80 135,1370 136,2580 137,390
138,40 150,130 151,30 152,300
153,1120 154,90 155,20 163,830
164,290 165,30 180,760 181,1620
182,180 183,20 194,30 195,10
208,80 209,9999 210,1230 211,140
212,20
##END=
