##TITLE=Sarcosylsarcosine, N-ethoxycarbonyl-, ethyl ester
##JCAMP-DX=4.24
##DATA TYPE=MASS SPECTRUM
##ORIGIN=Zaikin V.G., TIPS RAS, Moscow, Russia
##OWNER=NIST Mass Spectrometry Data Center
Collection (C) 2014 copyright by the U.S. Secretary of Commerce
on behalf of the United States of America. All rights reserved.
##$NIST MASS SPEC NO=320688
##MOLFORM=C11 H20 N2 O5
##MW=260
##$NIST SOURCE=MSDC
##XUNITS=M/Z
##YUNITS=RELATIVE INTENSITY
##XFACTOR=1
##YFACTOR=1
##FIRSTX=26
##LASTX=261
##FIRSTY=30
##MAXX=261
##MINX=26
##MAXY=9999
##MINY=20
##NPOINTS=41
##PEAK TABLE=(XY..XY)
26,30 27,260 28,490 29,1241
30,50 31,20 42,1021 43,160
44,5535 45,140 58,40 59,20
60,30 72,1121 73,30 74,20
86,120 87,30 88,711 89,40
102,50 113,160 114,20 115,160
116,9999 117,681 118,80 129,130
130,120 143,671 144,2312 145,160
159,410 160,20 173,40 187,30
214,210 215,901 216,90 260,791
261,100
##END=
