##TITLE=d-Proline, N-allyloxycarbonyl-, isohexyl ester
##JCAMP-DX=4.24
##DATA TYPE=MASS SPECTRUM
##ORIGIN=Zaikin V.G., TIPS RAS, Moscow, Russia
##OWNER=NIST Mass Spectrometry Data Center
Collection (C) 2014 copyright by the U.S. Secretary of Commerce
on behalf of the United States of America. All rights reserved.
##$NIST MASS SPEC NO=320967
##MOLFORM=C15 H25 N O4
##MW=283
##$NIST SOURCE=MSDC
##XUNITS=M/Z
##YUNITS=RELATIVE INTENSITY
##XFACTOR=1
##YFACTOR=1
##FIRSTX=27
##LASTX=284
##FIRSTY=50
##MAXX=284
##MINX=27
##MAXY=9999
##MINY=10
##NPOINTS=34
##PEAK TABLE=(XY..XY)
27,50 28,30 29,80 39,200
40,40 41,1902 42,160 43,480
44,40 53,20 55,110 56,30
67,20 68,320 69,160 70,771
71,40 82,20 85,70 96,30
108,40 110,3954 111,330 114,490
115,30 142,100 153,30 154,9999
155,931 156,100 198,120 200,10
283,190 284,20
##END=
