##TITLE=l-Norvaline, n-butoxycarbonyl-, octadecyl ester
##JCAMP-DX=4.24
##DATA TYPE=MASS SPECTRUM
##ORIGIN=Zaikin V.G., TIPS RAS, Moscow, Russia
##OWNER=NIST Mass Spectrometry Data Center
Collection (C) 2014 copyright by the U.S. Secretary of Commerce
on behalf of the United States of America. All rights reserved.
##$NIST MASS SPEC NO=320784
##MOLFORM=C28 H55 N O4
##MW=469
##$NIST SOURCE=MSDC
##XUNITS=M/Z
##YUNITS=RELATIVE INTENSITY
##XFACTOR=1
##YFACTOR=1
##FIRSTX=29
##LASTX=218
##FIRSTY=70
##MAXX=218
##MINX=29
##MAXY=9999
##MINY=20
##NPOINTS=48
##PEAK TABLE=(XY..XY)
29,70 30,40 39,20 41,240
42,60 43,380 44,30 54,30
55,320 56,190 57,761 58,30
67,40 68,40 69,190 70,110
71,280 72,891 73,40 74,70
81,30 82,40 83,150 84,50
85,180 95,20 96,20 97,120
98,100 99,40 101,40 111,50
112,20 113,20 116,581 117,30
118,60 125,20 128,50 143,210
144,120 171,30 172,9999 173,911
174,70 199,50 200,80 218,160
##END=
