##TITLE=Glycine, N-methyl-N-allyloxycarbonyl-, ethyl ester
##JCAMP-DX=4.24
##DATA TYPE=MASS SPECTRUM
##ORIGIN=Zaikin V.G., TIPS RAS, Moscow, Russia
##OWNER=NIST Mass Spectrometry Data Center
Collection (C) 2014 copyright by the U.S. Secretary of Commerce
on behalf of the United States of America. All rights reserved.
##$NIST MASS SPEC NO=320586
##MOLFORM=C9 H15 N O4
##MW=201
##$NIST SOURCE=MSDC
##XUNITS=M/Z
##YUNITS=RELATIVE INTENSITY
##XFACTOR=1
##YFACTOR=1
##FIRSTX=26
##LASTX=202
##FIRSTY=60
##MAXX=202
##MINX=26
##MAXY=9999
##MINY=10
##NPOINTS=37
##PEAK TABLE=(XY..XY)
26,60 27,200 29,661 30,60
37,10 38,10 39,1121 40,130
41,8007 42,2122 44,1241 45,60
59,10 60,70 61,10 72,80
84,3633 85,150 86,10 88,821
89,20 114,30 116,2112 117,110
118,10 127,20 128,9999 129,540
142,50 144,260 145,10 155,40
156,380 157,20 171,10 201,1061
202,100
##END=
