##TITLE=d-Proline, N-ethoxycarbonyl-, ethyl ester
##JCAMP-DX=4.24
##DATA TYPE=MASS SPECTRUM
##ORIGIN=Zaikin V.G., TIPS RAS, Moscow, Russia
##OWNER=NIST Mass Spectrometry Data Center
Collection (C) 2014 copyright by the U.S. Secretary of Commerce
on behalf of the United States of America. All rights reserved.
##$NIST MASS SPEC NO=320834
##MOLFORM=C10 H17 N O4
##MW=215
##$NIST SOURCE=MSDC
##XUNITS=M/Z
##YUNITS=RELATIVE INTENSITY
##XFACTOR=1
##YFACTOR=1
##FIRSTX=26
##LASTX=216
##FIRSTY=40
##MAXX=216
##MINX=26
##MAXY=9999
##MINY=20
##NPOINTS=49
##PEAK TABLE=(XY..XY)
26,40 27,310 28,410 29,1031
30,40 31,70 39,110 40,40
41,731 42,290 43,711 44,90
45,30 53,40 54,70 55,530
56,400 57,380 67,90 68,631
69,671 70,4684 71,350 81,20
82,220 83,520 84,250 85,80
96,150 97,400 98,1521 99,110
110,20 111,180 112,90 114,480
115,60 125,80 126,60 139,20
140,30 141,30 142,9999 143,711
144,50 168,60 170,50 215,220
216,30
##END=
