##TITLE=Sarcosylsarcosine, n-propoxycarbonyl-, heptyl ester
##JCAMP-DX=4.24
##DATA TYPE=MASS SPECTRUM
##ORIGIN=Zaikin V.G., TIPS RAS, Moscow, Russia
##OWNER=NIST Mass Spectrometry Data Center
Collection (C) 2014 copyright by the U.S. Secretary of Commerce
on behalf of the United States of America. All rights reserved.
##$NIST MASS SPEC NO=320640
##MOLFORM=C17 H32 N2 O5
##MW=344
##$NIST SOURCE=MSDC
##XUNITS=M/Z
##YUNITS=RELATIVE INTENSITY
##XFACTOR=1
##YFACTOR=1
##FIRSTX=26
##LASTX=345
##FIRSTY=20
##MAXX=345
##MINX=26
##MAXY=9999
##MINY=10
##NPOINTS=55
##PEAK TABLE=(XY..XY)
26,20 27,230 29,180 30,10
39,100 40,30 41,651 42,581
43,2242 44,3934 45,100 53,10
55,120 56,30 57,540 58,70
70,10 72,40 74,10 85,10
86,130 87,100 88,1321 89,70
90,50 102,50 113,110 114,30
115,310 116,1181 117,50 129,20
130,9999 131,631 132,190 141,30
142,50 143,10 157,490 158,1011
159,100 173,30 186,80 187,50
188,20 199,10 200,70 214,20
228,150 229,220 230,20 285,440
286,60 344,591 345,110
##END=
