##TITLE=d-Proline, N-allyloxycarbonyl-, isobutyl ester
##JCAMP-DX=4.24
##DATA TYPE=MASS SPECTRUM
##ORIGIN=Zaikin V.G., TIPS RAS, Moscow, Russia
##OWNER=NIST Mass Spectrometry Data Center
Collection (C) 2014 copyright by the U.S. Secretary of Commerce
on behalf of the United States of America. All rights reserved.
##$NIST MASS SPEC NO=320964
##MOLFORM=C13 H21 N O4
##MW=255
##$NIST SOURCE=MSDC
##XUNITS=M/Z
##YUNITS=RELATIVE INTENSITY
##XFACTOR=1
##YFACTOR=1
##FIRSTX=26
##LASTX=255
##FIRSTY=20
##MAXX=255
##MINX=26
##MAXY=9999
##MINY=20
##NPOINTS=49
##PEAK TABLE=(XY..XY)
26,20 27,240 28,220 29,561
30,30 31,20 38,40 39,951
40,160 41,7837 42,661 43,420
44,100 53,50 54,50 55,190
56,80 57,991 58,30 65,20
67,70 68,951 69,540 70,1922
71,130 82,40 83,60 84,70
85,40 93,60 96,60 97,60
98,20 108,70 110,7737 111,581
112,20 114,1101 115,60 122,20
142,80 153,30 154,9999 155,881
156,60 170,1121 171,90 182,30
255,80
##END=
