##TITLE=d-Proline, N-methoxycarbonyl-, methyl ester
##JCAMP-DX=4.24
##DATA TYPE=MASS SPECTRUM
##ORIGIN=Zaikin V.G., TIPS RAS, Moscow, Russia
##OWNER=NIST Mass Spectrometry Data Center
Collection (C) 2014 copyright by the U.S. Secretary of Commerce
on behalf of the United States of America. All rights reserved.
##$NIST MASS SPEC NO=320785
##MOLFORM=C8 H13 N O4
##MW=187
##$NIST SOURCE=MSDC
##XUNITS=M/Z
##YUNITS=RELATIVE INTENSITY
##XFACTOR=1
##YFACTOR=1
##FIRSTX=27
##LASTX=188
##FIRSTY=70
##MAXX=188
##MINX=27
##MAXY=9999
##MINY=20
##NPOINTS=29
##PEAK TABLE=(XY..XY)
27,70 29,50 30,30 39,130
40,60 41,470 42,1251 44,20
45,30 53,20 54,30 55,80
56,30 59,601 67,60 68,170
69,140 82,561 84,400 85,70
101,50 126,40 127,30 128,9999
129,550 130,50 156,20 187,230
188,20
##END=
