##TITLE=l-Norvaline, N-isobutoxycarbonyl-, octadecyl ester
##JCAMP-DX=4.24
##DATA TYPE=MASS SPECTRUM
##ORIGIN=Zaikin V.G., TIPS RAS, Moscow, Russia
##OWNER=NIST Mass Spectrometry Data Center
Collection (C) 2014 copyright by the U.S. Secretary of Commerce
on behalf of the United States of America. All rights reserved.
##$NIST MASS SPEC NO=320726
##MOLFORM=C28 H55 N O4
##MW=469
##$NIST SOURCE=MSDC
##XUNITS=M/Z
##YUNITS=RELATIVE INTENSITY
##XFACTOR=1
##YFACTOR=1
##FIRSTX=29
##LASTX=469
##FIRSTY=90
##MAXX=469
##MINX=29
##MAXY=9999
##MINY=10
##NPOINTS=48
##PEAK TABLE=(XY..XY)
29,90 30,20 39,30 41,300
42,90 43,500 44,30 54,30
55,340 56,170 57,1491 58,60
67,50 68,40 69,230 70,110
71,310 72,901 73,40 74,70
81,30 82,40 83,160 84,50
85,190 95,20 96,20 97,120
98,90 99,30 101,30 111,50
116,861 117,60 118,130 119,10
128,30 143,230 144,240 162,30
171,30 172,9999 173,911 174,70
200,60 218,150 368,30 469,30
##END=
