##TITLE=Sarcosine, N-cyclopropylcarbonyl-, ethyl ester
##JCAMP-DX=4.24
##DATA TYPE=MASS SPECTRUM
##ORIGIN=Zaikin V.G., TIPS RAS, Moscow, Russia
##OWNER=NIST Mass Spectrometry Data Center
Collection (C) 2014 copyright by the U.S. Secretary of Commerce
on behalf of the United States of America. All rights reserved.
##$NIST MASS SPEC NO=321186
##MOLFORM=C9 H15 N O3
##MW=185
##$NIST SOURCE=MSDC
##XUNITS=M/Z
##YUNITS=RELATIVE INTENSITY
##XFACTOR=1
##YFACTOR=1
##FIRSTX=27
##LASTX=186
##FIRSTY=100
##MAXX=186
##MINX=27
##MAXY=9999
##MINY=10
##NPOINTS=42
##PEAK TABLE=(XY..XY)
27,100 28,60 29,160 39,460
40,80 41,1261 42,540 43,70
44,1862 45,40 55,240 58,20
59,20 60,30 68,250 69,9999
70,460 71,10 72,10 82,20
83,20 84,120 85,30 86,50
87,60 88,170 91,10 98,90
105,30 110,10 111,20 112,9058
113,671 114,20 116,1722 117,90
118,30 139,160 140,721 141,30
185,2652 186,240
##END=
