##TITLE=Sarcosine, N-(4-bromobenzoyl)-, propyl ester
##JCAMP-DX=4.24
##DATA TYPE=MASS SPECTRUM
##ORIGIN=Zaikin V.G., TIPS RAS, Moscow, Russia
##OWNER=NIST Mass Spectrometry Data Center
Collection (C) 2014 copyright by the U.S. Secretary of Commerce
on behalf of the United States of America. All rights reserved.
##$NIST MASS SPEC NO=321373
##MOLFORM=C13 H16 Br N O3
##MW=313
##$NIST SOURCE=MSDC
##XUNITS=M/Z
##YUNITS=RELATIVE INTENSITY
##XFACTOR=1
##YFACTOR=1
##FIRSTX=27
##LASTX=316
##FIRSTY=160
##MAXX=316
##MINX=27
##MAXY=9999
##MINY=10
##NPOINTS=44
##PEAK TABLE=(XY..XY)
27,160 28,10 29,20 39,50
41,220 42,771 43,801 44,170
50,410 51,80 74,150 75,991
76,1321 77,190 88,120 103,100
104,751 105,80 119,170 123,60
130,1261 131,80 147,50 155,1591
156,120 157,1611 158,100 183,9999
184,751 185,9428 186,691 226,2482
227,210 228,2402 229,200 253,20
254,160 255,40 256,150 312,631
313,851 314,741 315,871 316,110
##END=
