##TITLE=.beta.-Alanine, N-(4-methoxybenzoyl)-, heptyl ester
##JCAMP-DX=4.24
##DATA TYPE=MASS SPECTRUM
##ORIGIN=Zaikin V.G., TIPS RAS, Moscow, Russia
##OWNER=NIST Mass Spectrometry Data Center
Collection (C) 2014 copyright by the U.S. Secretary of Commerce
on behalf of the United States of America. All rights reserved.
##$NIST MASS SPEC NO=321825
##MOLFORM=C18 H27 N O4
##MW=321
##$NIST SOURCE=MSDC
##XUNITS=M/Z
##YUNITS=RELATIVE INTENSITY
##XFACTOR=1
##YFACTOR=1
##FIRSTX=27
##LASTX=322
##FIRSTY=50
##MAXX=322
##MINX=27
##MAXY=9999
##MINY=20
##NPOINTS=86
##PEAK TABLE=(XY..XY)
27,50 28,50 29,140 39,80
41,320 42,90 43,310 44,60
50,20 51,30 53,20 54,40
55,270 56,130 57,220 63,70
64,130 65,20 67,60 68,80
69,190 70,120 71,20 75,30
76,50 77,571 78,50 81,40
82,70 83,190 84,50 87,60
88,741 92,450 93,40 95,410
96,130 97,150 98,50 107,300
108,50 109,20 111,80 112,380
113,1541 114,470 115,20 119,20
120,40 121,70 122,20 123,110
125,20 130,20 133,20 134,90
135,9999 136,911 137,80 141,30
151,130 152,50 160,20 162,20
163,100 164,50 176,30 177,180
178,200 179,340 180,40 186,2632
187,290 205,30 206,400 207,40
222,190 223,250 224,350 225,30
251,20 278,50 292,60 320,20
321,641 322,110
##END=
