##TITLE=.beta.-Alanine, N-capryloyl-, butyl ester
##JCAMP-DX=4.24
##DATA TYPE=MASS SPECTRUM
##ORIGIN=Zaikin V.G., TIPS RAS, Moscow, Russia
##OWNER=NIST Mass Spectrometry Data Center
Collection (C) 2014 copyright by the U.S. Secretary of Commerce
on behalf of the United States of America. All rights reserved.
##$NIST MASS SPEC NO=321809
##MOLFORM=C15 H29 N O3
##MW=271
##$NIST SOURCE=MSDC
##XUNITS=M/Z
##YUNITS=RELATIVE INTENSITY
##XFACTOR=1
##YFACTOR=1
##FIRSTX=26
##LASTX=272
##FIRSTY=80
##MAXX=272
##MINX=26
##MAXY=9999
##MINY=20
##NPOINTS=94
##PEAK TABLE=(XY..XY)
26,80 27,1001 28,1131 29,2833
30,4524 31,120 39,450 40,90
41,3914 42,761 43,3403 44,2162
45,340 46,70 53,120 54,130
55,2602 56,951 57,6916 58,330
59,110 67,200 68,50 69,270
70,1131 71,400 72,2783 73,360
74,20 81,40 83,80 84,931
85,1792 86,280 87,2843 88,2572
89,180 90,1571 97,90 98,2122
99,1451 100,290 101,20 102,80
103,20 109,180 112,50 113,3994
114,5085 115,370 116,1121 117,70
125,50 126,4424 127,2883 128,70
129,50 130,80 132,8378 133,430
134,30 140,881 143,170 144,8077
145,1191 146,1972 147,120 154,851
156,410 157,40 158,100 159,440
168,550 169,270 170,130 172,981
187,9999 188,1081 189,70 196,90
197,40 198,4954 199,591 200,3023
201,450 202,30 203,20 214,420
215,40 216,110 242,611 243,60
271,631 272,330
##END=
