##TITLE=.beta.-Alanine, N-isobutyryl-, ethyl ester
##JCAMP-DX=4.24
##DATA TYPE=MASS SPECTRUM
##ORIGIN=Zaikin V.G., TIPS RAS, Moscow, Russia
##OWNER=NIST Mass Spectrometry Data Center
Collection (C) 2014 copyright by the U.S. Secretary of Commerce
on behalf of the United States of America. All rights reserved.
##$NIST MASS SPEC NO=321661
##MOLFORM=C9 H17 N O3
##MW=187
##$NIST SOURCE=MSDC
##XUNITS=M/Z
##YUNITS=RELATIVE INTENSITY
##XFACTOR=1
##YFACTOR=1
##FIRSTX=26
##LASTX=188
##FIRSTY=100
##MAXX=188
##MINX=26
##MAXY=9999
##MINY=20
##NPOINTS=57
##PEAK TABLE=(XY..XY)
26,100 27,1411 28,1391 29,1341
30,1732 31,60 39,420 40,90
41,1611 42,771 43,6166 44,1401
45,260 46,30 54,60 55,1211
56,591 58,90 59,40 60,260
61,70 68,20 69,190 70,2843
71,3954 72,1782 73,390 74,791
75,20 84,200 85,90 87,90
88,390 96,60 98,9999 99,601
100,1541 101,300 102,5515 103,210
112,190 113,1041 114,250 115,140
116,9248 117,571 118,390 126,460
140,30 141,400 142,4094 143,260
144,1932 145,90 159,30 187,1972
188,170
##END=
