##TITLE=Sarcosine, N-(2-methoxybenzoyl)-, propyl ester
##JCAMP-DX=4.24
##DATA TYPE=MASS SPECTRUM
##ORIGIN=Zaikin V.G., TIPS RAS, Moscow, Russia
##OWNER=NIST Mass Spectrometry Data Center
Collection (C) 2014 copyright by the U.S. Secretary of Commerce
on behalf of the United States of America. All rights reserved.
##$NIST MASS SPEC NO=321143
##MOLFORM=C14 H19 N O4
##MW=265
##$NIST SOURCE=MSDC
##XUNITS=M/Z
##YUNITS=RELATIVE INTENSITY
##XFACTOR=1
##YFACTOR=1
##FIRSTX=27
##LASTX=266
##FIRSTY=40
##MAXX=266
##MINX=27
##MAXY=9999
##MINY=20
##NPOINTS=42
##PEAK TABLE=(XY..XY)
27,40 39,30 41,40 42,80
43,40 44,130 50,30 51,90
63,70 64,120 65,40 76,70
77,961 78,90 79,70 88,30
89,20 91,40 92,470 93,40
105,70 119,150 120,130 121,40
130,160 131,290 132,30 134,30
135,9999 136,761 137,60 150,50
162,30 176,20 178,621 179,60
205,20 206,180 207,20 264,400
265,671 266,110
##END=
