##TITLE=Isonipecotic acid, N-allyloxycarbonyl-, butyl ester
##JCAMP-DX=4.24
##DATA TYPE=MASS SPECTRUM
##ORIGIN=Zaikin V.G., TIPS RAS, Moscow, Russia
##OWNER=NIST Mass Spectrometry Data Center
Collection (C) 2014 copyright by the U.S. Secretary of Commerce
on behalf of the United States of America. All rights reserved.
##$NIST MASS SPEC NO=321990
##MOLFORM=C14 H23 N O4
##MW=269
##$NIST SOURCE=MSDC
##XUNITS=M/Z
##YUNITS=RELATIVE INTENSITY
##XFACTOR=1
##YFACTOR=1
##FIRSTX=29
##LASTX=270
##FIRSTY=230
##MAXX=270
##MINX=29
##MAXY=9999
##MINY=20
##NPOINTS=61
##PEAK TABLE=(XY..XY)
29,230 39,300 40,20 41,3253
42,480 54,60 55,350 57,80
67,150 68,80 70,30 73,350
80,40 81,40 82,5065 83,330
86,150 87,20 95,70 96,160
97,60 99,20 100,390 108,30
110,270 111,100 112,130 113,200
114,80 122,340 123,80 124,340
126,1661 127,170 128,1001 138,110
139,20 140,40 141,100 142,30
152,90 154,130 156,60 167,50
168,410 169,70 182,20 184,9999
185,1071 186,90 196,1591 197,160
198,20 210,60 212,661 213,50
228,2172 229,240 268,20 269,140
270,30
##END=
