##TITLE=.beta.-Alanine, N-(4-methoxybenzoyl)-, hexyl ester
##JCAMP-DX=4.24
##DATA TYPE=MASS SPECTRUM
##ORIGIN=Zaikin V.G., TIPS RAS, Moscow, Russia
##OWNER=NIST Mass Spectrometry Data Center
Collection (C) 2014 copyright by the U.S. Secretary of Commerce
on behalf of the United States of America. All rights reserved.
##$NIST MASS SPEC NO=321824
##MOLFORM=C17 H25 N O4
##MW=307
##$NIST SOURCE=MSDC
##XUNITS=M/Z
##YUNITS=RELATIVE INTENSITY
##XFACTOR=1
##YFACTOR=1
##FIRSTX=27
##LASTX=308
##FIRSTY=80
##MAXX=308
##MINX=27
##MAXY=9999
##MINY=20
##NPOINTS=90
##PEAK TABLE=(XY..XY)
27,80 28,30 29,70 39,80
41,210 42,60 43,330 44,80
53,20 54,30 55,280 56,100
57,110 63,50 64,130 65,40
67,50 68,50 69,150 70,130
71,30 76,60 77,510 78,30
79,30 81,40 82,50 83,160
84,70 85,40 88,681 92,490
93,60 94,20 95,400 96,50
97,160 98,50 103,30 107,320
108,40 109,30 111,70 112,340
113,1431 114,390 115,20 119,30
120,70 121,30 122,20 123,70
124,20 125,20 126,20 130,30
133,30 134,80 135,9999 136,911
137,70 151,140 152,20 160,30
162,20 163,100 164,50 167,20
172,2803 173,290 174,20 176,60
177,180 178,180 179,290 180,40
205,50 206,430 207,30 222,180
223,120 224,180 237,20 251,30
265,20 278,60 290,20 306,20
307,851 308,150
##END=
