##TITLE=Sarcosine, N-(cyclopentylcarbonyl)-, ethyl ester
##JCAMP-DX=4.24
##DATA TYPE=MASS SPECTRUM
##ORIGIN=Zaikin V.G., TIPS RAS, Moscow, Russia
##OWNER=NIST Mass Spectrometry Data Center
Collection (C) 2014 copyright by the U.S. Secretary of Commerce
on behalf of the United States of America. All rights reserved.
##$NIST MASS SPEC NO=321335
##MOLFORM=C11 H19 N O3
##MW=213
##$NIST SOURCE=MSDC
##XUNITS=M/Z
##YUNITS=RELATIVE INTENSITY
##XFACTOR=1
##YFACTOR=1
##FIRSTX=26
##LASTX=214
##FIRSTY=20
##MAXX=214
##MINX=26
##MAXY=9999
##MINY=20
##NPOINTS=55
##PEAK TABLE=(XY..XY)
26,20 27,370 29,460 30,20
31,40 39,480 40,150 41,2262
42,901 43,340 44,9999 45,290
53,140 54,30 55,671 56,20
58,70 60,30 65,100 66,70
67,731 68,420 69,7837 70,440
71,70 72,110 73,20 82,20
88,440 95,130 96,420 97,2923
98,611 99,40 100,30 110,30
111,30 112,80 116,1481 117,500
118,1922 119,90 126,520 127,20
139,50 140,2622 141,220 167,450
168,681 169,50 172,1601 173,120
185,40 213,1712 214,190
##END=
