##TITLE=Sarcosine, N-(3-methoxybenzoyl)-, propyl ester
##JCAMP-DX=4.24
##DATA TYPE=MASS SPECTRUM
##ORIGIN=Zaikin V.G., TIPS RAS, Moscow, Russia
##OWNER=NIST Mass Spectrometry Data Center
Collection (C) 2014 copyright by the U.S. Secretary of Commerce
on behalf of the United States of America. All rights reserved.
##$NIST MASS SPEC NO=321490
##MOLFORM=C14 H19 N O4
##MW=265
##$NIST SOURCE=MSDC
##XUNITS=M/Z
##YUNITS=RELATIVE INTENSITY
##XFACTOR=1
##YFACTOR=1
##FIRSTX=27
##LASTX=267
##FIRSTY=70
##MAXX=267
##MINX=27
##MAXY=9999
##MINY=10
##NPOINTS=47
##PEAK TABLE=(XY..XY)
27,70 38,20 39,50 41,30
42,130 43,20 44,60 50,50
51,40 61,20 63,150 64,300
65,50 75,30 76,140 77,901
78,90 79,40 88,60 89,30
92,781 93,60 104,40 105,10
106,20 107,1121 108,120 120,40
121,801 122,70 130,450 131,20
133,30 135,9999 136,871 137,70
164,20 176,40 178,671 179,70
205,20 206,220 207,20 264,390
265,1712 266,310 267,30
##END=
