##TITLE=Sarcosine, N-(1-naphthoyl)-, ethyl ester
##JCAMP-DX=4.24
##DATA TYPE=MASS SPECTRUM
##ORIGIN=Zaikin V.G., TIPS RAS, Moscow, Russia
##OWNER=NIST Mass Spectrometry Data Center
Collection (C) 2014 copyright by the U.S. Secretary of Commerce
on behalf of the United States of America. All rights reserved.
##$NIST MASS SPEC NO=321398
##MOLFORM=C16 H17 N O3
##MW=271
##$NIST SOURCE=MSDC
##XUNITS=M/Z
##YUNITS=RELATIVE INTENSITY
##XFACTOR=1
##YFACTOR=1
##FIRSTX=29
##LASTX=273
##FIRSTY=40
##MAXX=273
##MINX=29
##MAXY=9999
##MINY=20
##NPOINTS=42
##PEAK TABLE=(XY..XY)
29,40 42,60 44,20 51,50
63,20 74,30 75,90 76,50
77,240 87,20 99,30 100,20
101,180 102,20 115,20 116,160
125,30 126,530 127,3713 128,500
129,30 141,30 153,30 154,60
155,9999 156,1141 157,80 168,20
184,30 196,60 197,60 198,661
199,90 224,50 225,100 226,230
227,30 242,30 270,300 271,2602
272,470 273,50
##END=
