##TITLE=Sarcosine, N-(2-furoyl)-, hexyl ester
##JCAMP-DX=4.24
##DATA TYPE=MASS SPECTRUM
##ORIGIN=Zaikin V.G., TIPS RAS, Moscow, Russia
##OWNER=NIST Mass Spectrometry Data Center
Collection (C) 2014 copyright by the U.S. Secretary of Commerce
on behalf of the United States of America. All rights reserved.
##$NIST MASS SPEC NO=321436
##MOLFORM=C14 H21 N O4
##MW=267
##$NIST SOURCE=MSDC
##XUNITS=M/Z
##YUNITS=RELATIVE INTENSITY
##XFACTOR=1
##YFACTOR=1
##FIRSTX=27
##LASTX=268
##FIRSTY=120
##MAXX=268
##MINX=27
##MAXY=9999
##MINY=20
##NPOINTS=33
##PEAK TABLE=(XY..XY)
27,120 28,60 29,160 38,50
39,500 40,40 41,280 42,400
43,330 44,210 51,20 53,30
55,40 66,30 67,100 81,50
88,160 95,9999 96,571 110,30
124,80 137,30 138,8358 139,871
140,60 165,100 166,140 172,500
173,40 179,20 184,120 267,1171
268,180
##END=
