##TITLE=Sarcosine, N-(2-furoyl)-, propyl ester
##JCAMP-DX=4.24
##DATA TYPE=MASS SPECTRUM
##ORIGIN=Zaikin V.G., TIPS RAS, Moscow, Russia
##OWNER=NIST Mass Spectrometry Data Center
Collection (C) 2014 copyright by the U.S. Secretary of Commerce
on behalf of the United States of America. All rights reserved.
##$NIST MASS SPEC NO=321432
##MOLFORM=C11 H15 N O4
##MW=225
##$NIST SOURCE=MSDC
##XUNITS=M/Z
##YUNITS=RELATIVE INTENSITY
##XFACTOR=1
##YFACTOR=1
##FIRSTX=27
##LASTX=226
##FIRSTY=180
##MAXX=226
##MINX=27
##MAXY=9999
##MINY=10
##NPOINTS=35
##PEAK TABLE=(XY..XY)
27,180 28,10 29,60 38,100
39,691 40,50 41,220 42,500
43,310 44,200 51,30 53,30
55,30 66,40 67,140 68,50
69,20 81,60 82,20 83,20
88,90 95,9999 96,571 97,50
110,60 124,50 130,360 131,20
138,4574 139,400 140,30 165,40
166,220 225,1191 226,160
##END=
