##TITLE=.beta.-Alanine, N-(2-furoyl)-, isohexyl ester
##JCAMP-DX=4.24
##DATA TYPE=MASS SPECTRUM
##ORIGIN=Zaikin V.G., TIPS RAS, Moscow, Russia
##OWNER=NIST Mass Spectrometry Data Center
Collection (C) 2014 copyright by the U.S. Secretary of Commerce
on behalf of the United States of America. All rights reserved.
##$NIST MASS SPEC NO=321976
##MOLFORM=C14 H21 N O4
##MW=267
##$NIST SOURCE=MSDC
##XUNITS=M/Z
##YUNITS=RELATIVE INTENSITY
##XFACTOR=1
##YFACTOR=1
##FIRSTX=27
##LASTX=269
##FIRSTY=180
##MAXX=269
##MINX=27
##MAXY=9999
##MINY=20
##NPOINTS=64
##PEAK TABLE=(XY..XY)
27,180 28,90 29,230 30,90
38,70 39,721 40,50 41,340
42,90 43,901 44,70 51,40
53,70 55,400 56,50 66,70
67,110 68,50 69,100 70,280
73,20 80,20 81,30 84,70
85,180 87,30 88,3603 93,20
94,180 95,9999 96,520 109,470
110,220 111,320 112,430 113,30
116,20 120,30 124,3793 125,200
126,20 127,70 136,110 137,1912
138,2162 139,601 140,40 154,150
155,30 164,220 165,370 166,2963
167,260 168,20 172,3013 173,300
182,360 183,821 184,1201 185,80
238,20 267,2682 268,430 269,30
##END=
