##TITLE=Sarcosine, N-(2-methoxybenzoyl)-, ethyl ester
##JCAMP-DX=4.24
##DATA TYPE=MASS SPECTRUM
##ORIGIN=Zaikin V.G., TIPS RAS, Moscow, Russia
##OWNER=NIST Mass Spectrometry Data Center
Collection (C) 2014 copyright by the U.S. Secretary of Commerce
on behalf of the United States of America. All rights reserved.
##$NIST MASS SPEC NO=321142
##MOLFORM=C13 H17 N O4
##MW=251
##$NIST SOURCE=MSDC
##XUNITS=M/Z
##YUNITS=RELATIVE INTENSITY
##XFACTOR=1
##YFACTOR=1
##FIRSTX=27
##LASTX=253
##FIRSTY=30
##MAXX=253
##MINX=27
##MAXY=9999
##MINY=20
##NPOINTS=38
##PEAK TABLE=(XY..XY)
27,30 29,70 39,20 42,100
44,120 50,40 51,120 63,110
64,150 65,20 76,90 77,1051
78,100 79,80 92,571 93,50
104,20 105,100 116,130 117,380
118,30 120,130 121,40 133,40
134,40 135,9999 136,831 137,70
150,60 176,20 178,741 179,80
206,200 207,20 250,691 251,1071
252,170 253,20
##END=
