##TITLE=.beta.-Alanine, N-capryloyl-, octyl ester
##JCAMP-DX=4.24
##DATA TYPE=MASS SPECTRUM
##ORIGIN=Zaikin V.G., TIPS RAS, Moscow, Russia
##OWNER=NIST Mass Spectrometry Data Center
Collection (C) 2014 copyright by the U.S. Secretary of Commerce
on behalf of the United States of America. All rights reserved.
##$NIST MASS SPEC NO=321814
##MOLFORM=C19 H37 N O3
##MW=327
##$NIST SOURCE=MSDC
##XUNITS=M/Z
##YUNITS=RELATIVE INTENSITY
##XFACTOR=1
##YFACTOR=1
##FIRSTX=26
##LASTX=328
##FIRSTY=40
##MAXX=328
##MINX=26
##MAXY=9999
##MINY=20
##NPOINTS=119
##PEAK TABLE=(XY..XY)
26,40 27,290 28,250 29,631
30,1091 31,20 39,210 40,40
41,1471 42,430 43,2132 44,520
45,110 46,20 53,80 54,120
55,1261 56,400 57,2923 58,130
59,140 60,40 67,220 68,130
69,550 70,540 71,591 72,1241
73,180 74,50 79,20 80,20
81,120 82,100 83,280 84,460
85,530 86,100 87,1381 88,1742
89,190 90,1591 91,60 95,30
96,50 97,190 98,621 99,110
100,130 101,60 102,20 103,20
109,90 110,30 112,160 113,961
114,3924 115,270 116,440 117,50
124,20 125,80 126,2112 127,1281
128,160 129,20 130,90 131,250
132,9999 133,621 134,60 140,540
142,50 143,20 144,350 145,80
146,60 154,300 155,60 156,250
158,190 159,400 160,30 168,320
169,170 170,100 171,40 172,130
173,150 174,20 182,30 186,180
187,90 196,60 197,60 198,1591
199,190 200,3173 201,480 202,611
203,60 214,210 215,30 216,731
217,80 228,120 243,1591 244,220
256,1271 257,220 270,230 271,30
284,350 285,80 298,330 299,50
312,20 327,340 328,130
##END=
