##TITLE=Sarcosine, N-(4-methoxybenzoyl)-, butyl ester
##JCAMP-DX=4.24
##DATA TYPE=MASS SPECTRUM
##ORIGIN=Zaikin V.G., TIPS RAS, Moscow, Russia
##OWNER=NIST Mass Spectrometry Data Center
Collection (C) 2014 copyright by the U.S. Secretary of Commerce
on behalf of the United States of America. All rights reserved.
##$NIST MASS SPEC NO=321421
##MOLFORM=C15 H21 N O4
##MW=279
##$NIST SOURCE=MSDC
##XUNITS=M/Z
##YUNITS=RELATIVE INTENSITY
##XFACTOR=1
##YFACTOR=1
##FIRSTX=29
##LASTX=280
##FIRSTY=50
##MAXX=280
##MINX=29
##MAXY=9999
##MINY=10
##NPOINTS=39
##PEAK TABLE=(XY..XY)
29,50 39,20 41,50 42,50
43,20 44,40 50,10 57,20
63,50 64,120 65,20 76,60
77,500 78,40 79,20 88,20
92,440 93,30 104,50 105,20
107,250 108,20 120,30 121,20
133,20 135,9999 136,761 137,60
144,150 150,50 152,50 176,20
178,621 179,70 205,40 206,100
278,360 279,611 280,110
##END=
