##TITLE=l-Leucine, N-allyloxycarbonyl-N-methyl-, allyl ester
##JCAMP-DX=4.24
##DATA TYPE=MASS SPECTRUM
##ORIGIN=Zaikin V.G., TIPS RAS, Moscow, Russia
##OWNER=NIST Mass Spectrometry Data Center
Collection (C) 2014 copyright by the U.S. Secretary of Commerce
on behalf of the United States of America. All rights reserved.
##$NIST MASS SPEC NO=321908
##MOLFORM=C14 H23 N O4
##MW=269
##$NIST SOURCE=MSDC
##XUNITS=M/Z
##YUNITS=RELATIVE INTENSITY
##XFACTOR=1
##YFACTOR=1
##FIRSTX=27
##LASTX=213
##FIRSTY=60
##MAXX=213
##MINX=27
##MAXY=9999
##MINY=20
##NPOINTS=36
##PEAK TABLE=(XY..XY)
27,60 29,40 30,40 39,410
40,40 41,4524 42,1091 43,90
44,110 56,90 57,440 58,120
67,30 82,60 84,340 88,90
96,60 98,691 99,60 100,190
116,30 118,20 126,20 128,160
140,3383 141,360 142,40 144,60
168,110 173,20 183,20 184,9999
185,1121 186,90 212,90 213,20
##END=
