##TITLE=.beta.-Alanine, N-(3-bromobenzoyl)-, nonyl ester
##JCAMP-DX=4.24
##DATA TYPE=MASS SPECTRUM
##ORIGIN=Zaikin V.G., TIPS RAS, Moscow, Russia
##OWNER=NIST Mass Spectrometry Data Center
Collection (C) 2014 copyright by the U.S. Secretary of Commerce
on behalf of the United States of America. All rights reserved.
##$NIST MASS SPEC NO=321646
##MOLFORM=C19 H28 Br N O3
##MW=397
##$NIST SOURCE=MSDC
##XUNITS=M/Z
##YUNITS=RELATIVE INTENSITY
##XFACTOR=1
##YFACTOR=1
##FIRSTX=27
##LASTX=400
##FIRSTY=220
##MAXX=400
##MINX=27
##MAXY=9999
##MINY=10
##NPOINTS=107
##PEAK TABLE=(XY..XY)
27,220 29,581 30,300 39,140
41,1331 42,300 43,1421 44,100
46,20 50,300 51,80 53,30
54,50 55,1051 56,310 57,611
65,20 67,90 69,330 70,951
71,470 72,250 73,60 74,100
75,671 76,1211 77,280 78,30
81,20 82,40 83,100 85,120
87,120 88,5195 89,190 90,50
91,30 97,50 98,110 103,100
104,861 105,571 106,40 116,30
118,40 119,30 126,30 130,70
132,30 133,90 134,30 135,10
140,20 144,20 146,150 147,40
148,40 149,20 155,1712 156,120
157,1702 158,90 176,20 182,80
183,7897 184,741 185,7807 186,601
197,30 199,160 200,90 201,120
202,80 210,30 211,611 212,841
213,661 214,9999 215,1301 216,60
224,100 225,1191 226,831 227,1742
228,731 229,420 230,20 253,120
254,1932 255,310 256,1832 257,160
270,190 271,70 272,2462 273,300
274,2192 275,190 299,30 301,10
340,30 341,20 342,40 397,440
398,70 399,450 400,50
##END=
