##TITLE=Sarcosine, N-(4-methoxybenzoyl)-, isohexyl ester
##JCAMP-DX=4.24
##DATA TYPE=MASS SPECTRUM
##ORIGIN=Zaikin V.G., TIPS RAS, Moscow, Russia
##OWNER=NIST Mass Spectrometry Data Center
Collection (C) 2014 copyright by the U.S. Secretary of Commerce
on behalf of the United States of America. All rights reserved.
##$NIST MASS SPEC NO=321423
##MOLFORM=C17 H25 N O4
##MW=307
##$NIST SOURCE=MSDC
##XUNITS=M/Z
##YUNITS=RELATIVE INTENSITY
##XFACTOR=1
##YFACTOR=1
##FIRSTX=39
##LASTX=308
##FIRSTY=10
##MAXX=308
##MINX=39
##MAXY=9999
##MINY=10
##NPOINTS=34
##PEAK TABLE=(XY..XY)
39,10 42,50 43,130 44,100
63,30 64,80 65,20 76,40
77,420 78,30 88,80 91,30
92,280 104,40 105,30 107,130
120,20 133,20 135,9999 136,821
137,40 150,50 164,20 172,170
173,20 176,20 178,1021 179,130
205,90 206,70 222,50 224,20
307,460 308,100
##END=
