##TITLE=Sarcosine, N-(4-nitrobenzoyl)-, ethyl ester
##JCAMP-DX=4.24
##DATA TYPE=MASS SPECTRUM
##ORIGIN=Zaikin V.G., TIPS RAS, Moscow, Russia
##OWNER=NIST Mass Spectrometry Data Center
Collection (C) 2014 copyright by the U.S. Secretary of Commerce
on behalf of the United States of America. All rights reserved.
##$NIST MASS SPEC NO=321280
##MOLFORM=C12 H14 N2 O5
##MW=266
##$NIST SOURCE=MSDC
##XUNITS=M/Z
##YUNITS=RELATIVE INTENSITY
##XFACTOR=1
##YFACTOR=1
##FIRSTX=27
##LASTX=268
##FIRSTY=40
##MAXX=268
##MINX=27
##MAXY=9999
##MINY=10
##NPOINTS=63
##PEAK TABLE=(XY..XY)
27,40 28,40 29,110 30,20
39,20 41,20 42,270 43,100
44,100 50,220 51,40 55,20
57,20 63,50 64,90 65,40
69,20 74,60 75,280 76,941
77,100 83,30 88,30 90,10
92,510 93,40 97,20 103,90
104,1832 105,150 116,530 117,40
118,20 119,40 120,460 121,60
122,30 134,390 135,40 136,20
145,20 147,20 150,9999 151,811
152,80 167,20 173,30 177,40
179,70 191,40 192,20 193,4144
194,420 195,40 220,60 221,290
222,40 236,20 249,100 265,1171
266,1241 267,230 268,20
##END=
