##TITLE=.beta.-Alanine, N-allyloxycarbonyl-, octyl ester
##JCAMP-DX=4.24
##DATA TYPE=MASS SPECTRUM
##ORIGIN=Zaikin V.G., TIPS RAS, Moscow, Russia
##OWNER=NIST Mass Spectrometry Data Center
Collection (C) 2014 copyright by the U.S. Secretary of Commerce
on behalf of the United States of America. All rights reserved.
##$NIST MASS SPEC NO=321036
##MOLFORM=C15 H27 N O4
##MW=285
##$NIST SOURCE=MSDC
##XUNITS=M/Z
##YUNITS=RELATIVE INTENSITY
##XFACTOR=1
##YFACTOR=1
##FIRSTX=26
##LASTX=286
##FIRSTY=30
##MAXX=286
##MINX=26
##MAXY=9999
##MINY=20
##NPOINTS=84
##PEAK TABLE=(XY..XY)
26,30 27,571 28,490 29,1241
30,761 31,120 39,1111 40,180
41,9999 42,1281 43,4054 44,540
45,20 46,130 53,130 54,200
55,2272 56,1091 57,5035 58,1301
59,30 60,50 67,340 68,631
69,1281 70,3523 71,4264 72,440
73,70 74,440 75,20 79,20
81,40 83,400 84,440 86,851
87,350 88,7877 89,340 90,611
94,20 96,170 97,70 98,3153
99,821 100,220 101,50 111,100
112,170 113,380 114,4534 115,270
116,4964 117,180 125,20 126,20
127,1982 128,380 129,2923 130,781
131,20 132,2522 133,70 155,1992
156,3553 157,260 158,20 173,30
174,1341 175,40 187,30 200,6246
201,931 202,70 215,160 228,550
229,80 242,430 243,70 244,2082
245,210 256,420 285,320 286,20
##END=
