##TITLE=Sarcosine, N-(4-methoxybenzoyl)-, ethyl ester
##JCAMP-DX=4.24
##DATA TYPE=MASS SPECTRUM
##ORIGIN=Zaikin V.G., TIPS RAS, Moscow, Russia
##OWNER=NIST Mass Spectrometry Data Center
Collection (C) 2014 copyright by the U.S. Secretary of Commerce
on behalf of the United States of America. All rights reserved.
##$NIST MASS SPEC NO=321419
##MOLFORM=C13 H17 N O4
##MW=251
##$NIST SOURCE=MSDC
##XUNITS=M/Z
##YUNITS=RELATIVE INTENSITY
##XFACTOR=1
##YFACTOR=1
##FIRSTX=28
##LASTX=253
##FIRSTY=10
##MAXX=253
##MINX=28
##MAXY=9999
##MINY=10
##NPOINTS=38
##PEAK TABLE=(XY..XY)
28,10 29,30 42,60 43,20
50,20 51,20 63,70 64,150
65,20 76,70 77,561 78,40
79,20 92,520 93,30 104,60
105,20 107,280 108,20 116,110
120,40 121,30 133,20 135,9999
136,811 137,70 150,50 152,70
176,20 178,781 179,80 205,40
206,190 207,20 250,711 251,1231
252,200 253,20
##END=
