##TITLE=.beta.-Alanine, N-(4-chlorobenzoyl)-, propyl ester
##JCAMP-DX=4.24
##DATA TYPE=MASS SPECTRUM
##ORIGIN=Zaikin V.G., TIPS RAS, Moscow, Russia
##OWNER=NIST Mass Spectrometry Data Center
Collection (C) 2014 copyright by the U.S. Secretary of Commerce
on behalf of the United States of America. All rights reserved.
##$NIST MASS SPEC NO=321717
##MOLFORM=C13 H16 Cl N O3
##MW=269
##$NIST SOURCE=MSDC
##XUNITS=M/Z
##YUNITS=RELATIVE INTENSITY
##XFACTOR=1
##YFACTOR=1
##FIRSTX=26
##LASTX=272
##FIRSTY=20
##MAXX=272
##MINX=26
##MAXY=9999
##MINY=20
##NPOINTS=72
##PEAK TABLE=(XY..XY)
26,20 27,260 28,30 29,70
30,70 31,20 39,50 41,220
42,60 43,340 44,100 46,20
50,180 51,120 55,160 60,30
61,30 70,340 73,30 74,90
75,871 76,320 77,90 85,50
88,1001 89,30 102,20 103,100
104,240 105,70 110,70 111,1842
112,190 113,751 114,50 130,5615
131,390 132,30 138,160 139,9999
140,851 141,3393 142,240 146,60
153,40 155,30 164,60 166,30
167,180 168,601 169,100 170,190
180,140 181,651 182,380 183,310
184,120 185,20 209,40 210,1621
211,200 212,550 213,40 226,200
227,30 228,110 252,40 268,20
269,881 270,140 271,300 272,30
##END=
