##TITLE=Sarcosine, N-(2-methoxybenzoyl)-, butyl ester
##JCAMP-DX=4.24
##DATA TYPE=MASS SPECTRUM
##ORIGIN=Zaikin V.G., TIPS RAS, Moscow, Russia
##OWNER=NIST Mass Spectrometry Data Center
Collection (C) 2014 copyright by the U.S. Secretary of Commerce
on behalf of the United States of America. All rights reserved.
##$NIST MASS SPEC NO=321144
##MOLFORM=C15 H21 N O4
##MW=279
##$NIST SOURCE=MSDC
##XUNITS=M/Z
##YUNITS=RELATIVE INTENSITY
##XFACTOR=1
##YFACTOR=1
##FIRSTX=27
##LASTX=280
##FIRSTY=30
##MAXX=280
##MINX=27
##MAXY=9999
##MINY=20
##NPOINTS=40
##PEAK TABLE=(XY..XY)
27,30 29,100 39,30 41,70
42,90 43,30 44,170 50,20
51,70 57,30 63,60 64,110
76,60 77,961 78,80 79,70
88,40 92,430 93,40 105,90
120,80 121,60 133,50 134,30
135,9999 136,771 137,50 144,170
145,250 146,40 150,50 163,50
164,20 176,40 178,571 179,70
206,120 278,440 279,731 280,130
##END=
