##TITLE=Sarcosine, N-(2-thiophenylacetyl)-, butyl ester
##JCAMP-DX=4.24
##DATA TYPE=MASS SPECTRUM
##ORIGIN=Zaikin V.G., TIPS RAS, Moscow, Russia
##OWNER=NIST Mass Spectrometry Data Center
Collection (C) 2014 copyright by the U.S. Secretary of Commerce
on behalf of the United States of America. All rights reserved.
##$NIST MASS SPEC NO=321363
##MOLFORM=C13 H19 N O3 S
##MW=269
##$NIST SOURCE=MSDC
##XUNITS=M/Z
##YUNITS=RELATIVE INTENSITY
##XFACTOR=1
##YFACTOR=1
##FIRSTX=27
##LASTX=272
##FIRSTY=240
##MAXX=272
##MINX=27
##MAXY=9999
##MINY=10
##NPOINTS=52
##PEAK TABLE=(XY..XY)
27,240 29,1051 39,370 40,20
41,1081 42,791 43,380 44,5205
45,1051 47,60 51,80 52,50
53,851 57,1641 58,160 63,80
69,60 70,100 71,60 84,40
88,9999 89,370 90,120 95,130
96,520 97,7176 98,691 99,350
100,20 110,20 113,10 116,3703
117,150 124,6446 125,540 126,330
138,20 144,210 146,2933 147,220
167,50 168,561 169,70 184,40
195,460 196,681 197,80 198,20
269,7427 270,1211 271,480 272,30
##END=
