##TITLE=Sarcosine, N-(1-naphthoyl)-, butyl ester
##JCAMP-DX=4.24
##DATA TYPE=MASS SPECTRUM
##ORIGIN=Zaikin V.G., TIPS RAS, Moscow, Russia
##OWNER=NIST Mass Spectrometry Data Center
Collection (C) 2014 copyright by the U.S. Secretary of Commerce
on behalf of the United States of America. All rights reserved.
##$NIST MASS SPEC NO=321401
##MOLFORM=C18 H21 N O3
##MW=299
##$NIST SOURCE=MSDC
##XUNITS=M/Z
##YUNITS=RELATIVE INTENSITY
##XFACTOR=1
##YFACTOR=1
##FIRSTX=29
##LASTX=301
##FIRSTY=50
##MAXX=301
##MINX=29
##MAXY=9999
##MINY=10
##NPOINTS=40
##PEAK TABLE=(XY..XY)
29,50 41,40 42,40 43,10
44,20 51,20 57,20 74,20
75,50 76,30 77,160 88,30
101,120 102,20 125,20 126,370
127,3013 128,380 129,20 141,40
144,180 154,40 155,9999 156,1081
157,80 184,50 196,50 197,70
198,601 199,100 224,80 225,150
226,160 227,20 242,60 243,20
298,230 299,1872 300,370 301,40
##END=
