##TITLE=Sarcosine, N-(2-methylbenzoyl)-, nonyl ester
##JCAMP-DX=4.24
##DATA TYPE=MASS SPECTRUM
##ORIGIN=Zaikin V.G., TIPS RAS, Moscow, Russia
##OWNER=NIST Mass Spectrometry Data Center
Collection (C) 2014 copyright by the U.S. Secretary of Commerce
on behalf of the United States of America. All rights reserved.
##$NIST MASS SPEC NO=321170
##MOLFORM=C20 H31 N O3
##MW=333
##$NIST SOURCE=MSDC
##XUNITS=M/Z
##YUNITS=RELATIVE INTENSITY
##XFACTOR=1
##YFACTOR=1
##FIRSTX=27
##LASTX=335
##FIRSTY=20
##MAXX=335
##MINX=27
##MAXY=9999
##MINY=10
##NPOINTS=62
##PEAK TABLE=(XY..XY)
27,20 28,20 29,70 39,50
41,190 42,110 43,250 44,130
51,20 55,140 56,50 57,90
63,30 65,240 67,20 69,60
70,30 71,40 77,20 83,30
85,20 88,90 89,90 90,130
91,1291 92,120 93,10 97,20
105,50 111,10 118,1061 119,9999
120,781 121,50 134,20 139,80
141,20 146,40 148,40 160,40
161,40 162,1151 163,240 164,20
176,70 182,30 189,360 190,140
192,70 206,90 207,40 208,170
209,20 214,621 215,80 276,20
318,550 319,110 332,540 333,1581
334,360 335,40
##END=
