##TITLE=Sarcosine, N-(2-fluorobenzoyl)-, propyl ester
##JCAMP-DX=4.24
##DATA TYPE=MASS SPECTRUM
##ORIGIN=Zaikin V.G., TIPS RAS, Moscow, Russia
##OWNER=NIST Mass Spectrometry Data Center
Collection (C) 2014 copyright by the U.S. Secretary of Commerce
on behalf of the United States of America. All rights reserved.
##$NIST MASS SPEC NO=321240
##MOLFORM=C13 H16 F N O3
##MW=253
##$NIST SOURCE=MSDC
##XUNITS=M/Z
##YUNITS=RELATIVE INTENSITY
##XFACTOR=1
##YFACTOR=1
##FIRSTX=27
##LASTX=255
##FIRSTY=50
##MAXX=255
##MINX=27
##MAXY=9999
##MINY=10
##NPOINTS=40
##PEAK TABLE=(XY..XY)
27,50 28,10 39,20 41,70
42,230 43,180 44,60 50,20
51,20 69,50 74,20 75,310
76,30 77,20 88,40 94,100
95,1091 96,110 109,20 122,50
123,9999 124,771 125,30 130,500
131,30 146,40 147,10 152,20
164,20 165,20 166,2722 167,290
193,40 194,340 195,30 233,40
252,470 253,1621 254,270 255,20
##END=
