##TITLE=.beta.-Alanine, N-(2-furoyl)-, ethyl ester
##JCAMP-DX=4.24
##DATA TYPE=MASS SPECTRUM
##ORIGIN=Zaikin V.G., TIPS RAS, Moscow, Russia
##OWNER=NIST Mass Spectrometry Data Center
Collection (C) 2014 copyright by the U.S. Secretary of Commerce
on behalf of the United States of America. All rights reserved.
##$NIST MASS SPEC NO=321971
##MOLFORM=C10 H13 N O4
##MW=211
##$NIST SOURCE=MSDC
##XUNITS=M/Z
##YUNITS=RELATIVE INTENSITY
##XFACTOR=1
##YFACTOR=1
##FIRSTX=26
##LASTX=213
##FIRSTY=20
##MAXX=213
##MINX=26
##MAXY=9999
##MINY=20
##NPOINTS=66
##PEAK TABLE=(XY..XY)
26,20 27,140 28,130 29,330
30,50 31,40 37,20 38,120
39,771 40,60 41,180 42,80
43,210 44,60 45,60 51,30
53,50 54,30 55,390 56,150
57,160 60,30 61,20 66,80
67,210 68,150 69,220 70,410
71,60 73,50 74,170 80,30
81,70 82,180 83,190 84,90
85,30 88,90 93,20 94,190
95,9999 96,631 97,140 98,270
109,280 110,100 111,260 112,190
116,3463 117,200 120,60 124,2122
125,140 136,50 137,641 138,901
139,110 164,110 165,120 166,1702
167,150 168,30 182,120 211,1912
212,220 213,20
##END=
