##TITLE=Sarcosine, n-hexanoyl-, nonyl ester
##JCAMP-DX=4.24
##DATA TYPE=MASS SPECTRUM
##ORIGIN=Zaikin V.G., TIPS RAS, Moscow, Russia
##OWNER=NIST Mass Spectrometry Data Center
Collection (C) 2014 copyright by the U.S. Secretary of Commerce
on behalf of the United States of America. All rights reserved.
##$NIST MASS SPEC NO=321127
##MOLFORM=C18 H35 N O3
##MW=313
##$NIST SOURCE=MSDC
##XUNITS=M/Z
##YUNITS=RELATIVE INTENSITY
##XFACTOR=1
##YFACTOR=1
##FIRSTX=27
##LASTX=314
##FIRSTY=200
##MAXX=314
##MINX=27
##MAXY=9999
##MINY=10
##NPOINTS=107
##PEAK TABLE=(XY..XY)
27,200 28,190 29,480 30,20
39,130 40,30 41,981 42,510
43,2242 44,9999 45,270 53,50
54,60 55,711 56,220 57,440
58,60 60,20 61,20 65,40
67,70 68,70 69,370 70,180
71,1011 72,60 73,20 75,30
77,10 81,50 82,50 83,140
84,100 85,130 86,330 87,1351
88,621 89,100 90,861 91,150
96,20 97,120 98,150 99,1091
100,160 101,20 102,20 111,120
112,60 113,811 114,310 115,40
116,80 117,40 118,160 119,290
120,30 126,190 127,60 128,20
130,20 131,220 132,2622 133,150
134,20 136,420 137,220 138,20
139,290 140,80 141,100 142,1161
143,160 144,110 145,30 154,20
156,110 157,581 158,110 159,220
168,20 169,430 170,270 171,50
172,40 173,60 186,140 187,40
188,120 200,120 201,30 214,781
215,430 216,380 217,30 228,50
240,20 241,60 242,30 257,1351
258,200 270,280 271,50 284,100
285,20 313,220 314,50
##END=
