##TITLE=.beta.-Alanine, N-(2-furoyl)-, octyl ester
##JCAMP-DX=4.24
##DATA TYPE=MASS SPECTRUM
##ORIGIN=Zaikin V.G., TIPS RAS, Moscow, Russia
##OWNER=NIST Mass Spectrometry Data Center
Collection (C) 2014 copyright by the U.S. Secretary of Commerce
on behalf of the United States of America. All rights reserved.
##$NIST MASS SPEC NO=321978
##MOLFORM=C16 H25 N O4
##MW=295
##$NIST SOURCE=MSDC
##XUNITS=M/Z
##YUNITS=RELATIVE INTENSITY
##XFACTOR=1
##YFACTOR=1
##FIRSTX=26
##LASTX=297
##FIRSTY=20
##MAXX=297
##MINX=26
##MAXY=9999
##MINY=20
##NPOINTS=80
##PEAK TABLE=(XY..XY)
26,20 27,230 28,170 29,440
30,120 38,70 39,751 40,70
41,891 42,240 43,831 44,70
46,20 51,30 53,80 54,50
55,661 56,160 57,530 66,60
67,200 68,170 69,210 70,701
71,310 72,20 80,40 81,70
82,130 84,20 87,60 88,3013
89,100 90,20 93,30 94,180
95,9999 96,621 97,70 98,60
108,20 109,611 110,240 111,470
112,440 113,40 116,40 119,20
120,50 124,3203 125,250 126,30
136,130 137,2282 138,2532 139,891
140,80 154,100 164,330 165,430
166,2652 167,290 168,20 182,320
183,200 184,1241 185,110 200,5575
201,701 202,50 211,90 225,20
238,50 239,20 252,120 253,20
266,70 295,2172 296,440 297,40
##END=
