##TITLE=Sarcosine, N-valeryl-, octadecyl ester
##JCAMP-DX=4.24
##DATA TYPE=MASS SPECTRUM
##ORIGIN=Zaikin V.G., TIPS RAS, Moscow, Russia
##OWNER=NIST Mass Spectrometry Data Center
Collection (C) 2014 copyright by the U.S. Secretary of Commerce
on behalf of the United States of America. All rights reserved.
##$NIST MASS SPEC NO=321571
##MOLFORM=C26 H51 N O3
##MW=425
##$NIST SOURCE=MSDC
##XUNITS=M/Z
##YUNITS=RELATIVE INTENSITY
##XFACTOR=1
##YFACTOR=1
##FIRSTX=27
##LASTX=426
##FIRSTY=90
##MAXX=426
##MINX=27
##MAXY=9999
##MINY=10
##NPOINTS=89
##PEAK TABLE=(XY..XY)
27,90 29,360 39,70 41,751
42,320 43,1311 44,9999 45,250
54,60 55,761 56,260 57,1972
58,70 67,100 68,80 69,430
70,170 71,380 73,40 81,50
82,80 83,280 84,90 85,1141
86,400 87,1041 88,530 89,60
90,1221 91,30 95,30 96,30
97,170 98,70 99,30 100,60
109,20 111,60 112,20 113,1181
114,561 115,20 116,80 125,10
126,130 127,20 128,2332 129,340
131,310 132,2372 133,100 144,70
155,611 156,430 158,30 159,50
173,50 174,540 175,20 186,70
200,100 201,20 214,80 215,20
228,90 242,90 256,100 270,90
281,30 284,90 285,20 295,40
298,100 312,90 326,80 340,1331
341,841 342,380 343,40 354,50
355,20 383,2542 384,591 385,60
396,430 397,100 424,20 425,500
426,110
##END=
