##TITLE=Isonipecotic acid, N-allyloxycarbonyl-, propyl ester
##JCAMP-DX=4.24
##DATA TYPE=MASS SPECTRUM
##ORIGIN=Zaikin V.G., TIPS RAS, Moscow, Russia
##OWNER=NIST Mass Spectrometry Data Center
Collection (C) 2014 copyright by the U.S. Secretary of Commerce
on behalf of the United States of America. All rights reserved.
##$NIST MASS SPEC NO=321988
##MOLFORM=C13 H21 N O4
##MW=255
##$NIST SOURCE=MSDC
##XUNITS=M/Z
##YUNITS=RELATIVE INTENSITY
##XFACTOR=1
##YFACTOR=1
##FIRSTX=27
##LASTX=256
##FIRSTY=100
##MAXX=256
##MINX=27
##MAXY=9999
##MINY=20
##NPOINTS=66
##PEAK TABLE=(XY..XY)
27,100 31,20 39,370 41,3783
42,701 43,1051 54,100 55,751
63,340 67,210 68,200 69,270
70,230 71,140 73,530 80,80
81,50 82,6636 83,671 84,180
85,80 86,200 87,60 95,230
96,240 97,160 98,100 99,70
100,500 105,320 108,60 110,390
111,220 112,330 113,731 114,140
115,30 122,410 123,70 124,540
125,60 126,2002 127,170 128,200
138,130 140,70 141,90 142,20
152,140 154,110 167,40 168,571
169,90 170,9999 171,971 184,20
196,2552 197,260 198,781 199,60
214,2522 215,250 252,40 254,20
255,130 256,20
##END=
