##TITLE=Sarcosine, N-(2-thienylcarbonyl)-, pentyl ester
##JCAMP-DX=4.24
##DATA TYPE=MASS SPECTRUM
##ORIGIN=Zaikin V.G., TIPS RAS, Moscow, Russia
##OWNER=NIST Mass Spectrometry Data Center
Collection (C) 2014 copyright by the U.S. Secretary of Commerce
on behalf of the United States of America. All rights reserved.
##$NIST MASS SPEC NO=321465
##MOLFORM=C13 H19 N O3 S
##MW=269
##$NIST SOURCE=MSDC
##XUNITS=M/Z
##YUNITS=RELATIVE INTENSITY
##XFACTOR=1
##YFACTOR=1
##FIRSTX=27
##LASTX=271
##FIRSTY=80
##MAXX=271
##MINX=27
##MAXY=9999
##MINY=20
##NPOINTS=35
##PEAK TABLE=(XY..XY)
27,80 29,130 39,550 40,20
41,170 42,280 43,300 44,100
45,40 53,20 55,20 57,40
58,20 82,40 83,320 84,50
88,140 97,50 111,9999 112,611
113,460 114,20 126,30 140,50
154,3353 155,390 156,180 158,861
159,70 181,110 182,110 200,20
269,1281 270,210 271,70
##END=
