##TITLE=.beta.-Alanine, N-(2-bromobenzoyl)-, nonyl ester
##JCAMP-DX=4.24
##DATA TYPE=MASS SPECTRUM
##ORIGIN=Zaikin V.G., TIPS RAS, Moscow, Russia
##OWNER=NIST Mass Spectrometry Data Center
Collection (C) 2014 copyright by the U.S. Secretary of Commerce
on behalf of the United States of America. All rights reserved.
##$NIST MASS SPEC NO=321733
##MOLFORM=C19 H28 Br N O3
##MW=397
##$NIST SOURCE=MSDC
##XUNITS=M/Z
##YUNITS=RELATIVE INTENSITY
##XFACTOR=1
##YFACTOR=1
##FIRSTX=27
##LASTX=400
##FIRSTY=170
##MAXX=400
##MINX=27
##MAXY=9999
##MINY=20
##NPOINTS=109
##PEAK TABLE=(XY..XY)
27,170 29,430 30,140 39,110
41,901 42,220 43,1291 44,70
50,180 51,130 53,40 54,60
55,761 56,170 57,430 65,30
67,60 68,30 69,210 70,611
71,310 72,40 73,50 74,60
75,390 76,711 77,500 78,50
80,20 81,30 82,40 85,170
87,70 88,3773 89,150 90,50
98,50 102,40 103,70 104,370
105,951 106,90 116,20 118,130
119,40 120,60 121,30 128,20
130,60 132,150 133,30 144,30
146,591 147,80 148,180 149,20
155,981 156,80 157,1031 158,50
174,30 176,60 182,60 183,7597
184,641 185,7216 186,530 192,130
194,40 199,40 200,60 201,40
202,60 208,20 210,40 211,310
212,490 213,320 214,9999 215,1361
216,90 224,60 225,601 226,550
227,931 228,490 229,260 232,20
250,20 253,40 254,1351 255,210
256,1281 257,110 270,130 271,30
272,1421 273,170 274,1271 275,90
299,20 318,120 340,30 342,30
356,20 397,550 398,110 399,571
400,100
##END=
