##TITLE=.beta.-Alanine, N-(2-furoyl)-, nonyl ester
##JCAMP-DX=4.24
##DATA TYPE=MASS SPECTRUM
##ORIGIN=Zaikin V.G., TIPS RAS, Moscow, Russia
##OWNER=NIST Mass Spectrometry Data Center
Collection (C) 2014 copyright by the U.S. Secretary of Commerce
on behalf of the United States of America. All rights reserved.
##$NIST MASS SPEC NO=321979
##MOLFORM=C17 H27 N O4
##MW=309
##$NIST SOURCE=MSDC
##XUNITS=M/Z
##YUNITS=RELATIVE INTENSITY
##XFACTOR=1
##YFACTOR=1
##FIRSTX=26
##LASTX=311
##FIRSTY=20
##MAXX=311
##MINX=26
##MAXY=9999
##MINY=10
##NPOINTS=87
##PEAK TABLE=(XY..XY)
26,20 27,210 29,470 30,130
38,60 39,731 40,80 41,1031
42,250 43,1221 44,120 46,30
51,30 53,70 54,60 55,831
56,220 57,430 66,60 67,210
68,180 69,250 70,761 71,290
72,20 73,20 80,30 81,90
82,110 83,20 85,170 87,80
88,3393 89,120 90,20 93,20
94,170 95,9999 96,581 97,90
98,50 108,20 109,631 110,260
111,480 112,480 113,40 116,50
119,20 120,50 122,20 124,3643
125,290 126,30 136,130 137,2512
138,2772 139,1071 140,90 154,110
155,10 164,360 165,500 166,3463
167,380 168,40 182,350 183,250
184,1772 185,160 186,20 197,20
211,110 214,5845 215,771 216,50
225,40 238,50 239,40 252,150
253,30 266,60 280,60 281,30
309,2392 310,480 311,50
##END=
