##TITLE=Sarcosine, N-(4-fluorobenzoyl)-, propyl ester
##JCAMP-DX=4.24
##DATA TYPE=MASS SPECTRUM
##ORIGIN=Zaikin V.G., TIPS RAS, Moscow, Russia
##OWNER=NIST Mass Spectrometry Data Center
Collection (C) 2014 copyright by the U.S. Secretary of Commerce
on behalf of the United States of America. All rights reserved.
##$NIST MASS SPEC NO=321307
##MOLFORM=C13 H16 F N O3
##MW=253
##$NIST SOURCE=MSDC
##XUNITS=M/Z
##YUNITS=RELATIVE INTENSITY
##XFACTOR=1
##YFACTOR=1
##FIRSTX=27
##LASTX=254
##FIRSTY=40
##MAXX=254
##MINX=27
##MAXY=9999
##MINY=20
##NPOINTS=35
##PEAK TABLE=(XY..XY)
27,40 39,30 41,70 42,200
43,150 44,40 50,50 51,20
74,40 75,340 76,60 88,50
94,90 95,1491 96,130 109,20
122,40 123,9999 124,731 125,60
130,400 131,30 136,20 146,40
152,20 157,20 164,40 166,2012
167,210 193,50 194,250 195,30
252,1031 253,1071 254,200
##END=
