##TITLE=.beta.-Alanine, N-(3-methylbut-2-enoyl)-, dodecyl ester
##JCAMP-DX=4.24
##DATA TYPE=MASS SPECTRUM
##ORIGIN=Zaikin V.G., TIPS RAS, Moscow, Russia
##OWNER=NIST Mass Spectrometry Data Center
Collection (C) 2014 copyright by the U.S. Secretary of Commerce
on behalf of the United States of America. All rights reserved.
##$NIST MASS SPEC NO=321955
##MOLFORM=C20 H37 N O3
##MW=339
##$NIST SOURCE=MSDC
##XUNITS=M/Z
##YUNITS=RELATIVE INTENSITY
##XFACTOR=1
##YFACTOR=1
##FIRSTX=26
##LASTX=341
##FIRSTY=20
##MAXX=341
##MINX=26
##MAXY=9999
##MINY=10
##NPOINTS=91
##PEAK TABLE=(XY..XY)
26,20 27,290 28,310 29,781
30,500 39,430 40,50 41,1121
42,270 43,1471 44,170 51,20
53,280 54,290 55,2482 56,380
57,911 58,40 65,20 67,190
68,140 69,520 70,290 71,350
72,470 73,70 75,220 77,210
79,70 81,130 82,9999 83,9078
84,550 85,210 87,30 88,971
89,110 90,731 91,190 93,110
96,40 97,220 98,170 99,40
100,50 101,40 103,30 104,290
105,120 107,50 109,40 110,190
111,470 112,270 115,50 116,100
119,30 123,10 124,20 125,120
126,140 127,320 131,40 133,40
135,60 141,20 143,20 150,350
151,40 152,20 153,2672 154,981
155,70 156,20 169,70 171,260
172,721 173,40 199,20 240,30
254,20 256,931 257,100 258,1551
259,220 268,20 296,20 324,20
339,1091 340,190 341,40
##END=
