##TITLE=d-Proline, n-butoxycarbonyl-, pentyl ester
##JCAMP-DX=4.24
##DATA TYPE=MASS SPECTRUM
##ORIGIN=Zaikin V.G., TIPS RAS, Moscow, Russia
##OWNER=NIST Mass Spectrometry Data Center
Collection (C) 2014 copyright by the U.S. Secretary of Commerce
on behalf of the United States of America. All rights reserved.
##$NIST MASS SPEC NO=321082
##MOLFORM=C15 H27 N O4
##MW=285
##$NIST SOURCE=MSDC
##XUNITS=M/Z
##YUNITS=RELATIVE INTENSITY
##XFACTOR=1
##YFACTOR=1
##FIRSTX=27
##LASTX=285
##FIRSTY=70
##MAXX=285
##MINX=27
##MAXY=9999
##MINY=20
##NPOINTS=27
##PEAK TABLE=(XY..XY)
27,70 28,120 29,310 39,60
41,500 42,120 43,250 44,50
55,80 56,30 57,911 58,40
68,140 69,140 70,3333 71,170
114,1071 115,70 126,90 141,40
142,20 143,20 170,9999 171,901
172,70 184,150 285,80
##END=
