##TITLE=Sarcosine, N-(4-trifluoromethylbenzoyl)-, butyl ester
##JCAMP-DX=4.24
##DATA TYPE=MASS SPECTRUM
##ORIGIN=Zaikin V.G., TIPS RAS, Moscow, Russia
##OWNER=NIST Mass Spectrometry Data Center
Collection (C) 2014 copyright by the U.S. Secretary of Commerce
on behalf of the United States of America. All rights reserved.
##$NIST MASS SPEC NO=321505
##MOLFORM=C15 H18 F3 N O3
##MW=317
##$NIST SOURCE=MSDC
##XUNITS=M/Z
##YUNITS=RELATIVE INTENSITY
##XFACTOR=1
##YFACTOR=1
##FIRSTX=27
##LASTX=318
##FIRSTY=80
##MAXX=318
##MINX=27
##MAXY=9999
##MINY=20
##NPOINTS=44
##PEAK TABLE=(XY..XY)
27,80 28,80 29,200 39,40
41,190 42,350 43,240 44,80
50,30 51,20 55,60 56,40
57,120 69,40 75,80 76,20
83,20 88,80 95,160 125,110
126,160 127,20 144,460 145,1962
146,160 154,60 159,20 172,20
173,9999 174,781 175,40 202,30
214,50 215,20 216,2282 217,250
243,40 244,120 260,30 298,260
299,40 316,621 317,841 318,180
##END=
