##TITLE=l-Leucine, n-butoxycarbonyl-N-methyl-, hexadecyl ester
##JCAMP-DX=4.24
##DATA TYPE=MASS SPECTRUM
##ORIGIN=Zaikin V.G., TIPS RAS, Moscow, Russia
##OWNER=NIST Mass Spectrometry Data Center
Collection (C) 2014 copyright by the U.S. Secretary of Commerce
on behalf of the United States of America. All rights reserved.
##$NIST MASS SPEC NO=321893
##MOLFORM=C28 H55 N O4
##MW=469
##$NIST SOURCE=MSDC
##XUNITS=M/Z
##YUNITS=RELATIVE INTENSITY
##XFACTOR=1
##YFACTOR=1
##FIRSTX=27
##LASTX=202
##FIRSTY=20
##MAXX=202
##MINX=27
##MAXY=9999
##MINY=10
##NPOINTS=34
##PEAK TABLE=(XY..XY)
27,20 29,140 39,10 41,240
42,100 43,280 44,80 55,140
56,80 57,781 58,150 69,80
70,40 71,80 83,30 84,40
85,40 88,210 98,30 100,671
101,40 102,40 115,40 128,30
142,20 144,801 145,60 156,40
171,40 172,50 184,20 200,9999
201,1101 202,90
##END=
