##TITLE=.beta.-Alanine, N-(1-naphthoyl)-, propyl ester
##JCAMP-DX=4.24
##DATA TYPE=MASS SPECTRUM
##ORIGIN=Zaikin V.G., TIPS RAS, Moscow, Russia
##OWNER=NIST Mass Spectrometry Data Center
Collection (C) 2014 copyright by the U.S. Secretary of Commerce
on behalf of the United States of America. All rights reserved.
##$NIST MASS SPEC NO=321945
##MOLFORM=C17 H19 N O3
##MW=285
##$NIST SOURCE=MSDC
##XUNITS=M/Z
##YUNITS=RELATIVE INTENSITY
##XFACTOR=1
##YFACTOR=1
##FIRSTX=27
##LASTX=287
##FIRSTY=120
##MAXX=287
##MINX=27
##MAXY=9999
##MINY=10
##NPOINTS=75
##PEAK TABLE=(XY..XY)
27,120 28,10 29,30 30,20
39,40 41,100 42,30 43,130
44,40 50,20 51,70 55,30
63,50 64,20 70,70 73,20
74,50 75,120 76,70 77,370
78,30 87,30 88,360 89,10
98,30 99,30 101,210 102,40
113,40 114,20 115,70 125,50
126,651 127,5085 128,871 129,100
130,1992 131,130 140,20 141,90
142,30 143,50 152,30 153,120
154,190 155,9999 156,1481 157,110
168,30 169,130 170,480 171,260
180,100 181,30 182,430 183,891
184,470 185,40 196,70 197,330
198,160 199,70 224,50 225,60
226,981 227,140 228,30 242,120
243,60 257,20 268,90 284,140
285,3103 286,591 287,60
##END=
