##TITLE=.beta.-Alanine, N-(4-methoxybenzoyl)-, ethyl ester
##JCAMP-DX=4.24
##DATA TYPE=MASS SPECTRUM
##ORIGIN=Zaikin V.G., TIPS RAS, Moscow, Russia
##OWNER=NIST Mass Spectrometry Data Center
Collection (C) 2014 copyright by the U.S. Secretary of Commerce
on behalf of the United States of America. All rights reserved.
##$NIST MASS SPEC NO=321820
##MOLFORM=C13 H17 N O4
##MW=251
##$NIST SOURCE=MSDC
##XUNITS=M/Z
##YUNITS=RELATIVE INTENSITY
##XFACTOR=1
##YFACTOR=1
##FIRSTX=27
##LASTX=252
##FIRSTY=60
##MAXX=252
##MINX=27
##MAXY=9999
##MINY=20
##NPOINTS=59
##PEAK TABLE=(XY..XY)
27,60 28,40 29,110 30,20
38,20 39,30 44,50 45,20
50,50 51,50 63,140 64,260
65,60 74,50 75,30 76,120
77,881 78,80 79,40 88,30
92,731 93,60 103,60 104,40
105,30 106,30 107,440 108,60
113,20 115,40 116,2422 117,140
119,30 120,70 121,40 122,20
130,30 133,30 134,90 135,9999
136,911 137,80 151,140 160,20
162,20 163,70 164,80 176,40
177,100 178,90 179,50 206,671
207,80 222,220 223,20 234,90
250,40 251,921 252,130
##END=
