##TITLE=.beta.-Alanine, N-(2-furoyl)-, isobutyl ester
##JCAMP-DX=4.24
##DATA TYPE=MASS SPECTRUM
##ORIGIN=Zaikin V.G., TIPS RAS, Moscow, Russia
##OWNER=NIST Mass Spectrometry Data Center
Collection (C) 2014 copyright by the U.S. Secretary of Commerce
on behalf of the United States of America. All rights reserved.
##$NIST MASS SPEC NO=321973
##MOLFORM=C12 H17 N O4
##MW=239
##$NIST SOURCE=MSDC
##XUNITS=M/Z
##YUNITS=RELATIVE INTENSITY
##XFACTOR=1
##YFACTOR=1
##FIRSTX=27
##LASTX=240
##FIRSTY=200
##MAXX=240
##MINX=27
##MAXY=9999
##MINY=20
##NPOINTS=68
##PEAK TABLE=(XY..XY)
27,200 28,150 29,390 30,100
38,120 39,1011 40,80 41,510
42,100 43,230 44,70 46,20
51,40 52,20 53,20 54,20
55,340 56,80 57,561 65,40
66,70 67,200 68,120 70,410
71,90 74,20 80,30 81,70
82,60 87,20 88,1932 89,70
91,260 92,80 93,30 94,150
95,9999 96,631 98,40 108,20
109,380 110,140 111,380 112,260
113,90 119,20 120,40 124,2642
125,160 126,30 136,270 137,1241
138,1411 139,220 140,20 144,2873
145,230 154,60 157,80 164,150
165,210 166,2442 167,210 182,120
183,70 184,190 239,1862 240,240
##END=
