##TITLE=Sarcosine, N-(1-naphthoyl)-, pentyl ester
##JCAMP-DX=4.24
##DATA TYPE=MASS SPECTRUM
##ORIGIN=Zaikin V.G., TIPS RAS, Moscow, Russia
##OWNER=NIST Mass Spectrometry Data Center
Collection (C) 2014 copyright by the U.S. Secretary of Commerce
on behalf of the United States of America. All rights reserved.
##$NIST MASS SPEC NO=321402
##MOLFORM=C19 H23 N O3
##MW=313
##$NIST SOURCE=MSDC
##XUNITS=M/Z
##YUNITS=RELATIVE INTENSITY
##XFACTOR=1
##YFACTOR=1
##FIRSTX=27
##LASTX=315
##FIRSTY=10
##MAXX=315
##MINX=27
##MAXY=9999
##MINY=10
##NPOINTS=53
##PEAK TABLE=(XY..XY)
27,10 29,20 41,40 42,40
43,70 44,30 51,10 55,20
57,20 69,10 70,10 71,10
74,10 75,30 76,10 77,110
78,10 88,30 91,10 97,20
98,10 101,90 102,10 104,20
125,10 126,290 127,2582 128,370
129,20 135,20 141,40 142,20
150,20 153,10 154,30 155,9999
156,1251 157,100 158,210 184,40
196,60 197,80 198,781 199,130
224,90 225,200 226,150 242,80
243,50 312,310 313,2432 314,540
315,60
##END=
