##TITLE=Sarcosine, N-(2-bromobenzoyl)-, propyl ester
##JCAMP-DX=4.24
##DATA TYPE=MASS SPECTRUM
##ORIGIN=Zaikin V.G., TIPS RAS, Moscow, Russia
##OWNER=NIST Mass Spectrometry Data Center
Collection (C) 2014 copyright by the U.S. Secretary of Commerce
on behalf of the United States of America. All rights reserved.
##$NIST MASS SPEC NO=321449
##MOLFORM=C13 H16 Br N O3
##MW=313
##$NIST SOURCE=MSDC
##XUNITS=M/Z
##YUNITS=RELATIVE INTENSITY
##XFACTOR=1
##YFACTOR=1
##FIRSTX=27
##LASTX=316
##FIRSTY=180
##MAXX=316
##MINX=27
##MAXY=9999
##MINY=20
##NPOINTS=60
##PEAK TABLE=(XY..XY)
27,180 28,20 39,60 42,841
43,190 44,130 50,390 51,170
60,20 74,110 75,801 76,1051
77,540 78,60 80,20 88,130
90,20 91,90 103,30 104,180
105,510 106,30 118,210 119,70
121,30 130,1141 131,100 146,300
147,40 148,20 155,1411 156,120
157,1381 158,90 174,50 183,9999
184,821 185,9479 186,761 187,40
192,20 198,20 212,30 214,30
226,2412 227,200 228,2222 229,230
234,170 235,20 253,30 254,250
255,60 256,240 257,20 312,1081
313,1261 314,1271 315,1261 316,240
##END=
