##TITLE=Sarcosine, N-(2-methoxybenzoyl)-, undecyl ester
##JCAMP-DX=4.24
##DATA TYPE=MASS SPECTRUM
##ORIGIN=Zaikin V.G., TIPS RAS, Moscow, Russia
##OWNER=NIST Mass Spectrometry Data Center
Collection (C) 2014 copyright by the U.S. Secretary of Commerce
on behalf of the United States of America. All rights reserved.
##$NIST MASS SPEC NO=321149
##MOLFORM=C22 H35 N O4
##MW=377
##$NIST SOURCE=MSDC
##XUNITS=M/Z
##YUNITS=RELATIVE INTENSITY
##XFACTOR=1
##YFACTOR=1
##FIRSTX=27
##LASTX=378
##FIRSTY=70
##MAXX=378
##MINX=27
##MAXY=9999
##MINY=10
##NPOINTS=68
##PEAK TABLE=(XY..XY)
27,70 29,230 39,60 41,500
42,170 43,761 44,430 50,20
51,70 53,20 54,40 55,390
56,110 57,330 63,40 64,70
65,40 67,50 68,30 69,150
70,60 71,90 76,50 77,931
78,90 79,110 81,20 82,20
83,60 84,20 85,40 88,100
89,30 92,340 93,30 97,30
105,160 106,30 107,20 108,20
120,120 121,80 122,10 123,310
124,20 133,90 134,80 135,9999
136,801 137,40 138,20 141,20
150,50 151,70 164,20 176,20
178,891 179,150 180,20 205,40
206,50 222,20 224,70 242,150
243,120 376,290 377,340 378,80
##END=
