##TITLE=Sarcosine, N-(3-fluorobenzoyl)-, propyl ester
##JCAMP-DX=4.24
##DATA TYPE=MASS SPECTRUM
##ORIGIN=Zaikin V.G., TIPS RAS, Moscow, Russia
##OWNER=NIST Mass Spectrometry Data Center
Collection (C) 2014 copyright by the U.S. Secretary of Commerce
on behalf of the United States of America. All rights reserved.
##$NIST MASS SPEC NO=321385
##MOLFORM=C13 H16 F N O3
##MW=253
##$NIST SOURCE=MSDC
##XUNITS=M/Z
##YUNITS=RELATIVE INTENSITY
##XFACTOR=1
##YFACTOR=1
##FIRSTX=27
##LASTX=255
##FIRSTY=60
##MAXX=255
##MINX=27
##MAXY=9999
##MINY=20
##NPOINTS=36
##PEAK TABLE=(XY..XY)
27,60 39,20 41,80 42,270
43,210 44,50 50,30 51,20
68,30 69,80 74,20 75,350
76,30 88,50 94,100 95,1802
96,160 109,140 122,40 123,9999
124,771 125,50 130,450 131,20
152,50 164,40 165,20 166,2552
167,270 193,40 194,320 195,20
252,751 253,1852 254,290 255,20
##END=
