##TITLE=Isonipecotic acid, N-allyloxycarbonyl-, ethyl ester
##JCAMP-DX=4.24
##DATA TYPE=MASS SPECTRUM
##ORIGIN=Zaikin V.G., TIPS RAS, Moscow, Russia
##OWNER=NIST Mass Spectrometry Data Center
Collection (C) 2014 copyright by the U.S. Secretary of Commerce
on behalf of the United States of America. All rights reserved.
##$NIST MASS SPEC NO=321987
##MOLFORM=C12 H19 N O4
##MW=241
##$NIST SOURCE=MSDC
##XUNITS=M/Z
##YUNITS=RELATIVE INTENSITY
##XFACTOR=1
##YFACTOR=1
##FIRSTX=26
##LASTX=242
##FIRSTY=40
##MAXX=242
##MINX=26
##MAXY=9999
##MINY=20
##NPOINTS=72
##PEAK TABLE=(XY..XY)
26,40 27,230 29,961 30,60
31,40 38,20 39,861 40,70
41,6406 42,1411 44,40 45,80
53,130 54,210 55,1221 56,330
58,20 67,480 68,280 69,170
70,30 73,520 74,20 80,190
81,110 82,8618 83,571 84,240
85,30 86,120 94,30 96,260
99,90 100,601 101,230 102,30
103,140 108,70 109,20 110,480
111,160 114,170 115,30 122,561
124,581 125,30 126,2152 127,210
128,611 138,130 141,40 142,40
152,150 154,120 156,9999 157,911
158,60 166,20 167,40 168,631
169,50 170,20 182,70 184,941
185,50 196,1672 197,160 200,2993
201,280 238,30 241,200 242,20
##END=
