##TITLE=Sarcosine, N-(2-bromobenzoyl)-, nonyl ester
##JCAMP-DX=4.24
##DATA TYPE=MASS SPECTRUM
##ORIGIN=Zaikin V.G., TIPS RAS, Moscow, Russia
##OWNER=NIST Mass Spectrometry Data Center
Collection (C) 2014 copyright by the U.S. Secretary of Commerce
on behalf of the United States of America. All rights reserved.
##$NIST MASS SPEC NO=321456
##MOLFORM=C19 H28 Br N O3
##MW=397
##$NIST SOURCE=MSDC
##XUNITS=M/Z
##YUNITS=RELATIVE INTENSITY
##XFACTOR=1
##YFACTOR=1
##FIRSTX=27
##LASTX=401
##FIRSTY=90
##MAXX=401
##MINX=27
##MAXY=9999
##MINY=20
##NPOINTS=101
##PEAK TABLE=(XY..XY)
27,90 28,80 29,200 39,90
41,480 42,631 43,801 44,450
50,140 51,100 53,20 54,20
55,330 56,110 57,240 65,20
67,40 68,30 69,130 70,60
71,110 72,30 74,50 75,330
76,530 77,430 78,50 80,30
81,20 82,60 83,60 84,30
85,70 88,320 89,40 90,30
91,140 97,40 98,20 103,20
104,140 105,631 106,40 111,20
113,20 116,50 117,30 118,220
119,70 121,30 130,20 144,20
145,30 146,320 147,60 148,110
155,971 156,90 157,961 158,70
173,90 174,90 175,30 183,9999
184,831 185,9649 186,791 187,20
191,50 192,130 198,30 200,40
201,30 202,20 212,50 214,1321
215,170 224,20 226,3723 227,550
228,3663 229,530 230,30 253,190
254,370 255,220 256,350 257,30
270,110 272,691 273,70 274,550
275,50 318,200 319,30 396,1051
397,1191 398,1261 399,1221 400,260
401,20
##END=
