##TITLE=.beta.-Alanine, N-(3-methoxybenzoyl)-, heptyl ester
##JCAMP-DX=4.24
##DATA TYPE=MASS SPECTRUM
##ORIGIN=Zaikin V.G., TIPS RAS, Moscow, Russia
##OWNER=NIST Mass Spectrometry Data Center
Collection (C) 2014 copyright by the U.S. Secretary of Commerce
on behalf of the United States of America. All rights reserved.
##$NIST MASS SPEC NO=321710
##MOLFORM=C18 H27 N O4
##MW=321
##$NIST SOURCE=MSDC
##XUNITS=M/Z
##YUNITS=RELATIVE INTENSITY
##XFACTOR=1
##YFACTOR=1
##FIRSTX=27
##LASTX=323
##FIRSTY=70
##MAXX=323
##MINX=27
##MAXY=9999
##MINY=20
##NPOINTS=90
##PEAK TABLE=(XY..XY)
27,70 29,140 30,30 38,20
39,70 41,320 42,60 43,250
44,60 50,30 51,20 53,20
55,701 56,60 57,340 63,80
64,190 65,60 69,30 70,280
75,20 76,110 77,921 78,80
79,60 88,1591 89,60 90,20
91,50 92,651 93,80 95,40
103,20 104,50 105,80 106,40
107,1381 108,220 109,40 119,30
120,50 121,150 122,20 123,20
130,20 133,90 134,160 135,9999
136,1121 137,110 138,80 148,50
149,120 150,50 151,140 152,30
153,20 160,80 161,80 162,160
163,621 164,280 165,20 176,200
177,751 178,671 179,741 180,70
186,4974 187,550 188,40 193,20
204,20 205,20 206,1171 207,140
222,360 223,561 224,831 225,80
237,20 251,60 265,20 276,30
278,60 292,170 320,70 321,2052
322,410 323,30
##END=
