##TITLE=.beta.-Alanine, N-caproyl-, propyl ester
##JCAMP-DX=4.24
##DATA TYPE=MASS SPECTRUM
##ORIGIN=Zaikin V.G., TIPS RAS, Moscow, Russia
##OWNER=NIST Mass Spectrometry Data Center
Collection (C) 2014 copyright by the U.S. Secretary of Commerce
on behalf of the United States of America. All rights reserved.
##$NIST MASS SPEC NO=321780
##MOLFORM=C12 H23 N O3
##MW=229
##$NIST SOURCE=MSDC
##XUNITS=M/Z
##YUNITS=RELATIVE INTENSITY
##XFACTOR=1
##YFACTOR=1
##FIRSTX=26
##LASTX=230
##FIRSTY=20
##MAXX=230
##MINX=26
##MAXY=9999
##MINY=20
##NPOINTS=96
##PEAK TABLE=(XY..XY)
26,20 27,611 28,240 29,601
30,1942 31,80 39,400 40,80
41,1702 42,661 43,5015 44,1581
45,170 51,40 53,90 54,100
55,1611 56,380 57,70 58,20
59,340 60,210 61,70 67,50
68,120 69,540 70,1371 71,1942
72,2182 73,601 74,240 75,40
77,80 80,20 81,40 82,30
83,150 84,611 85,2082 86,370
87,2282 88,2242 89,210 90,641
96,40 97,130 98,2923 99,3143
100,310 101,40 103,50 105,220
111,110 112,190 113,5175 114,2282
115,280 116,1411 117,40 124,40
125,20 126,2602 127,500 128,1201
129,90 130,8127 131,1291 132,3283
133,160 139,260 140,1782 141,460
142,190 143,30 144,70 145,190
154,90 155,40 156,80 157,70
158,130 168,90 169,30 170,6726
171,721 172,30 173,9999 174,841
175,50 186,1461 187,230 188,30
200,611 201,30 229,360 230,40
##END=
