##TITLE=Sarcosine, N-valeryl-, dodecyl ester
##JCAMP-DX=4.24
##DATA TYPE=MASS SPECTRUM
##ORIGIN=Zaikin V.G., TIPS RAS, Moscow, Russia
##OWNER=NIST Mass Spectrometry Data Center
Collection (C) 2014 copyright by the U.S. Secretary of Commerce
on behalf of the United States of America. All rights reserved.
##$NIST MASS SPEC NO=321567
##MOLFORM=C20 H39 N O3
##MW=341
##$NIST SOURCE=MSDC
##XUNITS=M/Z
##YUNITS=RELATIVE INTENSITY
##XFACTOR=1
##YFACTOR=1
##FIRSTX=27
##LASTX=343
##FIRSTY=110
##MAXX=343
##MINX=27
##MAXY=9999
##MINY=20
##NPOINTS=97
##PEAK TABLE=(XY..XY)
27,110 28,190 29,470 30,20
39,90 41,921 42,400 43,1051
44,9999 45,290 53,30 54,50
55,681 56,210 57,1892 58,100
67,70 68,60 69,290 70,120
71,230 72,30 81,40 82,50
83,190 84,90 85,1421 86,410
87,1421 88,681 89,90 90,1071
91,40 95,20 96,20 97,110
98,110 99,30 100,90 103,100
111,40 112,30 113,1131 114,480
115,30 116,120 117,20 126,150
127,30 128,2772 129,360 130,40
131,350 132,3363 133,190 140,30
144,120 145,30 155,581 156,410
157,30 158,80 159,230 172,60
173,80 174,380 175,20 186,150
187,50 200,170 201,60 211,140
212,30 213,20 214,160 215,40
228,160 229,40 242,170 243,40
256,1631 257,891 258,480 259,60
270,110 284,40 298,20 299,3033
300,561 301,50 312,480 313,110
326,40 340,30 341,500 342,190
343,20
##END=
