##TITLE=Sarcosine, N-(3-phenylpropionyl)-, ethyl ester
##JCAMP-DX=4.24
##DATA TYPE=MASS SPECTRUM
##ORIGIN=Zaikin V.G., TIPS RAS, Moscow, Russia
##OWNER=NIST Mass Spectrometry Data Center
Collection (C) 2014 copyright by the U.S. Secretary of Commerce
on behalf of the United States of America. All rights reserved.
##$NIST MASS SPEC NO=321410
##MOLFORM=C14 H19 N O3
##MW=249
##$NIST SOURCE=MSDC
##XUNITS=M/Z
##YUNITS=RELATIVE INTENSITY
##XFACTOR=1
##YFACTOR=1
##FIRSTX=27
##LASTX=251
##FIRSTY=160
##MAXX=251
##MINX=27
##MAXY=9999
##MINY=10
##NPOINTS=83
##PEAK TABLE=(XY..XY)
27,160 28,100 29,260 30,20
39,140 41,130 42,530 43,320
44,9999 45,280 50,50 51,280
52,60 53,30 55,140 56,40
57,230 58,60 60,40 63,110
64,20 65,530 66,30 68,20
69,50 70,30 71,90 72,70
74,20 75,30 76,50 77,981
78,460 79,550 80,20 83,50
84,20 85,50 86,20 88,651
89,160 90,90 91,5225 92,420
97,50 98,40 102,120 103,851
104,2352 105,4114 106,370 107,20
111,10 112,300 115,20 116,1151
117,1171 118,3593 119,230 120,140
130,30 131,450 132,300 133,611
134,80 137,30 145,20 146,20
147,10 150,20 162,30 173,80
174,50 175,70 176,801 177,110
192,170 203,701 204,791 205,80
249,5225 250,781 251,70
##END=
