##TITLE=Isonipecotic acid, N-allyloxycarbonyl-, isobutyl ester
##JCAMP-DX=4.24
##DATA TYPE=MASS SPECTRUM
##ORIGIN=Zaikin V.G., TIPS RAS, Moscow, Russia
##OWNER=NIST Mass Spectrometry Data Center
Collection (C) 2014 copyright by the U.S. Secretary of Commerce
on behalf of the United States of America. All rights reserved.
##$NIST MASS SPEC NO=321989
##MOLFORM=C14 H23 N O4
##MW=269
##$NIST SOURCE=MSDC
##XUNITS=M/Z
##YUNITS=RELATIVE INTENSITY
##XFACTOR=1
##YFACTOR=1
##FIRSTX=29
##LASTX=270
##FIRSTY=120
##MAXX=270
##MINX=29
##MAXY=9999
##MINY=10
##NPOINTS=60
##PEAK TABLE=(XY..XY)
29,120 39,280 41,2863 42,420
54,40 55,260 57,1061 58,40
67,100 68,70 73,120 80,30
81,30 82,3483 83,250 86,120
87,20 95,20 96,160 99,30
100,510 101,60 108,30 110,270
111,100 112,160 113,60 114,70
122,350 124,460 125,20 126,1391
127,200 128,2793 138,140 140,20
141,20 142,30 152,140 154,220
156,80 167,60 168,661 169,100
172,50 184,9999 185,1121 186,90
196,2873 197,320 198,60 210,60
212,741 213,40 228,2562 229,300
230,10 254,30 269,170 270,30
##END=
