##TITLE=.beta.-Alanine, N-capryloyl-, hexyl ester
##JCAMP-DX=4.24
##DATA TYPE=MASS SPECTRUM
##ORIGIN=Zaikin V.G., TIPS RAS, Moscow, Russia
##OWNER=NIST Mass Spectrometry Data Center
Collection (C) 2014 copyright by the U.S. Secretary of Commerce
on behalf of the United States of America. All rights reserved.
##$NIST MASS SPEC NO=321812
##MOLFORM=C17 H33 N O3
##MW=299
##$NIST SOURCE=MSDC
##XUNITS=M/Z
##YUNITS=RELATIVE INTENSITY
##XFACTOR=1
##YFACTOR=1
##FIRSTX=26
##LASTX=300
##FIRSTY=60
##MAXX=300
##MINX=26
##MAXY=9999
##MINY=10
##NPOINTS=120
##PEAK TABLE=(XY..XY)
26,60 27,520 28,380 29,951
30,1812 31,30 39,300 40,70
41,2142 42,611 43,4154 44,901
45,150 46,30 51,20 53,100
54,170 55,1862 56,711 57,3603
58,160 59,230 60,100 61,40
67,310 68,160 69,520 70,791
71,320 72,1852 73,330 74,80
79,40 80,30 81,150 82,180
83,380 84,761 85,1181 86,170
87,2462 88,2572 89,300 90,1872
93,20 95,50 96,70 97,280
98,1101 99,220 100,210 101,210
102,50 103,40 109,160 110,30
112,140 113,2132 114,5185 115,260
116,751 117,130 124,40 125,150
126,3173 127,2132 128,200 130,160
131,410 132,9999 133,631 134,70
136,10 138,30 140,831 142,70
143,120 144,440 145,150 146,60
154,410 155,40 156,320 157,20
158,190 159,951 160,60 168,500
169,250 170,140 171,30 172,4814
173,951 174,1091 175,80 182,60
186,320 187,70 196,70 197,70
198,2412 199,280 200,320 201,20
214,30 215,4024 216,931 217,70
228,2022 229,320 230,20 242,290
243,60 256,400 257,100 270,470
271,60 284,50 299,510 300,150
##END=
