##TITLE=Sarcosine, N-(4-chlorobenzoyl)-, propyl ester
##JCAMP-DX=4.24
##DATA TYPE=MASS SPECTRUM
##ORIGIN=Zaikin V.G., TIPS RAS, Moscow, Russia
##OWNER=NIST Mass Spectrometry Data Center
Collection (C) 2014 copyright by the U.S. Secretary of Commerce
on behalf of the United States of America. All rights reserved.
##$NIST MASS SPEC NO=321347
##MOLFORM=C13 H16 Cl N O3
##MW=269
##$NIST SOURCE=MSDC
##XUNITS=M/Z
##YUNITS=RELATIVE INTENSITY
##XFACTOR=1
##YFACTOR=1
##FIRSTX=27
##LASTX=272
##FIRSTY=100
##MAXX=272
##MINX=27
##MAXY=9999
##MINY=20
##NPOINTS=45
##PEAK TABLE=(XY..XY)
27,100 29,20 39,30 41,90
42,340 43,290 44,70 50,130
51,70 74,60 75,581 76,210
77,40 85,40 88,60 103,20
104,150 110,40 111,1481 112,120
113,490 114,30 119,30 130,561
131,30 138,20 139,9999 140,711
141,3393 142,270 168,20 180,30
182,2042 183,220 184,681 185,60
209,40 210,230 211,30 212,80
268,891 269,1001 270,480 271,360
272,60
##END=
