##TITLE=Sarcosine, N-(1-naphthoyl)-, isohexyl ester
##JCAMP-DX=4.24
##DATA TYPE=MASS SPECTRUM
##ORIGIN=Zaikin V.G., TIPS RAS, Moscow, Russia
##OWNER=NIST Mass Spectrometry Data Center
Collection (C) 2014 copyright by the U.S. Secretary of Commerce
on behalf of the United States of America. All rights reserved.
##$NIST MASS SPEC NO=321403
##MOLFORM=C20 H25 N O3
##MW=327
##$NIST SOURCE=MSDC
##XUNITS=M/Z
##YUNITS=RELATIVE INTENSITY
##XFACTOR=1
##YFACTOR=1
##FIRSTX=41
##LASTX=329
##FIRSTY=30
##MAXX=329
##MINX=41
##MAXY=9999
##MINY=20
##NPOINTS=34
##PEAK TABLE=(XY..XY)
41,30 42,30 43,90 44,20
55,20 75,20 77,90 85,20
88,50 101,70 126,230 127,2292
128,330 135,40 141,40 154,40
155,9999 156,1251 157,80 184,20
196,50 197,50 198,861 199,130
224,30 225,170 226,120 242,320
243,490 244,100 326,110 327,2262
328,490 329,40
##END=
