##TITLE=Sarcosine, N-(3-methylbut-2-enoyl)-, dodecyl ester
##JCAMP-DX=4.24
##DATA TYPE=MASS SPECTRUM
##ORIGIN=Zaikin V.G., TIPS RAS, Moscow, Russia
##OWNER=NIST Mass Spectrometry Data Center
Collection (C) 2014 copyright by the U.S. Secretary of Commerce
on behalf of the United States of America. All rights reserved.
##$NIST MASS SPEC NO=321523
##MOLFORM=C20 H37 N O3
##MW=339
##$NIST SOURCE=MSDC
##XUNITS=M/Z
##YUNITS=RELATIVE INTENSITY
##XFACTOR=1
##YFACTOR=1
##FIRSTX=27
##LASTX=341
##FIRSTY=90
##MAXX=341
##MINX=27
##MAXY=9999
##MINY=10
##NPOINTS=55
##PEAK TABLE=(XY..XY)
27,90 29,310 39,150 41,370
42,230 43,591 44,1752 45,40
53,120 54,70 55,1021 56,110
57,260 67,40 69,100 70,20
71,80 81,20 82,1141 83,9999
84,581 85,50 88,290 90,170
98,30 110,40 111,10 112,100
116,20 124,30 125,80 126,4014
127,561 128,40 142,30 153,701
154,210 156,50 170,60 171,40
172,200 240,40 254,20 256,821
257,220 258,2632 259,430 260,30
296,20 324,280 325,40 338,30
339,2302 340,550 341,60
##END=
