##TITLE=.beta.-Alanine, N-acryloyl-, octyl ester
##JCAMP-DX=4.24
##DATA TYPE=MASS SPECTRUM
##ORIGIN=Zaikin V.G., TIPS RAS, Moscow, Russia
##OWNER=NIST Mass Spectrometry Data Center
Collection (C) 2014 copyright by the U.S. Secretary of Commerce
on behalf of the United States of America. All rights reserved.
##$NIST MASS SPEC NO=321680
##MOLFORM=C14 H25 N O3
##MW=255
##$NIST SOURCE=MSDC
##XUNITS=M/Z
##YUNITS=RELATIVE INTENSITY
##XFACTOR=1
##YFACTOR=1
##FIRSTX=26
##LASTX=257
##FIRSTY=90
##MAXX=257
##MINX=26
##MAXY=9999
##MINY=10
##NPOINTS=129
##PEAK TABLE=(XY..XY)
26,90 27,951 28,330 29,841
30,450 31,80 39,270 40,60
41,1882 42,601 43,2572 44,971
45,50 46,40 53,140 54,360
55,7517 56,911 57,2682 58,120
59,210 60,260 61,100 65,20
67,280 68,410 69,1992 70,1641
71,1982 72,681 73,380 74,40
77,30 79,40 80,70 81,180
82,400 83,1311 84,5145 85,841
86,80 87,220 88,4724 89,200
90,260 91,390 93,100 95,90
96,390 97,2933 98,3343 99,1141
100,120 101,30 102,40 104,40
105,150 107,40 108,30 109,40
110,110 111,480 112,240 113,200
114,100 115,60 116,230 119,80
121,40 123,30 124,150 125,1211
126,6346 127,571 128,130 129,120
130,30 131,470 132,160 133,60
135,40 138,50 139,70 140,90
141,80 142,310 143,210 144,2012
145,230 146,60 147,40 153,50
154,70 155,70 156,20 157,90
158,80 159,10 166,30 167,40
168,50 169,30 170,120 171,160
172,50 173,90 174,20 182,20
184,160 185,140 186,30 190,60
198,490 199,110 200,9999 201,1281
202,110 210,50 211,20 212,340
213,120 214,30 226,300 227,60
228,20 240,50 255,1431 256,310
257,30
##END=
