##TITLE=Sarcosine, N-(2,3,4-trifluorobenzoyl)-, ethyl ester
##JCAMP-DX=4.24
##DATA TYPE=MASS SPECTRUM
##ORIGIN=Zaikin V.G., TIPS RAS, Moscow, Russia
##OWNER=NIST Mass Spectrometry Data Center
Collection (C) 2014 copyright by the U.S. Secretary of Commerce
on behalf of the United States of America. All rights reserved.
##$NIST MASS SPEC NO=321476
##MOLFORM=C12 H12 F3 N O3
##MW=275
##$NIST SOURCE=MSDC
##XUNITS=M/Z
##YUNITS=RELATIVE INTENSITY
##XFACTOR=1
##YFACTOR=1
##FIRSTX=27
##LASTX=276
##FIRSTY=70
##MAXX=276
##MINX=27
##MAXY=9999
##MINY=20
##NPOINTS=35
##PEAK TABLE=(XY..XY)
27,70 28,60 29,160 42,500
43,90 44,70 62,40 80,20
81,500 88,20 116,460 117,20
130,50 131,1121 132,110 145,20
158,20 159,9999 160,731 161,40
181,70 182,70 184,20 188,20
201,20 202,2422 203,250 209,40
229,30 230,210 231,20 255,30
274,180 275,701 276,110
##END=
