##TITLE=Sarcosine, N-isobutyryl-, propyl ester
##JCAMP-DX=4.24
##DATA TYPE=MASS SPECTRUM
##ORIGIN=Zaikin V.G., TIPS RAS, Moscow, Russia
##OWNER=NIST Mass Spectrometry Data Center
Collection (C) 2014 copyright by the U.S. Secretary of Commerce
on behalf of the United States of America. All rights reserved.
##$NIST MASS SPEC NO=321271
##MOLFORM=C10 H19 N O3
##MW=201
##$NIST SOURCE=MSDC
##XUNITS=M/Z
##YUNITS=RELATIVE INTENSITY
##XFACTOR=1
##YFACTOR=1
##FIRSTX=27
##LASTX=202
##FIRSTY=450
##MAXX=202
##MINX=27
##MAXY=9999
##MINY=20
##NPOINTS=50
##PEAK TABLE=(XY..XY)
27,450 28,90 29,240 30,20
31,20 39,250 40,40 41,1031
42,931 43,4474 44,9999 45,400
53,60 55,180 56,60 57,240
58,50 60,60 69,130 70,320
71,3093 72,200 73,20 83,20
84,20 86,20 87,70 88,1451
89,30 90,140 99,30 100,100
112,20 113,30 114,3994 115,480
116,440 126,20 130,1411 131,260
132,941 133,50 141,230 142,1161
143,70 144,70 159,60 173,170
201,3693 202,410
##END=
