##TITLE=.beta.-Alanine, N-(2,3,4-trifluorobenzoyl)-, isobutyl ester
##JCAMP-DX=4.24
##DATA TYPE=MASS SPECTRUM
##ORIGIN=Zaikin V.G., TIPS RAS, Moscow, Russia
##OWNER=NIST Mass Spectrometry Data Center
Collection (C) 2014 copyright by the U.S. Secretary of Commerce
on behalf of the United States of America. All rights reserved.
##$NIST MASS SPEC NO=321690
##MOLFORM=C14 H16 F3 N O3
##MW=303
##$NIST SOURCE=MSDC
##XUNITS=M/Z
##YUNITS=RELATIVE INTENSITY
##XFACTOR=1
##YFACTOR=1
##FIRSTX=27
##LASTX=304
##FIRSTY=130
##MAXX=304
##MINX=27
##MAXY=9999
##MINY=20
##NPOINTS=50
##PEAK TABLE=(XY..XY)
27,130 28,100 29,260 30,40
39,80 41,390 42,40 44,20
55,360 56,140 57,270 60,20
62,20 77,40 81,510 88,1882
89,50 107,50 112,60 113,70
130,40 131,1351 132,90 144,2682
145,170 154,110 158,120 159,9999
160,751 173,160 175,20 176,190
181,20 182,190 184,50 187,40
188,1611 189,100 200,110 201,1171
202,390 203,110 229,120 230,2342
231,210 246,40 247,90 248,160
303,671 304,60
##END=
