##TITLE=Sarcosine, N-(4-chlorobenzoyl)-, hexyl ester
##JCAMP-DX=4.24
##DATA TYPE=MASS SPECTRUM
##ORIGIN=Zaikin V.G., TIPS RAS, Moscow, Russia
##OWNER=NIST Mass Spectrometry Data Center
Collection (C) 2014 copyright by the U.S. Secretary of Commerce
on behalf of the United States of America. All rights reserved.
##$NIST MASS SPEC NO=321352
##MOLFORM=C16 H22 Cl N O3
##MW=311
##$NIST SOURCE=MSDC
##XUNITS=M/Z
##YUNITS=RELATIVE INTENSITY
##XFACTOR=1
##YFACTOR=1
##FIRSTX=27
##LASTX=314
##FIRSTY=60
##MAXX=314
##MINX=27
##MAXY=9999
##MINY=20
##NPOINTS=48
##PEAK TABLE=(XY..XY)
27,60 29,90 39,40 41,200
42,270 43,420 44,110 50,60
51,30 55,70 56,20 74,20
75,380 76,150 77,30 85,30
88,120 104,140 105,30 110,20
111,1301 112,100 113,430 114,20
119,40 139,9999 140,781 141,3373
142,260 168,30 172,721 173,60
180,30 182,3123 183,410 184,1041
185,120 209,80 210,100 211,30
212,30 226,50 228,80 310,851
311,1161 312,520 313,400 314,70
##END=
