##TITLE=Sarcosine, N-(2-chlorobenzoyl)-, hexyl ester
##JCAMP-DX=4.24
##DATA TYPE=MASS SPECTRUM
##ORIGIN=Zaikin V.G., TIPS RAS, Moscow, Russia
##OWNER=NIST Mass Spectrometry Data Center
Collection (C) 2014 copyright by the U.S. Secretary of Commerce
on behalf of the United States of America. All rights reserved.
##$NIST MASS SPEC NO=321206
##MOLFORM=C16 H22 Cl N O3
##MW=311
##$NIST SOURCE=MSDC
##XUNITS=M/Z
##YUNITS=RELATIVE INTENSITY
##XFACTOR=1
##YFACTOR=1
##FIRSTX=29
##LASTX=314
##FIRSTY=20
##MAXX=314
##MINX=29
##MAXY=9999
##MINY=20
##NPOINTS=56
##PEAK TABLE=(XY..XY)
29,20 39,20 41,100 42,140
43,250 44,70 50,30 51,30
55,70 56,20 57,20 74,20
75,290 76,70 77,80 85,40
88,90 91,30 104,30 105,80
110,30 111,1041 112,110 113,350
114,20 120,20 133,20 138,30
139,9999 140,811 141,3393 142,250
146,70 147,20 168,40 170,20
172,781 180,30 182,3313 183,420
184,1181 185,140 192,30 209,90
210,140 211,40 212,40 226,70
228,190 230,50 276,110 310,951
311,1561 312,631 313,540 314,100
##END=
