##TITLE=.beta.-Alanine, N-(4-trifluoromethylbenzoyl)-, ethyl ester
##JCAMP-DX=4.24
##DATA TYPE=MASS SPECTRUM
##ORIGIN=Zaikin V.G., TIPS RAS, Moscow, Russia
##OWNER=NIST Mass Spectrometry Data Center
Collection (C) 2014 copyright by the U.S. Secretary of Commerce
on behalf of the United States of America. All rights reserved.
##$NIST MASS SPEC NO=321737
##MOLFORM=C13 H14 F3 N O3
##MW=289
##$NIST SOURCE=MSDC
##XUNITS=M/Z
##YUNITS=RELATIVE INTENSITY
##XFACTOR=1
##YFACTOR=1
##FIRSTX=27
##LASTX=290
##FIRSTY=140
##MAXX=290
##MINX=27
##MAXY=9999
##MINY=20
##NPOINTS=57
##PEAK TABLE=(XY..XY)
27,140 29,300 30,90 42,50
44,220 45,30 50,70 51,30
55,270 57,60 60,60 61,30
70,410 73,60 74,170 75,190
76,60 88,120 95,380 98,60
99,30 101,20 116,4284 117,240
119,30 125,280 126,320 127,40
143,30 144,110 145,3823 146,380
154,120 172,200 173,9999 174,841
175,40 187,70 189,20 198,80
200,40 201,170 202,691 203,50
214,270 215,651 216,310 217,60
243,50 244,1581 245,180 260,120
270,540 271,70 272,80 289,701
290,90
##END=
