##TITLE=.beta.-Alanine, N-isobutyryl-, pentadecyl ester
##JCAMP-DX=4.24
##DATA TYPE=MASS SPECTRUM
##ORIGIN=Zaikin V.G., TIPS RAS, Moscow, Russia
##OWNER=NIST Mass Spectrometry Data Center
Collection (C) 2014 copyright by the U.S. Secretary of Commerce
on behalf of the United States of America. All rights reserved.
##$NIST MASS SPEC NO=321672
##MOLFORM=C22 H43 N O3
##MW=369
##$NIST SOURCE=MSDC
##XUNITS=M/Z
##YUNITS=RELATIVE INTENSITY
##XFACTOR=1
##YFACTOR=1
##FIRSTX=26
##LASTX=371
##FIRSTY=50
##MAXX=371
##MINX=26
##MAXY=9999
##MINY=10
##NPOINTS=120
##PEAK TABLE=(XY..XY)
26,50 27,390 28,801 29,571
30,831 39,260 40,50 41,1952
42,611 43,5755 44,741 45,40
46,30 51,10 53,100 54,220
55,2072 56,711 57,3063 58,180
60,30 67,330 68,260 69,1251
70,1481 71,3894 72,1591 73,190
74,90 75,30 77,30 79,60
80,20 81,210 82,200 83,651
84,240 85,1391 86,80 87,360
88,3904 89,200 90,1491 91,70
95,130 96,110 97,390 98,1331
99,380 100,1401 101,80 109,40
110,20 111,180 112,130 113,1631
114,490 115,1211 116,3773 117,200
118,40 125,40 126,350 127,90
128,70 130,50 131,50 132,40
135,30 139,180 140,110 141,2062
142,6816 143,591 144,140 145,20
152,10 155,30 158,120 159,330
160,6646 161,550 162,40 169,20
172,20 173,80 186,70 187,270
200,40 201,140 207,80 212,10
214,190 215,100 228,360 229,120
242,230 243,60 256,180 257,50
270,200 271,80 281,40 284,230
285,80 298,9999 299,2172 300,601
301,60 312,140 313,70 326,370
327,130 340,170 341,30 354,40
368,30 369,4194 370,1101 371,150
##END=
