##TITLE=.beta.-Alanine, N-isobutyryl-, undecyl ester
##JCAMP-DX=4.24
##DATA TYPE=MASS SPECTRUM
##ORIGIN=Zaikin V.G., TIPS RAS, Moscow, Russia
##OWNER=NIST Mass Spectrometry Data Center
Collection (C) 2014 copyright by the U.S. Secretary of Commerce
on behalf of the United States of America. All rights reserved.
##$NIST MASS SPEC NO=321669
##MOLFORM=C18 H35 N O3
##MW=313
##$NIST SOURCE=MSDC
##XUNITS=M/Z
##YUNITS=RELATIVE INTENSITY
##XFACTOR=1
##YFACTOR=1
##FIRSTX=26
##LASTX=315
##FIRSTY=30
##MAXX=315
##MINX=26
##MAXY=9999
##MINY=20
##NPOINTS=99
##PEAK TABLE=(XY..XY)
26,30 27,380 28,651 29,550
30,801 39,240 40,60 41,1722
42,571 43,4954 44,711 45,60
46,20 53,70 54,130 55,1451
56,550 57,2712 58,150 60,40
67,220 68,150 69,661 70,1381
71,3403 72,1361 73,160 74,90
77,20 79,40 81,100 82,90
83,240 84,120 85,1231 86,70
87,250 88,3553 89,180 90,1091
91,50 95,70 96,70 97,160
98,1341 99,350 100,1151 101,60
107,20 109,20 111,30 112,120
113,1591 114,480 115,911 116,3843
117,170 118,30 126,350 127,50
128,40 130,30 131,40 132,50
135,50 140,70 141,1211 142,4434
143,350 144,140 146,40 155,20
158,90 159,190 160,3833 161,320
172,20 173,40 186,50 187,180
200,30 201,80 214,130 215,40
228,240 229,60 242,9999 243,1641
244,400 245,20 256,80 257,20
270,320 271,50 284,140 298,30
313,2362 314,530 315,40
##END=
