##TITLE=Sarcosine, N-(4-methoxybenzoyl)-, heptyl ester
##JCAMP-DX=4.24
##DATA TYPE=MASS SPECTRUM
##ORIGIN=Zaikin V.G., TIPS RAS, Moscow, Russia
##OWNER=NIST Mass Spectrometry Data Center
Collection (C) 2014 copyright by the U.S. Secretary of Commerce
on behalf of the United States of America. All rights reserved.
##$NIST MASS SPEC NO=321425
##MOLFORM=C18 H27 N O4
##MW=321
##$NIST SOURCE=MSDC
##XUNITS=M/Z
##YUNITS=RELATIVE INTENSITY
##XFACTOR=1
##YFACTOR=1
##FIRSTX=41
##LASTX=323
##FIRSTY=30
##MAXX=323
##MINX=41
##MAXY=9999
##MINY=10
##NPOINTS=34
##PEAK TABLE=(XY..XY)
41,30 42,20 43,40 44,50
55,20 57,30 64,30 76,20
77,260 78,20 88,10 91,20
92,230 104,20 105,30 107,160
133,20 135,9999 136,871 137,60
150,40 164,20 176,30 178,1071
179,150 186,250 187,20 204,110
205,100 206,80 320,801 321,1311
322,270 323,20
##END=
