##TITLE=Sarcosine, N-isobutyryl-, isobutyl ester
##JCAMP-DX=4.24
##DATA TYPE=MASS SPECTRUM
##ORIGIN=Zaikin V.G., TIPS RAS, Moscow, Russia
##OWNER=NIST Mass Spectrometry Data Center
Collection (C) 2014 copyright by the U.S. Secretary of Commerce
on behalf of the United States of America. All rights reserved.
##$NIST MASS SPEC NO=321272
##MOLFORM=C11 H21 N O3
##MW=215
##$NIST SOURCE=MSDC
##XUNITS=M/Z
##YUNITS=RELATIVE INTENSITY
##XFACTOR=1
##YFACTOR=1
##FIRSTX=27
##LASTX=216
##FIRSTY=210
##MAXX=216
##MINX=27
##MAXY=9999
##MINY=20
##NPOINTS=35
##PEAK TABLE=(XY..XY)
27,210 28,100 29,260 39,120
40,20 41,741 42,621 43,3123
44,9999 45,410 55,30 56,30
57,661 69,40 70,60 71,2302
72,130 85,50 87,20 88,691
89,210 90,120 100,40 112,20
114,2282 115,170 116,160 141,100
142,661 143,30 144,581 145,50
146,330 215,991 216,60
##END=
