##TITLE=Sarcosine, n-hexanoyl-, pentadecyl ester
##JCAMP-DX=4.24
##DATA TYPE=MASS SPECTRUM
##ORIGIN=Zaikin V.G., TIPS RAS, Moscow, Russia
##OWNER=NIST Mass Spectrometry Data Center
Collection (C) 2014 copyright by the U.S. Secretary of Commerce
on behalf of the United States of America. All rights reserved.
##$NIST MASS SPEC NO=321130
##MOLFORM=C24 H47 N O3
##MW=397
##$NIST SOURCE=MSDC
##XUNITS=M/Z
##YUNITS=RELATIVE INTENSITY
##XFACTOR=1
##YFACTOR=1
##FIRSTX=27
##LASTX=398
##FIRSTY=120
##MAXX=398
##MINX=27
##MAXY=9999
##MINY=20
##NPOINTS=101
##PEAK TABLE=(XY..XY)
27,120 29,310 39,100 40,20
41,741 42,390 43,2342 44,9999
45,290 53,30 54,50 55,741
56,220 57,751 58,50 67,110
68,80 69,470 70,150 71,981
72,30 81,50 82,50 83,210
84,70 85,150 86,420 87,1241
88,550 89,110 90,1271 95,20
96,30 97,130 98,120 99,1041
100,170 111,30 112,40 113,1201
114,581 115,30 116,90 125,20
126,210 127,40 128,30 131,310
132,2973 133,160 140,100 141,30
142,1311 143,260 144,160 145,40
146,20 153,20 154,20 155,120
158,80 159,110 169,561 170,480
171,30 172,40 173,50 186,130
187,60 188,430 189,30 200,150
201,40 214,150 215,30 228,130
229,20 242,140 243,20 253,80
254,20 256,190 257,30 270,160
284,110 298,1401 299,901 300,641
301,80 312,100 326,20 341,3083
342,721 343,60 354,550 355,180
368,160 369,30 396,20 397,480
398,130
##END=
