##TITLE=Sarcosine, N-(3-phenylpropionyl)-, isohexyl ester
##JCAMP-DX=4.24
##DATA TYPE=MASS SPECTRUM
##ORIGIN=Zaikin V.G., TIPS RAS, Moscow, Russia
##OWNER=NIST Mass Spectrometry Data Center
Collection (C) 2014 copyright by the U.S. Secretary of Commerce
on behalf of the United States of America. All rights reserved.
##$NIST MASS SPEC NO=321415
##MOLFORM=C18 H27 N O3
##MW=305
##$NIST SOURCE=MSDC
##XUNITS=M/Z
##YUNITS=RELATIVE INTENSITY
##XFACTOR=1
##YFACTOR=1
##FIRSTX=27
##LASTX=307
##FIRSTY=90
##MAXX=307
##MINX=27
##MAXY=9999
##MINY=20
##NPOINTS=72
##PEAK TABLE=(XY..XY)
27,90 28,50 29,120 39,90
41,360 42,330 43,1281 44,9699
45,260 51,80 55,250 56,90
57,230 58,20 63,20 65,260
69,80 71,130 72,40 77,540
78,260 79,360 83,30 84,20
85,270 86,30 88,1041 89,561
90,2933 91,4444 92,370 102,40
103,591 104,2722 105,4074 106,390
112,290 116,40 117,20 118,20
119,50 120,220 121,20 128,50
130,20 131,480 132,540 133,971
134,140 144,40 145,20 147,20
162,110 164,220 167,20 172,731
173,470 174,3533 175,470 176,991
177,360 178,40 203,2662 204,1031
205,80 220,30 221,1712 222,310
248,210 305,9999 306,2022 307,190
##END=
