##TITLE=Sarcosine, N-(4-ethylbenzoyl)-, pentyl ester
##JCAMP-DX=4.24
##DATA TYPE=MASS SPECTRUM
##ORIGIN=Zaikin V.G., TIPS RAS, Moscow, Russia
##OWNER=NIST Mass Spectrometry Data Center
Collection (C) 2014 copyright by the U.S. Secretary of Commerce
on behalf of the United States of America. All rights reserved.
##$NIST MASS SPEC NO=321231
##MOLFORM=C17 H25 N O3
##MW=291
##$NIST SOURCE=MSDC
##XUNITS=M/Z
##YUNITS=RELATIVE INTENSITY
##XFACTOR=1
##YFACTOR=1
##FIRSTX=27
##LASTX=293
##FIRSTY=30
##MAXX=293
##MINX=27
##MAXY=9999
##MINY=10
##NPOINTS=44
##PEAK TABLE=(XY..XY)
27,30 28,10 29,40 39,30
41,60 42,70 43,120 44,50
51,30 63,20 65,20 77,290
78,70 79,340 80,20 88,40
89,60 90,100 91,50 103,270
104,140 105,470 106,50 118,30
119,20 131,70 132,70 133,9999
134,941 135,70 147,30 148,20
158,320 162,20 174,50 176,1241
177,170 203,60 204,120 220,20
290,821 291,1431 292,320 293,40
##END=
