##TITLE=.beta.-Alanine, N-isobutyryl-, octyl ester
##JCAMP-DX=4.24
##DATA TYPE=MASS SPECTRUM
##ORIGIN=Zaikin V.G., TIPS RAS, Moscow, Russia
##OWNER=NIST Mass Spectrometry Data Center
Collection (C) 2014 copyright by the U.S. Secretary of Commerce
on behalf of the United States of America. All rights reserved.
##$NIST MASS SPEC NO=321666
##MOLFORM=C15 H29 N O3
##MW=271
##$NIST SOURCE=MSDC
##XUNITS=M/Z
##YUNITS=RELATIVE INTENSITY
##XFACTOR=1
##YFACTOR=1
##FIRSTX=26
##LASTX=272
##FIRSTY=30
##MAXX=272
##MINX=26
##MAXY=9999
##MINY=10
##NPOINTS=91
##PEAK TABLE=(XY..XY)
26,30 27,450 28,691 29,530
30,731 31,20 39,260 40,60
41,1822 42,671 43,4814 44,701
45,80 46,20 53,80 54,100
55,1141 56,500 57,3063 58,160
60,60 67,130 68,110 69,611
70,1441 71,4364 72,1371 73,190
74,130 75,30 77,20 79,20
81,60 82,110 83,250 84,160
85,200 86,30 87,220 88,3553
89,250 90,911 91,40 95,30
96,70 97,130 98,2032 99,240
100,1101 101,60 107,30 111,70
112,180 113,1692 114,490 115,741
116,4814 117,230 118,40 125,20
126,410 127,30 129,20 130,30
131,40 132,40 139,30 140,20
141,751 142,3393 143,280 144,130
145,10 158,90 159,130 160,2502
161,180 173,70 187,140 200,9999
201,1331 202,360 210,20 214,60
215,20 228,410 229,70 242,80
256,50 271,1722 272,310
##END=
