##TITLE=.beta.-Alanine, N-(3-cyclopentylpropionyl)-, butyl ester
##JCAMP-DX=4.24
##DATA TYPE=MASS SPECTRUM
##ORIGIN=Zaikin V.G., TIPS RAS, Moscow, Russia
##OWNER=NIST Mass Spectrometry Data Center
Collection (C) 2014 copyright by the U.S. Secretary of Commerce
on behalf of the United States of America. All rights reserved.
##$NIST MASS SPEC NO=321752
##MOLFORM=C15 H27 N O3
##MW=269
##$NIST SOURCE=MSDC
##XUNITS=M/Z
##YUNITS=RELATIVE INTENSITY
##XFACTOR=1
##YFACTOR=1
##FIRSTX=26
##LASTX=270
##FIRSTY=30
##MAXX=270
##MINX=26
##MAXY=9999
##MINY=10
##NPOINTS=123
##PEAK TABLE=(XY..XY)
26,30 27,390 29,1221 30,2672
31,60 39,561 40,110 41,2853
42,340 43,1121 44,1531 45,160
46,70 48,20 51,20 52,20
53,430 54,450 55,4444 56,671
57,1321 58,70 59,230 60,120
61,40 65,90 66,110 67,1391
68,350 69,861 70,781 71,190
72,2602 73,571 74,200 77,50
78,20 79,1171 80,400 81,1511
82,180 84,641 85,1772 86,250
87,2472 88,2642 89,330 90,1451
91,100 93,40 94,50 95,741
96,510 97,370 98,1231 99,1341
100,340 101,50 102,90 103,50
104,20 107,1441 108,120 109,30
110,60 112,50 113,4154 114,4664
115,350 116,1151 117,100 122,20
123,100 124,440 125,2042 126,6446
127,1071 128,130 129,60 130,120
131,260 132,7587 133,390 134,30
139,20 140,40 141,50 142,70
143,200 144,7247 145,1131 146,1371
147,80 150,20 152,180 154,831
155,40 157,70 158,60 159,420
166,190 167,380 168,180 169,60
172,891 173,40 184,10 187,9999
188,1071 189,80 194,30 195,120
196,4914 197,470 198,50 200,5555
201,901 202,70 214,110 240,80
241,40 269,290 270,240
##END=
