##TITLE=Sarcosine, N-(2-trifluoromethylbenzoyl)-, propyl ester
##JCAMP-DX=4.24
##DATA TYPE=MASS SPECTRUM
##ORIGIN=Zaikin V.G., TIPS RAS, Moscow, Russia
##OWNER=NIST Mass Spectrometry Data Center
Collection (C) 2014 copyright by the U.S. Secretary of Commerce
on behalf of the United States of America. All rights reserved.
##$NIST MASS SPEC NO=321322
##MOLFORM=C14 H16 F3 N O3
##MW=303
##$NIST SOURCE=MSDC
##XUNITS=M/Z
##YUNITS=RELATIVE INTENSITY
##XFACTOR=1
##YFACTOR=1
##FIRSTX=27
##LASTX=305
##FIRSTY=30
##MAXX=305
##MINX=27
##MAXY=9999
##MINY=10
##NPOINTS=53
##PEAK TABLE=(XY..XY)
27,30 39,10 41,40 42,190
43,150 50,10 51,10 74,10
75,60 76,20 77,10 88,40
94,10 95,140 96,10 99,10
119,20 125,130 126,140 127,20
130,350 131,20 143,20 144,50
145,1561 146,150 148,10 151,20
154,40 172,30 173,9999 174,811
175,40 182,10 186,10 196,10
202,30 214,20 216,1782 217,210
234,220 235,20 242,40 243,50
244,270 245,20 283,20 284,130
285,20 302,611 303,781 304,150
305,10
##END=
