##TITLE=Sarcosine, N-(4-trifluoromethylbenzoyl)-, ethyl ester
##JCAMP-DX=4.24
##DATA TYPE=MASS SPECTRUM
##ORIGIN=Zaikin V.G., TIPS RAS, Moscow, Russia
##OWNER=NIST Mass Spectrometry Data Center
Collection (C) 2014 copyright by the U.S. Secretary of Commerce
on behalf of the United States of America. All rights reserved.
##$NIST MASS SPEC NO=321502
##MOLFORM=C13 H14 F3 N O3
##MW=289
##$NIST SOURCE=MSDC
##XUNITS=M/Z
##YUNITS=RELATIVE INTENSITY
##XFACTOR=1
##YFACTOR=1
##FIRSTX=27
##LASTX=290
##FIRSTY=50
##MAXX=290
##MINX=27
##MAXY=9999
##MINY=20
##NPOINTS=47
##PEAK TABLE=(XY..XY)
27,50 28,40 29,120 41,20
42,390 43,190 44,70 50,50
51,30 57,30 69,30 74,20
75,130 76,40 77,20 88,20
95,260 96,20 107,40 116,360
119,20 123,30 125,200 126,230
127,30 143,20 144,60 145,2522
146,210 154,70 159,20 172,20
173,9999 174,851 175,40 202,30
214,50 216,1982 217,220 243,30
244,240 245,20 270,360 271,40
288,801 289,1011 290,190
##END=
