##TITLE=.beta.-Alanine, N-isobutyryl-, pentyl ester
##JCAMP-DX=4.24
##DATA TYPE=MASS SPECTRUM
##ORIGIN=Zaikin V.G., TIPS RAS, Moscow, Russia
##OWNER=NIST Mass Spectrometry Data Center
Collection (C) 2014 copyright by the U.S. Secretary of Commerce
on behalf of the United States of America. All rights reserved.
##$NIST MASS SPEC NO=321663
##MOLFORM=C12 H23 N O3
##MW=229
##$NIST SOURCE=MSDC
##XUNITS=M/Z
##YUNITS=RELATIVE INTENSITY
##XFACTOR=1
##YFACTOR=1
##FIRSTX=26
##LASTX=230
##FIRSTY=50
##MAXX=230
##MINX=26
##MAXY=9999
##MINY=10
##NPOINTS=62
##PEAK TABLE=(XY..XY)
26,50 27,731 28,1151 29,661
30,1051 31,40 38,20 39,400
40,100 41,1772 42,821 43,8017
44,851 46,40 50,10 53,60
54,50 55,1011 58,60 60,130
67,40 68,30 69,240 70,1862
71,4784 72,1591 73,310 74,250
75,20 84,120 85,150 87,190
88,3273 89,200 90,530 96,70
98,4034 99,390 100,1261 101,50
112,200 113,1862 114,480 115,571
116,7106 117,360 118,30 126,520
127,40 131,20 140,40 141,581
142,3353 143,290 144,110 158,9999
159,881 160,1111 186,330 187,120
229,1992 230,260
##END=
