##TITLE=Sarcosine, N-(4-ethylbenzoyl)-, propyl ester
##JCAMP-DX=4.24
##DATA TYPE=MASS SPECTRUM
##ORIGIN=Zaikin V.G., TIPS RAS, Moscow, Russia
##OWNER=NIST Mass Spectrometry Data Center
Collection (C) 2014 copyright by the U.S. Secretary of Commerce
on behalf of the United States of America. All rights reserved.
##$NIST MASS SPEC NO=321228
##MOLFORM=C15 H21 N O3
##MW=263
##$NIST SOURCE=MSDC
##XUNITS=M/Z
##YUNITS=RELATIVE INTENSITY
##XFACTOR=1
##YFACTOR=1
##FIRSTX=27
##LASTX=265
##FIRSTY=80
##MAXX=265
##MINX=27
##MAXY=9999
##MINY=10
##NPOINTS=66
##PEAK TABLE=(XY..XY)
27,80 28,10 29,30 39,50
41,100 42,110 43,170 44,70
51,50 53,20 55,100 56,60
57,100 63,30 65,40 67,20
68,50 69,110 70,60 71,50
76,30 77,380 78,90 79,370
80,20 82,60 83,150 84,50
85,30 88,40 89,80 90,120
91,60 96,20 97,130 98,30
102,30 103,300 104,150 105,470
106,50 111,70 112,20 118,40
119,30 125,40 130,260 131,80
132,70 133,9999 134,931 135,70
146,20 147,20 148,20 162,20
174,40 176,1001 177,120 203,40
204,220 205,30 262,811 263,1331
264,270 265,30
##END=
