##TITLE=Sarcosine, N-(1-naphthoyl)-, decyl ester
##JCAMP-DX=4.24
##DATA TYPE=MASS SPECTRUM
##ORIGIN=Zaikin V.G., TIPS RAS, Moscow, Russia
##OWNER=NIST Mass Spectrometry Data Center
Collection (C) 2014 copyright by the U.S. Secretary of Commerce
on behalf of the United States of America. All rights reserved.
##$NIST MASS SPEC NO=321408
##MOLFORM=C24 H33 N O3
##MW=383
##$NIST SOURCE=MSDC
##XUNITS=M/Z
##YUNITS=RELATIVE INTENSITY
##XFACTOR=1
##YFACTOR=1
##FIRSTX=28
##LASTX=384
##FIRSTY=10
##MAXX=384
##MINX=28
##MAXY=9999
##MINY=10
##NPOINTS=34
##PEAK TABLE=(XY..XY)
28,10 29,20 41,60 42,60
43,100 44,80 55,50 57,50
71,20 77,70 88,30 101,40
126,180 127,1762 128,300 141,30
154,70 155,9999 156,1261 157,60
184,30 196,60 197,90 198,821
199,240 224,100 225,1021 226,360
228,120 242,60 243,180 244,70
383,1261 384,340
##END=
