##TITLE=.beta.-Alanine, N-caproyl-, decyl ester
##JCAMP-DX=4.24
##DATA TYPE=MASS SPECTRUM
##ORIGIN=Zaikin V.G., TIPS RAS, Moscow, Russia
##OWNER=NIST Mass Spectrometry Data Center
Collection (C) 2014 copyright by the U.S. Secretary of Commerce
on behalf of the United States of America. All rights reserved.
##$NIST MASS SPEC NO=321787
##MOLFORM=C19 H37 N O3
##MW=327
##$NIST SOURCE=MSDC
##XUNITS=M/Z
##YUNITS=RELATIVE INTENSITY
##XFACTOR=1
##YFACTOR=1
##FIRSTX=27
##LASTX=328
##FIRSTY=170
##MAXX=328
##MINX=27
##MAXY=9999
##MINY=10
##NPOINTS=109
##PEAK TABLE=(XY..XY)
27,170 28,110 29,290 30,530
39,80 40,20 41,751 42,260
43,1852 44,60 45,20 53,30
54,70 55,731 56,290 57,671
59,90 67,100 68,170 69,430
70,350 71,931 72,781 73,60
79,30 81,110 82,80 83,340
84,150 85,581 86,30 87,871
88,1631 89,130 90,1511 91,100
92,30 95,20 96,40 97,180
98,460 99,1331 100,130 103,20
105,40 110,40 111,10 112,50
113,691 114,4324 115,190 116,470
117,120 118,20 121,20 125,10
126,1411 127,160 128,661 129,30
131,280 132,9999 133,631 134,60
135,20 136,20 140,961 141,561
142,90 143,30 144,330 145,90
146,90 152,30 154,60 155,20
157,10 159,390 168,40 170,2322
171,260 172,110 173,150 183,30
186,230 187,120 188,1812 189,120
200,450 207,60 214,260 215,90
228,4794 229,721 230,330 231,20
242,300 243,30 256,320 270,40
271,2602 272,420 284,1541 285,290
298,641 299,100 312,40 327,340
328,60
##END=
