##TITLE=Sarcosine, N-(2-trifluoromethylbenzoyl)-, butyl ester
##JCAMP-DX=4.24
##DATA TYPE=MASS SPECTRUM
##ORIGIN=Zaikin V.G., TIPS RAS, Moscow, Russia
##OWNER=NIST Mass Spectrometry Data Center
Collection (C) 2014 copyright by the U.S. Secretary of Commerce
on behalf of the United States of America. All rights reserved.
##$NIST MASS SPEC NO=321320
##MOLFORM=C15 H18 F3 N O3
##MW=317
##$NIST SOURCE=MSDC
##XUNITS=M/Z
##YUNITS=RELATIVE INTENSITY
##XFACTOR=1
##YFACTOR=1
##FIRSTX=27
##LASTX=319
##FIRSTY=30
##MAXX=319
##MINX=27
##MAXY=9999
##MINY=10
##NPOINTS=44
##PEAK TABLE=(XY..XY)
27,30 29,80 39,20 41,90
42,200 43,140 44,40 55,30
56,20 57,70 75,50 88,60
95,120 125,90 126,110 127,10
143,20 144,430 145,1702 146,130
151,10 154,40 172,40 173,9999
174,931 175,50 202,50 214,30
216,2612 217,240 242,40 243,90
244,210 245,20 248,280 249,40
262,30 297,20 298,160 299,20
316,681 317,901 318,200 319,20
##END=
