##TITLE=Sarcosine, N-(3-methylbut-2-enoyl)-, isohexyl ester
##JCAMP-DX=4.24
##DATA TYPE=MASS SPECTRUM
##ORIGIN=Zaikin V.G., TIPS RAS, Moscow, Russia
##OWNER=NIST Mass Spectrometry Data Center
Collection (C) 2014 copyright by the U.S. Secretary of Commerce
on behalf of the United States of America. All rights reserved.
##$NIST MASS SPEC NO=321520
##MOLFORM=C14 H25 N O3
##MW=255
##$NIST SOURCE=MSDC
##XUNITS=M/Z
##YUNITS=RELATIVE INTENSITY
##XFACTOR=1
##YFACTOR=1
##FIRSTX=27
##LASTX=256
##FIRSTY=90
##MAXX=256
##MINX=27
##MAXY=9999
##MINY=20
##NPOINTS=40
##PEAK TABLE=(XY..XY)
27,90 29,290 39,140 40,20
41,180 42,220 43,220 44,1231
45,20 53,140 54,70 55,1001
56,90 57,20 82,921 83,9999
84,480 85,60 88,280 90,180
96,40 98,20 110,30 112,60
122,20 124,30 125,40 126,2422
127,270 153,320 154,230 170,30
171,180 172,350 173,30 174,931
175,50 240,20 255,1862 256,260
##END=
