##TITLE=.beta.-Alanine, N-(4-methylbenzoyl)-, butyl ester
##JCAMP-DX=4.24
##DATA TYPE=MASS SPECTRUM
##ORIGIN=Zaikin V.G., TIPS RAS, Moscow, Russia
##OWNER=NIST Mass Spectrometry Data Center
Collection (C) 2014 copyright by the U.S. Secretary of Commerce
on behalf of the United States of America. All rights reserved.
##$NIST MASS SPEC NO=321601
##MOLFORM=C15 H21 N O3
##MW=263
##$NIST SOURCE=MSDC
##XUNITS=M/Z
##YUNITS=RELATIVE INTENSITY
##XFACTOR=1
##YFACTOR=1
##FIRSTX=27
##LASTX=264
##FIRSTY=60
##MAXX=264
##MINX=27
##MAXY=9999
##MINY=10
##NPOINTS=51
##PEAK TABLE=(XY..XY)
27,60 28,50 29,130 39,100
41,170 44,30 51,30 55,50
56,20 57,70 63,80 64,20
65,510 66,20 70,60 77,30
87,20 88,671 89,210 90,220
91,1982 92,160 105,20 117,30
118,220 119,9999 120,851 121,50
135,70 143,10 144,3703 145,310
146,90 147,170 148,220 149,20
160,100 161,360 162,280 163,150
175,20 189,30 190,901 191,110
206,270 207,50 208,100 246,30
262,60 263,911 264,150
##END=
