##TITLE=Sarcosine, N-(2-thiophenylacetyl)-, ethyl ester
##JCAMP-DX=4.24
##DATA TYPE=MASS SPECTRUM
##ORIGIN=Zaikin V.G., TIPS RAS, Moscow, Russia
##OWNER=NIST Mass Spectrometry Data Center
Collection (C) 2014 copyright by the U.S. Secretary of Commerce
on behalf of the United States of America. All rights reserved.
##$NIST MASS SPEC NO=321360
##MOLFORM=C11 H15 N O3 S
##MW=241
##$NIST SOURCE=MSDC
##XUNITS=M/Z
##YUNITS=RELATIVE INTENSITY
##XFACTOR=1
##YFACTOR=1
##FIRSTX=27
##LASTX=244
##FIRSTY=360
##MAXX=244
##MINX=27
##MAXY=9999
##MINY=20
##NPOINTS=54
##PEAK TABLE=(XY..XY)
27,360 29,1201 31,70 38,30
39,460 41,60 42,1181 43,530
44,9999 45,1782 47,70 50,30
51,130 52,70 53,1181 54,60
57,20 58,170 59,60 61,30
63,140 65,20 69,280 70,290
71,120 72,911 73,20 84,150
88,5375 89,160 95,220 96,771
97,8738 98,701 99,430 116,7657
117,400 118,2322 119,90 124,5935
125,540 126,270 144,310 168,1171
169,80 170,20 195,420 196,1031
197,90 198,30 241,9308 242,1241
243,460 244,20
##END=
