##TITLE=Sarcosine, N-(4-nitrobenzoyl)-, hexyl ester
##JCAMP-DX=4.24
##DATA TYPE=MASS SPECTRUM
##ORIGIN=Zaikin V.G., TIPS RAS, Moscow, Russia
##OWNER=NIST Mass Spectrometry Data Center
Collection (C) 2014 copyright by the U.S. Secretary of Commerce
on behalf of the United States of America. All rights reserved.
##$NIST MASS SPEC NO=321285
##MOLFORM=C16 H22 N2 O5
##MW=322
##$NIST SOURCE=MSDC
##XUNITS=M/Z
##YUNITS=RELATIVE INTENSITY
##XFACTOR=1
##YFACTOR=1
##FIRSTX=27
##LASTX=324
##FIRSTY=30
##MAXX=324
##MINX=27
##MAXY=9999
##MINY=10
##NPOINTS=59
##PEAK TABLE=(XY..XY)
27,30 28,20 29,60 39,30
41,120 42,190 43,300 44,130
50,90 51,20 63,20 64,40
65,20 74,20 75,150 76,540
77,60 88,100 92,360 93,30
103,60 104,1371 105,120 119,30
120,641 121,50 122,20 129,40
134,400 135,40 136,20 145,20
146,20 147,20 150,9999 151,771
152,60 159,10 163,20 172,791
173,80 177,70 179,80 191,40
192,30 193,5755 194,681 195,60
207,20 220,230 221,170 237,90
238,40 239,220 292,50 321,941
322,1151 323,240 324,20
##END=
