##TITLE=.beta.-Alanine, N-cyclohexylcarbonyl-, ethyl ester
##JCAMP-DX=4.24
##DATA TYPE=MASS SPECTRUM
##ORIGIN=Zaikin V.G., TIPS RAS, Moscow, Russia
##OWNER=NIST Mass Spectrometry Data Center
Collection (C) 2014 copyright by the U.S. Secretary of Commerce
on behalf of the United States of America. All rights reserved.
##$NIST MASS SPEC NO=321960
##MOLFORM=C12 H21 N O3
##MW=227
##$NIST SOURCE=MSDC
##XUNITS=M/Z
##YUNITS=RELATIVE INTENSITY
##XFACTOR=1
##YFACTOR=1
##FIRSTX=26
##LASTX=229
##FIRSTY=80
##MAXX=229
##MINX=26
##MAXY=9999
##MINY=20
##NPOINTS=105
##PEAK TABLE=(XY..XY)
26,80 27,591 28,410 29,1031
30,1261 31,60 39,540 40,100
41,1992 42,290 43,370 44,561
45,230 50,20 51,50 52,50
53,450 54,550 55,3944 56,290
57,30 58,40 59,70 60,140
61,80 65,70 66,180 67,1271
68,440 69,30 70,721 71,60
72,1311 73,240 74,450 75,20
76,70 77,80 78,40 79,320
80,130 81,881 82,1031 83,7967
84,901 85,150 86,60 87,180
88,290 89,50 90,40 94,20
96,60 98,4644 99,260 100,340
101,210 102,2282 103,70 108,30
109,250 110,2062 111,2042 112,540
113,550 114,50 115,40 116,9999
117,1031 118,4484 119,250 124,50
125,70 126,4964 127,530 130,60
136,30 139,20 140,641 144,941
145,40 152,300 153,831 154,280
155,150 159,1571 160,80 166,40
172,5615 173,561 174,20 180,110
181,591 182,4924 183,540 184,40
185,160 186,1171 187,70 198,40
199,90 212,60 227,4284 228,631
229,30
##END=
