##TITLE=Sarcosine, N-(3-methoxybenzoyl)-, isohexyl ester
##JCAMP-DX=4.24
##DATA TYPE=MASS SPECTRUM
##ORIGIN=Zaikin V.G., TIPS RAS, Moscow, Russia
##OWNER=NIST Mass Spectrometry Data Center
Collection (C) 2014 copyright by the U.S. Secretary of Commerce
on behalf of the United States of America. All rights reserved.
##$NIST MASS SPEC NO=321494
##MOLFORM=C17 H25 N O4
##MW=307
##$NIST SOURCE=MSDC
##XUNITS=M/Z
##YUNITS=RELATIVE INTENSITY
##XFACTOR=1
##YFACTOR=1
##FIRSTX=27
##LASTX=309
##FIRSTY=20
##MAXX=309
##MINX=27
##MAXY=9999
##MINY=20
##NPOINTS=56
##PEAK TABLE=(XY..XY)
27,20 29,40 39,40 41,120
42,80 43,270 44,60 50,20
51,20 53,20 55,70 56,20
57,30 63,70 64,160 65,30
69,30 76,90 77,661 78,70
79,40 85,30 88,190 92,571
93,40 104,30 105,20 106,20
107,941 108,100 120,30 121,1061
122,90 133,30 134,20 135,9999
136,891 137,70 150,20 164,40
172,390 173,30 176,40 177,20
178,851 179,140 192,30 205,50
206,110 222,140 223,110 224,80
306,330 307,1641 308,340 309,30
##END=
