##TITLE=Sarcosine, N-valeryl-, hexyl ester
##JCAMP-DX=4.24
##DATA TYPE=MASS SPECTRUM
##ORIGIN=Zaikin V.G., TIPS RAS, Moscow, Russia
##OWNER=NIST Mass Spectrometry Data Center
Collection (C) 2014 copyright by the U.S. Secretary of Commerce
on behalf of the United States of America. All rights reserved.
##$NIST MASS SPEC NO=321564
##MOLFORM=C14 H27 N O3
##MW=257
##$NIST SOURCE=MSDC
##XUNITS=M/Z
##YUNITS=RELATIVE INTENSITY
##XFACTOR=1
##YFACTOR=1
##FIRSTX=27
##LASTX=258
##FIRSTY=120
##MAXX=258
##MINX=27
##MAXY=9999
##MINY=20
##NPOINTS=91
##PEAK TABLE=(XY..XY)
27,120 28,150 29,370 31,70
39,130 40,20 41,981 42,490
43,891 44,9999 45,310 53,50
54,50 55,801 56,280 57,2042
58,160 60,20 67,70 68,120
69,310 70,200 71,160 72,40
73,20 81,20 82,110 83,350
84,210 85,2332 86,591 87,1812
88,1021 89,130 90,721 91,30
96,30 97,190 98,210 99,110
100,90 101,20 103,20 110,20
111,110 112,100 113,941 114,290
115,20 116,140 119,40 123,70
125,50 126,190 127,210 128,3103
129,320 130,30 131,200 132,2012
133,100 140,50 141,40 142,20
144,160 145,70 154,20 155,500
156,561 157,40 158,80 159,300
168,20 169,40 172,1431 173,871
174,621 175,40 183,20 186,330
187,20 197,30 200,50 215,3603
216,430 217,20 228,390 229,70
242,30 257,440 258,100
##END=
