##TITLE=.beta.-Alanine, N-(3-bromobenzoyl)-, propyl ester
##JCAMP-DX=4.24
##DATA TYPE=MASS SPECTRUM
##ORIGIN=Zaikin V.G., TIPS RAS, Moscow, Russia
##OWNER=NIST Mass Spectrometry Data Center
Collection (C) 2014 copyright by the U.S. Secretary of Commerce
on behalf of the United States of America. All rights reserved.
##$NIST MASS SPEC NO=321638
##MOLFORM=C13 H16 Br N O3
##MW=313
##$NIST SOURCE=MSDC
##XUNITS=M/Z
##YUNITS=RELATIVE INTENSITY
##XFACTOR=1
##YFACTOR=1
##FIRSTX=27
##LASTX=316
##FIRSTY=250
##MAXX=316
##MINX=27
##MAXY=9999
##MINY=10
##NPOINTS=97
##PEAK TABLE=(XY..XY)
27,250 29,60 30,90 31,30
39,70 41,260 42,100 43,440
44,120 46,20 50,420 51,120
55,280 60,50 61,50 63,20
65,20 70,561 71,20 73,90
74,170 75,931 76,1451 77,270
78,20 87,30 88,1421 89,60
90,30 91,50 98,70 102,30
103,130 104,631 105,180 116,20
127,20 128,40 129,20 130,9999
131,701 132,110 133,240 134,20
145,20 146,150 147,30 148,20
149,20 154,10 155,2262 156,200
157,2242 158,150 174,20 182,140
183,8538 184,821 185,8338 186,661
187,20 197,60 199,230 200,120
201,170 202,100 208,60 210,100
211,490 212,731 213,520 214,661
215,40 221,30 224,180 225,931
226,641 227,991 228,440 229,90
252,20 253,80 254,1742 255,250
256,1661 257,170 268,30 270,250
271,30 272,270 273,30 274,30
312,20 313,1281 314,230 315,1251
316,170
##END=
