##TITLE=.beta.-Alanine, N-isobutyryl-, heptadecyl ester
##JCAMP-DX=4.24
##DATA TYPE=MASS SPECTRUM
##ORIGIN=Zaikin V.G., TIPS RAS, Moscow, Russia
##OWNER=NIST Mass Spectrometry Data Center
Collection (C) 2014 copyright by the U.S. Secretary of Commerce
on behalf of the United States of America. All rights reserved.
##$NIST MASS SPEC NO=321674
##MOLFORM=C24 H47 N O3
##MW=397
##$NIST SOURCE=MSDC
##XUNITS=M/Z
##YUNITS=RELATIVE INTENSITY
##XFACTOR=1
##YFACTOR=1
##FIRSTX=26
##LASTX=399
##FIRSTY=60
##MAXX=399
##MINX=26
##MAXY=9999
##MINY=20
##NPOINTS=128
##PEAK TABLE=(XY..XY)
26,60 27,380 28,731 29,470
30,771 39,300 40,40 41,1862
42,561 43,5525 44,671 45,30
51,20 53,120 54,240 55,2242
56,751 57,2983 58,140 60,30
67,410 68,300 69,1401 70,1411
71,3833 72,1561 73,230 74,70
75,40 77,40 79,80 80,20
81,270 82,270 83,881 84,270
85,1301 86,50 87,370 88,3583
89,170 90,1511 91,80 93,20
95,170 96,140 97,550 98,1381
99,370 100,1401 101,60 105,20
109,60 110,20 111,270 112,120
113,1481 114,450 115,1191 116,3483
117,160 118,90 123,20 125,50
126,360 127,80 128,60 130,40
131,30 132,30 135,110 139,340
140,130 141,2272 142,7647 143,621
144,150 145,40 152,110 153,20
155,20 158,110 159,360 160,7387
161,571 162,20 169,50 172,20
173,110 186,60 187,320 189,50
200,30 201,130 207,200 212,20
214,200 215,100 228,420 229,120
242,230 243,50 256,200 257,70
270,240 271,90 281,100 284,290
285,90 298,250 299,70 312,170
313,70 326,9999 327,2192 328,621
329,100 340,160 341,70 354,350
355,90 368,150 369,20 382,30
396,40 397,5505 398,1401 399,170
##END=
