##TITLE=.beta.-Alanine, N-capryloyl-, isobutyl ester
##JCAMP-DX=4.24
##DATA TYPE=MASS SPECTRUM
##ORIGIN=Zaikin V.G., TIPS RAS, Moscow, Russia
##OWNER=NIST Mass Spectrometry Data Center
Collection (C) 2014 copyright by the U.S. Secretary of Commerce
on behalf of the United States of America. All rights reserved.
##$NIST MASS SPEC NO=321808
##MOLFORM=C15 H29 N O3
##MW=271
##$NIST SOURCE=MSDC
##XUNITS=M/Z
##YUNITS=RELATIVE INTENSITY
##XFACTOR=1
##YFACTOR=1
##FIRSTX=26
##LASTX=272
##FIRSTY=70
##MAXX=272
##MINX=26
##MAXY=9999
##MINY=20
##NPOINTS=106
##PEAK TABLE=(XY..XY)
26,70 27,711 28,771 29,1932
30,2783 31,90 39,410 40,60
41,3283 42,641 43,2923 44,1021
45,190 46,40 53,100 54,90
55,2062 56,801 57,7026 58,320
59,250 60,90 67,250 68,120
69,490 70,971 71,410 72,2462
73,370 79,20 80,30 81,100
82,100 83,360 84,921 85,1872
86,280 87,1631 88,4184 89,651
90,2642 96,60 97,290 98,1762
99,360 100,200 101,20 102,120
103,120 107,60 109,200 113,4114
114,4654 115,320 116,691 117,40
124,20 125,80 126,3643 127,3433
128,260 130,120 131,1361 132,9999
133,571 134,60 135,50 136,120
140,90 143,30 144,5755 145,891
146,1131 147,40 154,510 156,901
157,30 158,210 159,50 161,190
168,310 169,200 170,40 171,30
172,330 173,40 178,170 179,30
186,140 187,8468 188,841 189,40
196,120 197,30 198,7437 199,961
200,2542 201,390 214,390 215,80
216,240 229,30 242,520 243,30
271,631 272,140
##END=
