##TITLE=.beta.-Alanine, N-(2-methylbenzoyl)-, pentyl ester
##JCAMP-DX=4.24
##DATA TYPE=MASS SPECTRUM
##ORIGIN=Zaikin V.G., TIPS RAS, Moscow, Russia
##OWNER=NIST Mass Spectrometry Data Center
Collection (C) 2014 copyright by the U.S. Secretary of Commerce
on behalf of the United States of America. All rights reserved.
##$NIST MASS SPEC NO=321615
##MOLFORM=C16 H23 N O3
##MW=277
##$NIST SOURCE=MSDC
##XUNITS=M/Z
##YUNITS=RELATIVE INTENSITY
##XFACTOR=1
##YFACTOR=1
##FIRSTX=27
##LASTX=279
##FIRSTY=110
##MAXX=279
##MINX=27
##MAXY=9999
##MINY=20
##NPOINTS=64
##PEAK TABLE=(XY..XY)
27,110 28,50 29,140 30,70
39,140 40,20 41,230 42,80
43,300 44,50 51,40 55,270
56,20 57,20 63,90 64,40
65,571 66,30 69,30 70,80
71,40 73,40 88,440 89,260
90,591 91,2532 92,230 93,20
104,30 106,30 107,20 116,50
117,50 118,9999 119,7707 120,651
121,40 132,30 133,20 134,70
135,50 141,30 144,30 146,190
147,240 148,140 158,2222 159,210
160,90 161,170 162,100 163,90
189,811 190,841 191,90 192,20
206,50 207,40 208,80 262,90
276,20 277,2032 278,370 279,40
##END=
