##TITLE=Sarcosine, N-(2-furoyl)-, heptyl ester
##JCAMP-DX=4.24
##DATA TYPE=MASS SPECTRUM
##ORIGIN=Zaikin V.G., TIPS RAS, Moscow, Russia
##OWNER=NIST Mass Spectrometry Data Center
Collection (C) 2014 copyright by the U.S. Secretary of Commerce
on behalf of the United States of America. All rights reserved.
##$NIST MASS SPEC NO=321437
##MOLFORM=C15 H23 N O4
##MW=281
##$NIST SOURCE=MSDC
##XUNITS=M/Z
##YUNITS=RELATIVE INTENSITY
##XFACTOR=1
##YFACTOR=1
##FIRSTX=27
##LASTX=282
##FIRSTY=130
##MAXX=282
##MINX=27
##MAXY=9999
##MINY=20
##NPOINTS=38
##PEAK TABLE=(XY..XY)
27,130 28,90 29,240 38,40
39,500 40,40 41,410 42,430
43,360 44,230 51,20 53,30
55,190 56,40 57,240 58,20
66,30 67,110 68,40 81,70
88,160 95,9999 96,581 97,40
110,50 124,100 137,20 138,9018
139,951 140,70 165,110 166,140
184,210 186,480 187,40 193,20
281,811 282,120
##END=
