##TITLE=Sarcosine, n-hexanoyl-, propyl ester
##JCAMP-DX=4.24
##DATA TYPE=MASS SPECTRUM
##ORIGIN=Zaikin V.G., TIPS RAS, Moscow, Russia
##OWNER=NIST Mass Spectrometry Data Center
Collection (C) 2014 copyright by the U.S. Secretary of Commerce
on behalf of the United States of America. All rights reserved.
##$NIST MASS SPEC NO=321123
##MOLFORM=C12 H23 N O3
##MW=229
##$NIST SOURCE=MSDC
##XUNITS=M/Z
##YUNITS=RELATIVE INTENSITY
##XFACTOR=1
##YFACTOR=1
##FIRSTX=27
##LASTX=230
##FIRSTY=210
##MAXX=230
##MINX=27
##MAXY=9999
##MINY=20
##NPOINTS=72
##PEAK TABLE=(XY..XY)
27,210 28,90 29,230 30,20
39,140 40,30 41,661 42,561
43,1742 44,9999 45,230 53,30
54,20 55,280 56,30 57,120
58,110 60,20 67,20 68,20
69,130 70,80 71,911 72,80
77,40 81,20 83,30 85,50
86,420 87,330 88,591 89,40
90,130 97,20 98,150 99,1231
100,160 105,30 112,70 113,801
114,70 116,50 123,80 126,170
127,40 128,20 130,961 131,1211
132,801 133,100 135,270 140,70
142,1111 143,100 144,30 150,20
151,20 152,60 153,50 158,30
169,190 170,891 171,80 173,4364
174,410 175,40 186,440 187,100
200,180 201,20 229,711 230,190
##END=
