##TITLE=Sarcosine, N-(4-ethylbenzoyl)-, hexyl ester
##JCAMP-DX=4.24
##DATA TYPE=MASS SPECTRUM
##ORIGIN=Zaikin V.G., TIPS RAS, Moscow, Russia
##OWNER=NIST Mass Spectrometry Data Center
Collection (C) 2014 copyright by the U.S. Secretary of Commerce
on behalf of the United States of America. All rights reserved.
##$NIST MASS SPEC NO=321233
##MOLFORM=C18 H27 N O3
##MW=305
##$NIST SOURCE=MSDC
##XUNITS=M/Z
##YUNITS=RELATIVE INTENSITY
##XFACTOR=1
##YFACTOR=1
##FIRSTX=27
##LASTX=307
##FIRSTY=40
##MAXX=307
##MINX=27
##MAXY=9999
##MINY=10
##NPOINTS=71
##PEAK TABLE=(XY..XY)
27,40 28,20 29,50 39,30
41,110 42,80 43,190 44,50
51,20 55,90 56,50 57,60
65,20 68,20 69,60 70,40
71,40 76,20 77,240 78,60
79,270 82,30 83,80 84,40
85,20 88,50 89,50 90,70
91,40 95,20 96,20 97,80
98,20 99,50 102,20 103,210
104,110 105,370 106,40 111,40
112,20 116,30 117,240 118,40
119,20 123,100 125,20 131,60
132,60 133,9999 134,821 135,60
140,30 141,140 146,10 148,20
162,20 172,320 173,30 174,40
176,1311 177,180 202,20 203,60
204,80 220,30 222,20 304,741
305,1271 306,280 307,40
##END=
