##TITLE=.beta.-Alanine, N-acryloyl-, tetradecyl ester
##JCAMP-DX=4.24
##DATA TYPE=MASS SPECTRUM
##ORIGIN=Zaikin V.G., TIPS RAS, Moscow, Russia
##OWNER=NIST Mass Spectrometry Data Center
Collection (C) 2014 copyright by the U.S. Secretary of Commerce
on behalf of the United States of America. All rights reserved.
##$NIST MASS SPEC NO=321683
##MOLFORM=C20 H37 N O3
##MW=339
##$NIST SOURCE=MSDC
##XUNITS=M/Z
##YUNITS=RELATIVE INTENSITY
##XFACTOR=1
##YFACTOR=1
##FIRSTX=26
##LASTX=341
##FIRSTY=40
##MAXX=341
##MINX=26
##MAXY=9999
##MINY=20
##NPOINTS=146
##PEAK TABLE=(XY..XY)
26,40 27,430 28,170 29,430
30,350 39,160 40,30 41,1381
42,360 43,2062 44,561 45,30
46,30 53,90 54,300 55,5155
56,571 57,1571 58,50 67,310
68,270 69,1331 70,1211 71,781
72,651 73,140 77,20 79,40
80,40 81,210 82,250 83,751
84,4164 85,550 86,50 87,350
88,3763 89,150 90,781 91,50
95,140 96,340 97,2132 98,2372
99,1011 100,230 101,30 102,40
108,20 109,110 110,90 111,120
112,70 113,140 114,941 115,80
116,260 117,30 123,60 124,120
125,961 126,9999 127,881 128,711
129,50 130,30 131,881 132,891
133,50 137,20 138,40 139,40
140,70 141,30 142,300 143,230
144,3633 145,400 146,290 147,30
152,30 153,40 154,60 156,40
157,70 158,250 159,50 166,20
167,20 168,50 170,170 171,170
172,180 173,130 180,20 182,40
184,280 185,160 186,230 187,40
196,40 198,490 199,130 200,230
201,40 207,30 208,30 210,30
212,641 213,130 214,250 215,20
224,20 226,651 227,150 228,210
229,20 238,20 240,721 241,170
242,190 250,30 251,20 254,821
255,180 256,150 268,851 269,190
270,50 281,20 282,851 283,240
284,7587 285,1411 286,120 296,510
297,130 298,40 310,811 311,210
312,20 324,90 338,30 339,891
340,280 341,30
##END=
