##TITLE=.beta.-Alanine, N-(2,3,4-trifluorobenzoyl)-, propyl ester
##JCAMP-DX=4.24
##DATA TYPE=MASS SPECTRUM
##ORIGIN=Zaikin V.G., TIPS RAS, Moscow, Russia
##OWNER=NIST Mass Spectrometry Data Center
Collection (C) 2014 copyright by the U.S. Secretary of Commerce
on behalf of the United States of America. All rights reserved.
##$NIST MASS SPEC NO=321689
##MOLFORM=C13 H14 F3 N O3
##MW=289
##$NIST SOURCE=MSDC
##XUNITS=M/Z
##YUNITS=RELATIVE INTENSITY
##XFACTOR=1
##YFACTOR=1
##FIRSTX=27
##LASTX=290
##FIRSTY=160
##MAXX=290
##MINX=27
##MAXY=9999
##MINY=20
##NPOINTS=61
##PEAK TABLE=(XY..XY)
27,160 29,50 30,20 31,20
39,50 41,200 42,70 43,300
44,30 55,430 56,40 60,50
61,30 62,30 63,20 70,250
73,30 75,20 80,20 81,540
82,30 88,631 112,80 113,30
130,3123 131,1501 132,140 140,40
141,20 146,20 154,130 155,20
157,20 158,160 159,9999 160,751
161,30 168,30 173,190 174,20
175,40 176,150 181,40 182,220
183,20 184,100 187,60 188,1241
189,100 200,200 201,991 202,370
203,80 228,40 229,130 230,1912
231,210 246,50 248,30 289,841
290,110
##END=
