##TITLE=.beta.-Alanine, N-acryloyl-, isobutyl ester
##JCAMP-DX=4.24
##DATA TYPE=MASS SPECTRUM
##ORIGIN=Zaikin V.G., TIPS RAS, Moscow, Russia
##OWNER=NIST Mass Spectrometry Data Center
Collection (C) 2014 copyright by the U.S. Secretary of Commerce
on behalf of the United States of America. All rights reserved.
##$NIST MASS SPEC NO=321676
##MOLFORM=C10 H17 N O3
##MW=199
##$NIST SOURCE=MSDC
##XUNITS=M/Z
##YUNITS=RELATIVE INTENSITY
##XFACTOR=1
##YFACTOR=1
##FIRSTX=26
##LASTX=200
##FIRSTY=90
##MAXX=200
##MINX=26
##MAXY=9999
##MINY=20
##NPOINTS=62
##PEAK TABLE=(XY..XY)
26,90 27,1041 28,260 29,671
30,480 31,50 36,30 38,20
39,280 40,50 41,1081 42,190
43,480 44,931 45,50 46,20
53,70 54,260 55,9999 56,1231
57,1591 58,40 60,70 61,20
68,90 69,761 70,1301 71,260
72,741 73,150 74,40 80,30
83,801 84,6506 85,330 86,20
88,4234 89,150 90,60 96,100
97,1842 98,3203 99,571 100,30
104,90 105,30 113,160 114,90
116,140 119,30 120,30 124,50
125,871 126,8167 127,581 142,190
143,350 144,7397 145,561 146,20
199,1441 200,90
##END=
