##TITLE=Sarcosine, N-(4-ethylbenzoyl)-, isohexyl ester
##JCAMP-DX=4.24
##DATA TYPE=MASS SPECTRUM
##ORIGIN=Zaikin V.G., TIPS RAS, Moscow, Russia
##OWNER=NIST Mass Spectrometry Data Center
Collection (C) 2014 copyright by the U.S. Secretary of Commerce
on behalf of the United States of America. All rights reserved.
##$NIST MASS SPEC NO=321232
##MOLFORM=C18 H27 N O3
##MW=305
##$NIST SOURCE=MSDC
##XUNITS=M/Z
##YUNITS=RELATIVE INTENSITY
##XFACTOR=1
##YFACTOR=1
##FIRSTX=27
##LASTX=307
##FIRSTY=40
##MAXX=307
##MINX=27
##MAXY=9999
##MINY=10
##NPOINTS=58
##PEAK TABLE=(XY..XY)
27,40 28,10 29,40 39,30
41,80 42,60 43,190 44,50
51,30 53,20 55,50 56,20
57,20 63,20 65,20 69,20
76,20 77,270 78,60 79,320
80,20 85,20 88,110 89,60
90,80 91,50 102,20 103,230
104,120 105,430 106,40 118,30
119,40 131,70 132,60 133,9999
134,961 135,70 136,20 137,30
148,20 150,30 162,20 172,280
173,20 174,40 176,1511 177,200
203,70 204,110 217,20 220,160
221,40 222,120 304,641 305,1211
306,260 307,30
##END=
