##TITLE=Sarcosine, N-(3-methoxybenzoyl)-, heptyl ester
##JCAMP-DX=4.24
##DATA TYPE=MASS SPECTRUM
##ORIGIN=Zaikin V.G., TIPS RAS, Moscow, Russia
##OWNER=NIST Mass Spectrometry Data Center
Collection (C) 2014 copyright by the U.S. Secretary of Commerce
on behalf of the United States of America. All rights reserved.
##$NIST MASS SPEC NO=321496
##MOLFORM=C18 H27 N O4
##MW=321
##$NIST SOURCE=MSDC
##XUNITS=M/Z
##YUNITS=RELATIVE INTENSITY
##XFACTOR=1
##YFACTOR=1
##FIRSTX=27
##LASTX=323
##FIRSTY=30
##MAXX=323
##MINX=27
##MAXY=9999
##MINY=20
##NPOINTS=49
##PEAK TABLE=(XY..XY)
27,30 29,80 39,40 41,160
42,120 43,150 44,70 50,20
51,20 55,80 56,20 57,110
63,60 64,150 65,30 76,80
77,611 78,60 79,30 88,120
92,470 93,40 104,30 105,30
107,881 108,90 120,30 121,1141
122,100 133,20 135,9999 136,841
137,70 164,30 176,50 177,20
178,871 179,160 186,571 187,60
192,30 205,50 206,80 222,30
224,50 320,430 321,1441 322,320
323,40
##END=
