##TITLE=Sarcosine, n-hexanoyl-, ethyl ester
##JCAMP-DX=4.24
##DATA TYPE=MASS SPECTRUM
##ORIGIN=Zaikin V.G., TIPS RAS, Moscow, Russia
##OWNER=NIST Mass Spectrometry Data Center
Collection (C) 2014 copyright by the U.S. Secretary of Commerce
on behalf of the United States of America. All rights reserved.
##$NIST MASS SPEC NO=321122
##MOLFORM=C11 H21 N O3
##MW=215
##$NIST SOURCE=MSDC
##XUNITS=M/Z
##YUNITS=RELATIVE INTENSITY
##XFACTOR=1
##YFACTOR=1
##FIRSTX=26
##LASTX=216
##FIRSTY=20
##MAXX=216
##MINX=26
##MAXY=9999
##MINY=10
##NPOINTS=62
##PEAK TABLE=(XY..XY)
26,20 27,350 28,250 29,641
30,40 31,30 39,170 40,30
41,631 42,781 43,1912 44,9999
45,310 53,40 54,20 55,310
56,40 57,120 58,120 67,20
68,20 69,150 70,110 71,911
72,90 84,20 85,40 86,360
87,70 88,330 89,10 90,20
98,130 99,1071 100,120 112,60
113,651 114,50 116,891 117,1181
118,701 119,20 120,20 126,140
127,40 140,40 142,861 143,80
149,20 156,100 158,20 159,3593
160,260 169,110 170,571 171,50
172,340 173,60 174,20 186,120
215,470 216,90
##END=
