##TITLE=.beta.-Alanine, N-capryloyl-, ethyl ester
##JCAMP-DX=4.24
##DATA TYPE=MASS SPECTRUM
##ORIGIN=Zaikin V.G., TIPS RAS, Moscow, Russia
##OWNER=NIST Mass Spectrometry Data Center
Collection (C) 2014 copyright by the U.S. Secretary of Commerce
on behalf of the United States of America. All rights reserved.
##$NIST MASS SPEC NO=321806
##MOLFORM=C13 H25 N O3
##MW=243
##$NIST SOURCE=MSDC
##XUNITS=M/Z
##YUNITS=RELATIVE INTENSITY
##XFACTOR=1
##YFACTOR=1
##FIRSTX=26
##LASTX=244
##FIRSTY=70
##MAXX=244
##MINX=26
##MAXY=9999
##MINY=20
##NPOINTS=100
##PEAK TABLE=(XY..XY)
26,70 27,711 28,601 29,1521
30,2793 31,70 39,310 40,60
41,1892 42,561 43,2242 44,1722
45,300 51,20 53,110 54,140
55,1902 56,430 57,3263 58,160
59,290 60,130 61,60 67,240
68,130 69,460 70,1131 71,350
72,1551 73,360 74,310 76,30
77,20 78,20 79,30 80,20
81,90 82,100 83,280 84,721
85,1792 86,270 87,1311 88,430
89,100 90,40 95,90 96,40
97,210 98,2292 99,180 100,110
101,280 102,651 103,50 104,370
109,140 112,150 113,4544 114,400
115,100 116,7317 117,1361 118,1672
119,80 125,30 126,2362 127,1802
128,160 130,60 131,120 140,691
141,50 142,20 144,180 146,30
154,310 156,440 159,9999 160,801
161,90 168,360 169,150 170,70
172,1752 173,240 182,40 186,290
187,20 189,100 196,50 197,20
198,3433 199,430 200,320 201,60
214,360 215,30 243,370 244,90
##END=
