##TITLE=Sarcosine, N-(4-ethylbenzoyl)-, ethyl ester
##JCAMP-DX=4.24
##DATA TYPE=MASS SPECTRUM
##ORIGIN=Zaikin V.G., TIPS RAS, Moscow, Russia
##OWNER=NIST Mass Spectrometry Data Center
Collection (C) 2014 copyright by the U.S. Secretary of Commerce
on behalf of the United States of America. All rights reserved.
##$NIST MASS SPEC NO=321227
##MOLFORM=C14 H19 N O3
##MW=249
##$NIST SOURCE=MSDC
##XUNITS=M/Z
##YUNITS=RELATIVE INTENSITY
##XFACTOR=1
##YFACTOR=1
##FIRSTX=27
##LASTX=250
##FIRSTY=50
##MAXX=250
##MINX=27
##MAXY=9999
##MINY=10
##NPOINTS=66
##PEAK TABLE=(XY..XY)
27,50 28,30 29,70 39,30
41,110 42,90 43,190 44,30
51,40 53,20 55,160 56,90
57,160 63,30 65,30 67,20
68,60 69,130 70,80 71,70
76,20 77,360 78,90 79,340
80,20 82,60 83,140 84,50
85,40 88,20 89,90 90,120
91,50 96,20 97,100 98,30
102,30 103,310 104,150 105,480
106,50 111,50 112,20 116,220
118,40 119,40 125,20 131,70
132,70 133,9999 134,871 135,60
146,20 147,10 148,30 162,20
174,50 175,20 176,971 177,110
203,30 204,210 205,20 248,561
249,891 250,160
##END=
