##TITLE=Sarcosine, N-(4-bromobenzoyl)-, butyl ester
##JCAMP-DX=4.24
##DATA TYPE=MASS SPECTRUM
##ORIGIN=Zaikin V.G., TIPS RAS, Moscow, Russia
##OWNER=NIST Mass Spectrometry Data Center
Collection (C) 2014 copyright by the U.S. Secretary of Commerce
on behalf of the United States of America. All rights reserved.
##$NIST MASS SPEC NO=321374
##MOLFORM=C14 H18 Br N O3
##MW=327
##$NIST SOURCE=MSDC
##XUNITS=M/Z
##YUNITS=RELATIVE INTENSITY
##XFACTOR=1
##YFACTOR=1
##FIRSTX=27
##LASTX=330
##FIRSTY=50
##MAXX=330
##MINX=27
##MAXY=9999
##MINY=20
##NPOINTS=51
##PEAK TABLE=(XY..XY)
27,50 29,160 39,30 41,170
42,390 43,310 44,100 50,190
51,40 55,30 56,20 57,100
74,60 75,470 76,741 77,110
88,110 103,60 104,540 105,70
119,140 123,30 144,1101 145,70
147,50 155,1341 156,120 157,1361
158,80 183,9999 184,761 185,9599
186,711 187,20 212,20 214,20
224,20 226,3093 227,310 228,2983
229,290 253,50 254,160 255,60
256,140 272,20 326,1011 327,1351
328,1251 329,1391 330,250
##END=
