##TITLE=l-Leucine, N-methyl-n-propoxycarbonyl-, heptadecyl ester
##JCAMP-DX=4.24
##DATA TYPE=MASS SPECTRUM
##ORIGIN=Zaikin V.G., TIPS RAS, Moscow, Russia
##OWNER=NIST Mass Spectrometry Data Center
Collection (C) 2014 copyright by the U.S. Secretary of Commerce
on behalf of the United States of America. All rights reserved.
##$NIST MASS SPEC NO=321866
##MOLFORM=C28 H55 N O4
##MW=469
##$NIST SOURCE=MSDC
##XUNITS=M/Z
##YUNITS=RELATIVE INTENSITY
##XFACTOR=1
##YFACTOR=1
##FIRSTX=29
##LASTX=232
##FIRSTY=10
##MAXX=232
##MINX=29
##MAXY=9999
##MINY=10
##NPOINTS=33
##PEAK TABLE=(XY..XY)
29,10 41,100 42,70 43,440
44,60 55,100 56,50 57,250
58,110 69,80 70,40 71,80
83,50 84,40 85,40 88,230
97,20 98,30 100,500 101,20
102,30 115,40 128,30 130,60
142,60 143,20 144,751 145,50
171,30 186,9999 187,1191 188,80
232,20
##END=
