##TITLE=Sarcosine, N-(cyclohexylcarbonyl)-, decyl ester
##JCAMP-DX=4.24
##DATA TYPE=MASS SPECTRUM
##ORIGIN=Zaikin V.G., TIPS RAS, Moscow, Russia
##OWNER=NIST Mass Spectrometry Data Center
Collection (C) 2014 copyright by the U.S. Secretary of Commerce
on behalf of the United States of America. All rights reserved.
##$NIST MASS SPEC NO=321536
##MOLFORM=C20 H37 N O3
##MW=339
##$NIST SOURCE=MSDC
##XUNITS=M/Z
##YUNITS=RELATIVE INTENSITY
##XFACTOR=1
##YFACTOR=1
##FIRSTX=27
##LASTX=341
##FIRSTY=120
##MAXX=341
##MINX=27
##MAXY=9999
##MINY=10
##NPOINTS=88
##PEAK TABLE=(XY..XY)
27,120 28,110 29,280 39,150
41,1221 42,490 43,1311 44,9999
45,270 53,110 54,160 55,2412
56,300 57,571 67,400 68,140
69,260 70,100 71,250 72,50
73,30 77,30 79,90 81,591
82,290 83,8478 84,631 85,160
86,30 87,190 88,841 89,90
90,881 91,20 95,50 96,20
97,80 98,200 99,20 100,70
109,120 110,1031 111,3643 112,480
113,210 114,30 116,200 123,20
124,30 125,60 126,741 127,60
131,60 132,500 140,130 144,290
153,20 154,4364 155,1311 156,100
158,40 181,2172 182,711 183,70
184,20 186,30 199,40 200,490
201,40 214,50 221,10 228,3673
229,2122 230,7747 231,1151 232,60
271,180 284,4694 285,831 286,50
296,20 297,40 298,500 299,60
324,40 339,3383 340,741 341,70
##END=
