##TITLE=.beta.-Alanine, N-(4-ethylbenzoyl)-, propyl ester
##JCAMP-DX=4.24
##DATA TYPE=MASS SPECTRUM
##ORIGIN=Zaikin V.G., TIPS RAS, Moscow, Russia
##OWNER=NIST Mass Spectrometry Data Center
Collection (C) 2014 copyright by the U.S. Secretary of Commerce
on behalf of the United States of America. All rights reserved.
##$NIST MASS SPEC NO=321651
##MOLFORM=C15 H21 N O3
##MW=263
##$NIST SOURCE=MSDC
##XUNITS=M/Z
##YUNITS=RELATIVE INTENSITY
##XFACTOR=1
##YFACTOR=1
##FIRSTX=27
##LASTX=265
##FIRSTY=130
##MAXX=265
##MINX=27
##MAXY=9999
##MINY=10
##NPOINTS=73
##PEAK TABLE=(XY..XY)
27,130 28,10 29,30 39,60
41,100 42,30 43,150 44,40
50,20 51,70 53,20 55,80
57,20 61,20 63,40 65,60
69,30 70,140 73,20 76,30
77,530 78,130 79,591 80,40
82,10 83,40 88,470 89,140
90,180 91,120 97,40 98,30
102,50 103,450 104,220 105,791
106,110 111,20 116,30 117,20
121,30 129,30 130,4014 131,440
132,220 133,9999 134,1011 135,70
144,20 146,50 148,20 149,110
150,40 158,60 160,40 161,180
162,150 174,90 175,290 176,240
177,110 203,30 204,1241 205,170
218,20 220,310 221,70 222,30
246,90 262,90 263,1071 264,210
265,20
##END=
