##TITLE=Sarcosine, N-(2-furoyl)-, nonyl ester
##JCAMP-DX=4.24
##DATA TYPE=MASS SPECTRUM
##ORIGIN=Zaikin V.G., TIPS RAS, Moscow, Russia
##OWNER=NIST Mass Spectrometry Data Center
Collection (C) 2014 copyright by the U.S. Secretary of Commerce
on behalf of the United States of America. All rights reserved.
##$NIST MASS SPEC NO=321439
##MOLFORM=C17 H27 N O4
##MW=309
##$NIST SOURCE=MSDC
##XUNITS=M/Z
##YUNITS=RELATIVE INTENSITY
##XFACTOR=1
##YFACTOR=1
##FIRSTX=27
##LASTX=311
##FIRSTY=80
##MAXX=311
##MINX=27
##MAXY=9999
##MINY=20
##NPOINTS=47
##PEAK TABLE=(XY..XY)
27,80 28,70 29,170 38,20
39,320 40,30 41,390 42,330
43,470 44,250 53,30 54,20
55,250 56,70 57,140 66,20
67,90 68,40 69,80 70,30
71,60 81,60 82,30 83,20
85,30 88,170 95,7997 96,520
97,60 110,50 124,100 137,30
138,9999 139,1151 140,100 165,160
166,180 184,390 185,30 214,591
215,70 221,30 252,20 281,30
309,1081 310,220 311,20
##END=
