##TITLE=Sarcosine, N-(4-methylbenzoyl)-, butyl ester
##JCAMP-DX=4.24
##DATA TYPE=MASS SPECTRUM
##ORIGIN=Zaikin V.G., TIPS RAS, Moscow, Russia
##OWNER=NIST Mass Spectrometry Data Center
Collection (C) 2014 copyright by the U.S. Secretary of Commerce
on behalf of the United States of America. All rights reserved.
##$NIST MASS SPEC NO=321215
##MOLFORM=C15 H21 N O3
##MW=263
##$NIST SOURCE=MSDC
##XUNITS=M/Z
##YUNITS=RELATIVE INTENSITY
##XFACTOR=1
##YFACTOR=1
##FIRSTX=27
##LASTX=265
##FIRSTY=30
##MAXX=265
##MINX=27
##MAXY=9999
##MINY=10
##NPOINTS=46
##PEAK TABLE=(XY..XY)
27,30 28,30 29,80 39,60
41,110 42,90 43,100 44,30
51,20 55,70 56,40 57,80
63,40 65,280 68,30 69,60
70,30 71,30 82,30 83,80
84,20 85,20 88,40 89,110
90,110 91,1091 92,90 97,70
98,10 111,30 118,70 119,9999
120,741 121,40 133,20 144,270
145,20 160,40 162,1261 163,150
189,40 190,130 262,771 263,1261
264,250 265,30
##END=
