##TITLE=.beta.-Alanine, N-cyclohexylcarbonyl-, decyl ester
##JCAMP-DX=4.24
##DATA TYPE=MASS SPECTRUM
##ORIGIN=Zaikin V.G., TIPS RAS, Moscow, Russia
##OWNER=NIST Mass Spectrometry Data Center
Collection (C) 2014 copyright by the U.S. Secretary of Commerce
on behalf of the United States of America. All rights reserved.
##$NIST MASS SPEC NO=321967
##MOLFORM=C20 H37 N O3
##MW=339
##$NIST SOURCE=MSDC
##XUNITS=M/Z
##YUNITS=RELATIVE INTENSITY
##XFACTOR=1
##YFACTOR=1
##FIRSTX=27
##LASTX=341
##FIRSTY=110
##MAXX=341
##MINX=27
##MAXY=9999
##MINY=10
##NPOINTS=147
##PEAK TABLE=(XY..XY)
27,110 28,120 29,310 30,440
39,180 41,1061 42,200 43,1091
44,300 52,20 53,120 54,240
55,2422 56,330 57,931 58,30
59,40 60,40 65,20 66,100
67,530 68,200 69,360 70,581
71,470 72,871 73,80 74,60
77,50 78,20 79,140 80,80
81,711 82,561 83,5095 84,490
85,601 87,260 88,1902 89,120
90,1762 91,80 95,140 96,50
97,160 98,691 99,100 100,300
101,20 107,30 108,40 109,260
110,1551 111,1812 112,390 113,280
114,410 115,20 116,1181 117,90
118,20 125,90 126,4094 127,470
128,150 130,40 131,280 132,1181
133,80 135,20 136,50 137,30
138,70 139,170 140,601 141,70
144,671 145,70 146,20 148,20
151,30 152,180 153,881 154,300
155,771 156,90 157,20 158,210
159,20 167,20 169,80 170,20
172,70 173,20 179,10 180,180
181,1271 182,2893 183,320 184,30
185,20 186,70 187,20 194,10
198,80 199,170 200,3633 201,450
207,20 213,30 214,50 226,30
227,140 228,9999 229,1591 230,2632
231,370 241,130 242,40 254,180
255,70 256,140 257,30 264,20
268,370 269,70 271,40 281,30
282,220 283,50 284,5225 285,911
286,70 296,70 297,180 298,1221
299,180 300,20 310,150 311,50
312,20 324,210 325,10 338,30
339,4014 340,941 341,70
##END=
