##TITLE=.beta.-Alanine, N-(4-ethylbenzoyl)-, ethyl ester
##JCAMP-DX=4.24
##DATA TYPE=MASS SPECTRUM
##ORIGIN=Zaikin V.G., TIPS RAS, Moscow, Russia
##OWNER=NIST Mass Spectrometry Data Center
Collection (C) 2014 copyright by the U.S. Secretary of Commerce
on behalf of the United States of America. All rights reserved.
##$NIST MASS SPEC NO=321650
##MOLFORM=C14 H19 N O3
##MW=249
##$NIST SOURCE=MSDC
##XUNITS=M/Z
##YUNITS=RELATIVE INTENSITY
##XFACTOR=1
##YFACTOR=1
##FIRSTX=27
##LASTX=250
##FIRSTY=90
##MAXX=250
##MINX=27
##MAXY=9999
##MINY=10
##NPOINTS=67
##PEAK TABLE=(XY..XY)
27,90 28,40 29,110 39,40
43,10 44,30 50,20 51,70
53,20 55,50 57,20 63,40
65,50 69,20 70,130 73,20
74,80 75,10 76,30 77,510
78,120 79,561 80,30 83,40
88,40 89,120 90,170 91,90
97,30 98,30 102,50 103,440
104,200 105,781 106,90 111,20
115,30 116,3603 117,240 118,100
119,60 131,150 132,170 133,9999
134,941 135,70 146,40 149,90
150,20 158,50 160,40 161,150
162,150 174,80 175,220 176,160
177,60 203,20 204,991 205,130
220,320 221,40 232,130 233,20
248,90 249,1001 250,180
##END=
