##TITLE=Sarcosine, N-isobutyryl-, heptyl ester
##JCAMP-DX=4.24
##DATA TYPE=MASS SPECTRUM
##ORIGIN=Zaikin V.G., TIPS RAS, Moscow, Russia
##OWNER=NIST Mass Spectrometry Data Center
Collection (C) 2014 copyright by the U.S. Secretary of Commerce
on behalf of the United States of America. All rights reserved.
##$NIST MASS SPEC NO=321274
##MOLFORM=C14 H27 N O3
##MW=257
##$NIST SOURCE=MSDC
##XUNITS=M/Z
##YUNITS=RELATIVE INTENSITY
##XFACTOR=1
##YFACTOR=1
##FIRSTX=27
##LASTX=258
##FIRSTY=220
##MAXX=258
##MINX=27
##MAXY=9999
##MINY=20
##NPOINTS=44
##PEAK TABLE=(XY..XY)
27,220 28,90 29,240 39,130
40,20 41,791 42,571 43,3003
44,9999 45,270 53,20 55,300
56,60 57,611 58,30 69,80
70,170 71,2222 72,150 86,20
87,50 88,741 89,70 90,280
98,30 100,60 112,20 113,40
114,4354 115,420 116,340 132,20
141,310 142,280 144,60 158,20
160,110 186,1131 187,210 188,761
189,60 229,20 257,1111 258,140
##END=
