##TITLE=.beta.-Alanine, N-(4-butylbenzoyl)-, propyl ester
##JCAMP-DX=4.24
##DATA TYPE=MASS SPECTRUM
##ORIGIN=Zaikin V.G., TIPS RAS, Moscow, Russia
##OWNER=NIST Mass Spectrometry Data Center
Collection (C) 2014 copyright by the U.S. Secretary of Commerce
on behalf of the United States of America. All rights reserved.
##$NIST MASS SPEC NO=321768
##MOLFORM=C17 H25 N O3
##MW=291
##$NIST SOURCE=MSDC
##XUNITS=M/Z
##YUNITS=RELATIVE INTENSITY
##XFACTOR=1
##YFACTOR=1
##FIRSTX=27
##LASTX=292
##FIRSTY=110
##MAXX=292
##MINX=27
##MAXY=9999
##MINY=20
##NPOINTS=73
##PEAK TABLE=(XY..XY)
27,110 29,50 39,50 41,160
42,30 43,180 51,30 55,100
63,30 65,120 70,120 76,20
77,170 78,60 79,50 88,480
89,200 90,621 91,1411 92,140
98,20 102,20 103,180 104,130
105,170 106,70 107,20 115,90
116,70 117,80 118,781 119,210
128,20 129,50 130,5115 131,601
132,120 133,120 134,80 135,30
145,30 146,60 147,20 148,20
159,110 160,120 161,9999 162,1141
163,70 177,60 178,30 186,60
188,40 189,270 190,70 202,90
203,310 204,270 205,150 206,20
220,20 231,20 232,1081 233,160
234,40 246,40 248,470 249,80
250,20 274,70 290,90 291,941
292,170
##END=
