##TITLE=Sarcosine, N-(4-methoxybenzoyl)-, propyl ester
##JCAMP-DX=4.24
##DATA TYPE=MASS SPECTRUM
##ORIGIN=Zaikin V.G., TIPS RAS, Moscow, Russia
##OWNER=NIST Mass Spectrometry Data Center
Collection (C) 2014 copyright by the U.S. Secretary of Commerce
on behalf of the United States of America. All rights reserved.
##$NIST MASS SPEC NO=321420
##MOLFORM=C14 H19 N O4
##MW=265
##$NIST SOURCE=MSDC
##XUNITS=M/Z
##YUNITS=RELATIVE INTENSITY
##XFACTOR=1
##YFACTOR=1
##FIRSTX=27
##LASTX=267
##FIRSTY=10
##MAXX=267
##MINX=27
##MAXY=9999
##MINY=10
##NPOINTS=36
##PEAK TABLE=(XY..XY)
27,10 41,30 42,50 43,40
44,30 63,50 64,120 65,20
76,60 77,500 78,40 79,20
92,430 93,30 104,50 105,20
107,250 108,20 120,30 121,20
130,140 133,20 135,9999 136,821
137,70 150,50 176,20 178,771
179,80 205,50 206,210 207,20
264,701 265,1181 266,210 267,20
##END=
