##TITLE=Sarcosine, N-(3-methylbut-2-enoyl)-, ethyl ester
##JCAMP-DX=4.24
##DATA TYPE=MASS SPECTRUM
##ORIGIN=Zaikin V.G., TIPS RAS, Moscow, Russia
##OWNER=NIST Mass Spectrometry Data Center
Collection (C) 2014 copyright by the U.S. Secretary of Commerce
on behalf of the United States of America. All rights reserved.
##$NIST MASS SPEC NO=321518
##MOLFORM=C10 H17 N O3
##MW=199
##$NIST SOURCE=MSDC
##XUNITS=M/Z
##YUNITS=RELATIVE INTENSITY
##XFACTOR=1
##YFACTOR=1
##FIRSTX=27
##LASTX=200
##FIRSTY=320
##MAXX=200
##MINX=27
##MAXY=9999
##MINY=20
##NPOINTS=39
##PEAK TABLE=(XY..XY)
27,320 28,260 29,661 30,20
39,420 40,40 41,60 42,370
43,40 44,1151 45,20 51,30
53,270 54,130 55,1401 56,40
67,60 82,911 83,9999 84,520
88,90 96,20 110,60 112,30
116,340 117,90 118,611 119,20
124,20 125,40 126,1421 127,110
153,160 154,340 155,20 170,20
184,220 199,2092 200,240
##END=
