##TITLE=Sarcosine, N-(cyclohexylcarbonyl)-, pentyl ester
##JCAMP-DX=4.24
##DATA TYPE=MASS SPECTRUM
##ORIGIN=Zaikin V.G., TIPS RAS, Moscow, Russia
##OWNER=NIST Mass Spectrometry Data Center
Collection (C) 2014 copyright by the U.S. Secretary of Commerce
on behalf of the United States of America. All rights reserved.
##$NIST MASS SPEC NO=321531
##MOLFORM=C15 H27 N O3
##MW=269
##$NIST SOURCE=MSDC
##XUNITS=M/Z
##YUNITS=RELATIVE INTENSITY
##XFACTOR=1
##YFACTOR=1
##FIRSTX=27
##LASTX=270
##FIRSTY=180
##MAXX=270
##MINX=27
##MAXY=9999
##MINY=20
##NPOINTS=68
##PEAK TABLE=(XY..XY)
27,180 28,120 29,310 39,240
40,20 41,1271 42,581 43,1071
44,9999 45,240 53,170 54,190
55,2492 56,150 57,30 58,30
67,420 68,110 69,80 70,70
71,140 72,60 73,20 77,50
79,120 81,561 82,250 83,9328
84,611 85,30 86,30 87,150
88,881 89,100 90,350 91,20
97,20 98,230 100,40 109,80
110,951 111,3483 112,390 113,130
116,150 125,30 126,621 127,60
128,40 132,30 140,60 144,130
153,20 154,3023 155,350 158,2202
159,1211 160,5275 161,390 181,1261
182,731 201,370 214,2923 215,280
227,20 228,260 269,3203 270,490
##END=
