##TITLE=Sarcosine, N-(2-furoyl)-, octyl ester
##JCAMP-DX=4.24
##DATA TYPE=MASS SPECTRUM
##ORIGIN=Zaikin V.G., TIPS RAS, Moscow, Russia
##OWNER=NIST Mass Spectrometry Data Center
Collection (C) 2014 copyright by the U.S. Secretary of Commerce
on behalf of the United States of America. All rights reserved.
##$NIST MASS SPEC NO=321438
##MOLFORM=C16 H25 N O4
##MW=295
##$NIST SOURCE=MSDC
##XUNITS=M/Z
##YUNITS=RELATIVE INTENSITY
##XFACTOR=1
##YFACTOR=1
##FIRSTX=27
##LASTX=296
##FIRSTY=120
##MAXX=296
##MINX=27
##MAXY=9999
##MINY=20
##NPOINTS=42
##PEAK TABLE=(XY..XY)
27,120 28,90 29,230 38,40
39,460 40,40 41,460 42,420
43,410 44,280 51,20 53,40
55,200 56,40 57,160 66,30
67,110 68,40 69,60 71,70
81,70 82,20 88,190 95,9859
96,591 97,20 110,60 124,110
137,30 138,9999 139,1111 140,90
165,140 166,160 184,300 185,20
200,510 201,50 207,20 267,20
295,771 296,130
##END=
