##TITLE=Sarcosine, N-(4-methylbenzoyl)-, hexyl ester
##JCAMP-DX=4.24
##DATA TYPE=MASS SPECTRUM
##ORIGIN=Zaikin V.G., TIPS RAS, Moscow, Russia
##OWNER=NIST Mass Spectrometry Data Center
Collection (C) 2014 copyright by the U.S. Secretary of Commerce
on behalf of the United States of America. All rights reserved.
##$NIST MASS SPEC NO=321218
##MOLFORM=C17 H25 N O3
##MW=291
##$NIST SOURCE=MSDC
##XUNITS=M/Z
##YUNITS=RELATIVE INTENSITY
##XFACTOR=1
##YFACTOR=1
##FIRSTX=27
##LASTX=292
##FIRSTY=40
##MAXX=292
##MINX=27
##MAXY=9999
##MINY=20
##NPOINTS=43
##PEAK TABLE=(XY..XY)
27,40 28,20 29,50 39,60
41,130 42,120 43,180 44,70
51,20 55,50 56,20 57,20
58,90 63,40 65,290 73,20
83,20 88,70 89,100 90,110
91,1241 92,100 105,20 118,70
119,9999 120,851 121,50 123,40
133,20 134,20 148,20 160,40
162,1952 163,230 172,370 173,30
189,70 190,90 206,20 208,20
290,290 291,460 292,90
##END=
