##TITLE=Sarcosine, N-isobutyryl-, ethyl ester
##JCAMP-DX=4.24
##DATA TYPE=MASS SPECTRUM
##ORIGIN=Zaikin V.G., TIPS RAS, Moscow, Russia
##OWNER=NIST Mass Spectrometry Data Center
Collection (C) 2014 copyright by the U.S. Secretary of Commerce
on behalf of the United States of America. All rights reserved.
##$NIST MASS SPEC NO=321270
##MOLFORM=C9 H17 N O3
##MW=187
##$NIST SOURCE=MSDC
##XUNITS=M/Z
##YUNITS=RELATIVE INTENSITY
##XFACTOR=1
##YFACTOR=1
##FIRSTX=27
##LASTX=188
##FIRSTY=320
##MAXX=188
##MINX=27
##MAXY=9999
##MINY=20
##NPOINTS=28
##PEAK TABLE=(XY..XY)
27,320 28,90 29,240 39,110
41,601 42,861 43,3803 44,9999
45,240 55,140 56,30 69,90
70,190 71,2742 72,140 88,520
98,20 114,2752 115,140 116,1551
117,160 118,661 141,140 142,791
144,30 159,80 187,2642 188,180
##END=
