##TITLE=Sarcosine, N-(3-methoxybenzoyl)-, undecyl ester
##JCAMP-DX=4.24
##DATA TYPE=MASS SPECTRUM
##ORIGIN=Zaikin V.G., TIPS RAS, Moscow, Russia
##OWNER=NIST Mass Spectrometry Data Center
Collection (C) 2014 copyright by the U.S. Secretary of Commerce
on behalf of the United States of America. All rights reserved.
##$NIST MASS SPEC NO=321499
##MOLFORM=C22 H35 N O4
##MW=377
##$NIST SOURCE=MSDC
##XUNITS=M/Z
##YUNITS=RELATIVE INTENSITY
##XFACTOR=1
##YFACTOR=1
##FIRSTX=27
##LASTX=379
##FIRSTY=40
##MAXX=379
##MINX=27
##MAXY=9999
##MINY=20
##NPOINTS=62
##PEAK TABLE=(XY..XY)
27,40 28,40 29,100 39,40
41,230 42,140 43,330 44,180
55,170 56,50 57,150 63,50
64,100 65,30 67,20 69,60
70,20 71,40 76,50 77,500
78,50 79,30 83,20 85,20
88,160 92,380 93,30 104,30
105,30 107,811 108,90 120,40
121,1361 122,120 133,20 135,9999
136,901 137,70 164,40 176,60
177,30 178,1231 179,380 180,30
192,70 205,120 206,120 207,20
222,40 223,40 224,220 225,20
242,741 243,110 278,20 292,20
306,20 348,20 376,550 377,1481
378,390 379,50
##END=
