##TITLE=.beta.-Alanine, N-caproyl-, butyl ester
##JCAMP-DX=4.24
##DATA TYPE=MASS SPECTRUM
##ORIGIN=Zaikin V.G., TIPS RAS, Moscow, Russia
##OWNER=NIST Mass Spectrometry Data Center
Collection (C) 2014 copyright by the U.S. Secretary of Commerce
on behalf of the United States of America. All rights reserved.
##$NIST MASS SPEC NO=321781
##MOLFORM=C13 H25 N O3
##MW=243
##$NIST SOURCE=MSDC
##XUNITS=M/Z
##YUNITS=RELATIVE INTENSITY
##XFACTOR=1
##YFACTOR=1
##FIRSTX=26
##LASTX=244
##FIRSTY=100
##MAXX=244
##MINX=26
##MAXY=9999
##MINY=20
##NPOINTS=109
##PEAK TABLE=(XY..XY)
26,100 27,1171 28,1071 29,2672
30,4024 31,100 38,20 39,721
40,110 41,3543 42,931 43,6666
44,2542 45,320 46,60 50,30
51,60 52,30 53,190 54,200
55,2512 56,931 57,2222 58,100
59,420 60,270 61,50 67,80
68,150 69,721 70,1962 71,2853
72,3143 73,731 74,280 75,20
77,40 78,30 79,20 80,30
81,80 82,30 83,150 84,831
85,2262 86,450 87,2923 88,4154
89,520 90,1782 91,110 96,80
97,190 98,3253 99,5385 100,530
101,70 102,140 103,150 104,761
105,70 110,50 112,200 113,5405
114,5735 115,480 116,1822 117,200
118,30 124,60 126,3713 127,731
128,1421 129,170 130,160 131,821
132,8227 133,470 134,20 139,60
140,2412 141,851 142,290 143,220
144,9078 145,1421 146,1321 147,80
154,180 157,40 158,180 159,460
160,20 168,130 169,90 170,6226
171,641 172,951 173,60 186,20
187,9999 188,1201 189,370 200,1892
201,370 214,881 215,80 243,490
244,140
##END=
