##TITLE=Sarcosine, N-(3-methoxybenzoyl)-, pentyl ester
##JCAMP-DX=4.24
##DATA TYPE=MASS SPECTRUM
##ORIGIN=Zaikin V.G., TIPS RAS, Moscow, Russia
##OWNER=NIST Mass Spectrometry Data Center
Collection (C) 2014 copyright by the U.S. Secretary of Commerce
on behalf of the United States of America. All rights reserved.
##$NIST MASS SPEC NO=321493
##MOLFORM=C16 H23 N O4
##MW=293
##$NIST SOURCE=MSDC
##XUNITS=M/Z
##YUNITS=RELATIVE INTENSITY
##XFACTOR=1
##YFACTOR=1
##FIRSTX=27
##LASTX=295
##FIRSTY=50
##MAXX=295
##MINX=27
##MAXY=9999
##MINY=20
##NPOINTS=49
##PEAK TABLE=(XY..XY)
27,50 28,30 29,90 39,50
41,110 42,130 43,180 44,60
50,30 51,30 55,30 63,100
64,200 65,40 75,20 76,110
77,771 78,80 79,40 88,80
92,641 93,50 104,30 105,30
106,20 107,1011 108,100 120,30
121,991 122,80 133,20 135,9999
136,851 137,70 158,520 159,40
164,30 176,40 177,20 178,701
179,110 192,20 205,40 206,100
222,20 292,390 293,1591 294,330
295,40
##END=
