##TITLE=Sarcosine, N-cyclopropylcarbonyl-, propyl ester
##JCAMP-DX=4.24
##DATA TYPE=MASS SPECTRUM
##ORIGIN=Zaikin V.G., TIPS RAS, Moscow, Russia
##OWNER=NIST Mass Spectrometry Data Center
Collection (C) 2014 copyright by the U.S. Secretary of Commerce
on behalf of the United States of America. All rights reserved.
##$NIST MASS SPEC NO=321187
##MOLFORM=C10 H17 N O3
##MW=199
##$NIST SOURCE=MSDC
##XUNITS=M/Z
##YUNITS=RELATIVE INTENSITY
##XFACTOR=1
##YFACTOR=1
##FIRSTX=26
##LASTX=200
##FIRSTY=30
##MAXX=200
##MINX=26
##MAXY=9999
##MINY=20
##NPOINTS=42
##PEAK TABLE=(XY..XY)
26,30 27,390 28,90 29,220
30,20 31,40 38,40 39,971
40,220 41,2742 42,961 43,821
44,2642 45,90 54,20 55,270
56,150 57,80 58,30 60,40
67,20 68,260 69,9999 70,500
71,40 82,50 83,120 84,170
86,20 87,490 88,270 97,70
98,100 112,5215 113,350 114,20
116,20 130,691 131,30 140,250
199,500 200,30
##END=
