##TITLE=Sarcosine, N-(3-methylbenzoyl)-, butyl ester
##JCAMP-DX=4.24
##DATA TYPE=MASS SPECTRUM
##ORIGIN=Zaikin V.G., TIPS RAS, Moscow, Russia
##OWNER=NIST Mass Spectrometry Data Center
Collection (C) 2014 copyright by the U.S. Secretary of Commerce
on behalf of the United States of America. All rights reserved.
##$NIST MASS SPEC NO=321155
##MOLFORM=C15 H21 N O3
##MW=263
##$NIST SOURCE=MSDC
##XUNITS=M/Z
##YUNITS=RELATIVE INTENSITY
##XFACTOR=1
##YFACTOR=1
##FIRSTX=27
##LASTX=265
##FIRSTY=30
##MAXX=265
##MINX=27
##MAXY=9999
##MINY=20
##NPOINTS=41
##PEAK TABLE=(XY..XY)
27,30 28,30 29,80 39,70
41,90 42,100 43,60 44,50
51,30 55,20 57,30 63,60
64,20 65,360 66,20 88,50
89,130 90,130 91,1491 92,120
105,60 118,60 119,9999 120,691
121,40 144,280 145,20 146,20
148,20 160,50 161,20 162,1301
163,150 189,40 190,140 191,20
206,20 262,781 263,1591 264,320
265,30
##END=
