##TITLE=Sarcosine, N-(4-methylbenzoyl)-, ethyl ester
##JCAMP-DX=4.24
##DATA TYPE=MASS SPECTRUM
##ORIGIN=Zaikin V.G., TIPS RAS, Moscow, Russia
##OWNER=NIST Mass Spectrometry Data Center
Collection (C) 2014 copyright by the U.S. Secretary of Commerce
on behalf of the United States of America. All rights reserved.
##$NIST MASS SPEC NO=321212
##MOLFORM=C13 H17 N O3
##MW=235
##$NIST SOURCE=MSDC
##XUNITS=M/Z
##YUNITS=RELATIVE INTENSITY
##XFACTOR=1
##YFACTOR=1
##FIRSTX=27
##LASTX=237
##FIRSTY=20
##MAXX=237
##MINX=27
##MAXY=9999
##MINY=20
##NPOINTS=40
##PEAK TABLE=(XY..XY)
27,20 29,50 39,70 41,60
42,110 43,80 44,40 51,40
55,20 57,40 63,80 64,20
65,430 66,20 71,20 77,20
89,180 90,160 91,1421 92,120
105,30 116,210 117,20 118,80
119,9999 120,711 121,50 123,50
133,20 134,20 160,40 162,1131
163,130 189,30 190,220 191,20
234,1011 235,1531 236,270 237,30
##END=
