##TITLE=.beta.-Alanine, N-isobutyryl-, nonyl ester
##JCAMP-DX=4.24
##DATA TYPE=MASS SPECTRUM
##ORIGIN=Zaikin V.G., TIPS RAS, Moscow, Russia
##OWNER=NIST Mass Spectrometry Data Center
Collection (C) 2014 copyright by the U.S. Secretary of Commerce
on behalf of the United States of America. All rights reserved.
##$NIST MASS SPEC NO=321667
##MOLFORM=C16 H31 N O3
##MW=285
##$NIST SOURCE=MSDC
##XUNITS=M/Z
##YUNITS=RELATIVE INTENSITY
##XFACTOR=1
##YFACTOR=1
##FIRSTX=26
##LASTX=287
##FIRSTY=20
##MAXX=287
##MINX=26
##MAXY=9999
##MINY=10
##NPOINTS=80
##PEAK TABLE=(XY..XY)
26,20 27,320 28,711 29,591
30,460 39,270 40,70 41,2012
42,621 43,6116 44,621 45,40
46,40 53,90 54,130 55,771
57,2322 58,140 60,20 67,110
68,80 69,460 70,1131 71,4554
72,1271 73,30 74,90 81,20
82,20 83,100 84,70 85,1832
86,80 87,180 88,4164 89,320
90,1111 91,20 97,20 98,1672
99,240 100,1121 101,60 112,80
113,1802 114,571 115,801 116,4664
117,210 126,330 128,10 130,50
131,40 132,60 140,50 141,1061
142,3984 143,320 144,90 158,70
159,80 160,3113 161,210 172,30
186,30 187,160 188,30 201,50
214,9999 215,1261 216,340 217,10
228,170 229,40 242,290 243,60
256,50 285,1772 286,390 287,20
##END=
