##TITLE=Sarcosine, N-(4-chlorobenzoyl)-, isohexyl ester
##JCAMP-DX=4.24
##DATA TYPE=MASS SPECTRUM
##ORIGIN=Zaikin V.G., TIPS RAS, Moscow, Russia
##OWNER=NIST Mass Spectrometry Data Center
Collection (C) 2014 copyright by the U.S. Secretary of Commerce
on behalf of the United States of America. All rights reserved.
##$NIST MASS SPEC NO=321351
##MOLFORM=C16 H22 Cl N O3
##MW=311
##$NIST SOURCE=MSDC
##XUNITS=M/Z
##YUNITS=RELATIVE INTENSITY
##XFACTOR=1
##YFACTOR=1
##FIRSTX=27
##LASTX=314
##FIRSTY=60
##MAXX=314
##MINX=27
##MAXY=9999
##MINY=20
##NPOINTS=55
##PEAK TABLE=(XY..XY)
27,60 29,100 39,40 41,180
42,240 43,611 44,100 50,60
51,30 55,110 56,30 57,30
69,20 74,20 75,370 76,150
77,30 84,20 85,80 88,200
104,150 105,20 110,20 111,1321
112,100 113,450 114,20 119,30
139,9999 140,791 141,3333 142,250
168,30 172,561 173,40 180,20
182,3263 183,360 184,1091 185,100
209,70 210,110 211,30 212,30
223,20 226,240 227,150 228,340
229,60 230,60 310,691 311,1141
312,470 313,400 314,70
##END=
