##TITLE=Sarcosine, N-valeryl-, ethyl ester
##JCAMP-DX=4.24
##DATA TYPE=MASS SPECTRUM
##ORIGIN=Zaikin V.G., TIPS RAS, Moscow, Russia
##OWNER=NIST Mass Spectrometry Data Center
Collection (C) 2014 copyright by the U.S. Secretary of Commerce
on behalf of the United States of America. All rights reserved.
##$NIST MASS SPEC NO=321559
##MOLFORM=C10 H19 N O3
##MW=201
##$NIST SOURCE=MSDC
##XUNITS=M/Z
##YUNITS=RELATIVE INTENSITY
##XFACTOR=1
##YFACTOR=1
##FIRSTX=27
##LASTX=202
##FIRSTY=290
##MAXX=202
##MINX=27
##MAXY=9999
##MINY=20
##NPOINTS=40
##PEAK TABLE=(XY..XY)
27,290 29,801 30,40 31,20
39,130 41,591 42,631 43,190
44,9999 45,240 53,30 55,160
57,1742 58,220 60,20 71,30
72,40 85,1371 86,360 87,50
88,320 98,100 100,20 113,470
114,40 116,781 117,871 118,420
126,60 128,1111 129,70 155,100
156,540 157,30 159,3003 160,220
172,220 173,20 201,330 202,40
##END=
