##TITLE=.beta.-Alanine, N-(3-methylbenzoyl)-, nonyl ester
##JCAMP-DX=4.24
##DATA TYPE=MASS SPECTRUM
##ORIGIN=Zaikin V.G., TIPS RAS, Moscow, Russia
##OWNER=NIST Mass Spectrometry Data Center
Collection (C) 2014 copyright by the U.S. Secretary of Commerce
on behalf of the United States of America. All rights reserved.
##$NIST MASS SPEC NO=321632
##MOLFORM=C20 H31 N O3
##MW=333
##$NIST SOURCE=MSDC
##XUNITS=M/Z
##YUNITS=RELATIVE INTENSITY
##XFACTOR=1
##YFACTOR=1
##FIRSTX=27
##LASTX=334
##FIRSTY=60
##MAXX=334
##MINX=27
##MAXY=9999
##MINY=10
##NPOINTS=65
##PEAK TABLE=(XY..XY)
27,60 28,20 29,60 30,20
39,70 41,330 42,80 43,430
44,110 55,330 56,130 57,370
63,50 65,350 68,20 69,130
70,270 71,230 72,10 83,150
84,50 85,40 87,70 88,1451
89,190 90,170 91,1862 92,130
97,70 98,40 112,130 113,40
117,40 118,180 119,9999 120,891
125,20 135,190 136,90 140,20
144,50 147,190 148,190 152,20
160,40 161,500 162,380 163,621
164,20 171,851 172,40 189,70
190,981 191,60 206,290 207,220
208,1581 209,130 214,4564 215,591
262,30 276,90 290,30 333,961
334,120
##END=
