##TITLE=Sarcosine, N-valeryl-, isohexyl ester
##JCAMP-DX=4.24
##DATA TYPE=MASS SPECTRUM
##ORIGIN=Zaikin V.G., TIPS RAS, Moscow, Russia
##OWNER=NIST Mass Spectrometry Data Center
Collection (C) 2014 copyright by the U.S. Secretary of Commerce
on behalf of the United States of America. All rights reserved.
##$NIST MASS SPEC NO=321563
##MOLFORM=C14 H27 N O3
##MW=257
##$NIST SOURCE=MSDC
##XUNITS=M/Z
##YUNITS=RELATIVE INTENSITY
##XFACTOR=1
##YFACTOR=1
##FIRSTX=27
##LASTX=257
##FIRSTY=220
##MAXX=257
##MINX=27
##MAXY=9999
##MINY=20
##NPOINTS=63
##PEAK TABLE=(XY..XY)
27,220 29,671 31,20 39,150
41,941 42,420 43,1301 44,9999
45,240 53,40 54,50 55,751
56,340 57,1501 58,120 67,40
68,80 69,270 70,190 71,70
73,30 82,70 83,340 84,270
85,1141 86,220 87,440 88,420
89,90 90,450 97,150 98,120
100,50 101,340 103,20 111,90
112,40 113,210 114,30 125,30
126,90 127,180 128,1101 129,180
131,310 132,941 133,30 144,90
145,50 154,40 155,110 156,220
159,90 172,230 173,130 174,110
177,30 186,170 187,30 215,1211
216,90 228,80 257,140
##END=
