##TITLE=Sarcosine, N-(3-methylbut-2-enoyl)-, propyl ester
##JCAMP-DX=4.24
##DATA TYPE=MASS SPECTRUM
##ORIGIN=Zaikin V.G., TIPS RAS, Moscow, Russia
##OWNER=NIST Mass Spectrometry Data Center
Collection (C) 2014 copyright by the U.S. Secretary of Commerce
on behalf of the United States of America. All rights reserved.
##$NIST MASS SPEC NO=321519
##MOLFORM=C11 H19 N O3
##MW=213
##$NIST SOURCE=MSDC
##XUNITS=M/Z
##YUNITS=RELATIVE INTENSITY
##XFACTOR=1
##YFACTOR=1
##FIRSTX=27
##LASTX=214
##FIRSTY=270
##MAXX=214
##MINX=27
##MAXY=9999
##MINY=20
##NPOINTS=36
##PEAK TABLE=(XY..XY)
27,270 29,420 39,340 40,40
41,190 42,350 43,220 44,1211
45,30 51,20 53,210 54,110
55,1201 56,50 67,50 82,921
83,9999 84,550 88,180 96,20
110,50 112,30 124,20 125,50
126,1561 127,130 130,330 131,30
132,721 133,50 153,170 154,370
170,30 198,170 213,2042 214,260
##END=
