##TITLE=Sarcosine, N-(4-methylbenzoyl)-, isohexyl ester
##JCAMP-DX=4.24
##DATA TYPE=MASS SPECTRUM
##ORIGIN=Zaikin V.G., TIPS RAS, Moscow, Russia
##OWNER=NIST Mass Spectrometry Data Center
Collection (C) 2014 copyright by the U.S. Secretary of Commerce
on behalf of the United States of America. All rights reserved.
##$NIST MASS SPEC NO=321217
##MOLFORM=C17 H25 N O3
##MW=291
##$NIST SOURCE=MSDC
##XUNITS=M/Z
##YUNITS=RELATIVE INTENSITY
##XFACTOR=1
##YFACTOR=1
##FIRSTX=27
##LASTX=293
##FIRSTY=30
##MAXX=293
##MINX=27
##MAXY=9999
##MINY=20
##NPOINTS=46
##PEAK TABLE=(XY..XY)
27,30 29,40 39,50 41,100
42,80 43,210 44,50 51,20
55,60 56,20 57,30 63,40
65,260 69,20 77,20 85,20
88,100 89,100 90,110 91,1111
92,100 105,40 118,70 119,9999
120,791 121,50 133,110 134,30
136,30 137,30 148,50 160,40
162,1872 163,230 172,280 173,30
189,70 190,120 203,30 206,170
207,50 208,140 290,811 291,1461
292,320 293,40
##END=
