##TITLE=Sarcosine, N-(2-thiophenylacetyl)-, isobutyl ester
##JCAMP-DX=4.24
##DATA TYPE=MASS SPECTRUM
##ORIGIN=Zaikin V.G., TIPS RAS, Moscow, Russia
##OWNER=NIST Mass Spectrometry Data Center
Collection (C) 2014 copyright by the U.S. Secretary of Commerce
on behalf of the United States of America. All rights reserved.
##$NIST MASS SPEC NO=321362
##MOLFORM=C13 H19 N O3 S
##MW=269
##$NIST SOURCE=MSDC
##XUNITS=M/Z
##YUNITS=RELATIVE INTENSITY
##XFACTOR=1
##YFACTOR=1
##FIRSTX=27
##LASTX=271
##FIRSTY=230
##MAXX=271
##MINX=27
##MAXY=9999
##MINY=20
##NPOINTS=43
##PEAK TABLE=(XY..XY)
27,230 29,1151 31,20 39,330
41,1571 42,601 43,530 44,2903
45,691 50,30 51,50 53,530
56,60 57,5235 63,130 70,190
71,70 77,30 85,70 88,9999
89,220 90,190 96,340 97,5835
98,981 99,330 113,20 116,3753
117,40 124,6606 125,641 126,350
144,30 146,3003 147,80 167,30
168,791 169,50 196,641 198,30
269,8027 270,1051 271,210
##END=
