##TITLE=.beta.-Alanine, N-(4-methylbenzoyl)-, nonyl ester
##JCAMP-DX=4.24
##DATA TYPE=MASS SPECTRUM
##ORIGIN=Zaikin V.G., TIPS RAS, Moscow, Russia
##OWNER=NIST Mass Spectrometry Data Center
Collection (C) 2014 copyright by the U.S. Secretary of Commerce
on behalf of the United States of America. All rights reserved.
##$NIST MASS SPEC NO=321607
##MOLFORM=C20 H31 N O3
##MW=333
##$NIST SOURCE=MSDC
##XUNITS=M/Z
##YUNITS=RELATIVE INTENSITY
##XFACTOR=1
##YFACTOR=1
##FIRSTX=27
##LASTX=334
##FIRSTY=60
##MAXX=334
##MINX=27
##MAXY=9999
##MINY=10
##NPOINTS=75
##PEAK TABLE=(XY..XY)
27,60 29,120 30,50 39,70
41,280 42,60 43,350 44,40
51,20 55,180 56,70 57,120
63,40 65,330 67,20 69,70
70,170 71,100 72,30 83,20
85,60 87,60 88,1371 89,170
90,160 91,1591 92,140 93,20
105,20 117,30 118,210 119,9999
120,881 121,60 130,30 135,80
136,50 137,20 144,60 146,60
147,240 148,270 149,20 160,90
161,520 162,450 163,591 164,70
188,10 189,60 190,991 191,130
192,20 206,360 207,240 208,1401
209,180 214,4384 215,591 216,50
221,20 235,60 245,30 249,30
262,90 263,20 276,140 277,30
290,90 291,20 304,40 318,20
332,70 333,921 334,200
##END=
