##TITLE=Sarcosine, N-(4-methylbenzoyl)-, heptyl ester
##JCAMP-DX=4.24
##DATA TYPE=MASS SPECTRUM
##ORIGIN=Zaikin V.G., TIPS RAS, Moscow, Russia
##OWNER=NIST Mass Spectrometry Data Center
Collection (C) 2014 copyright by the U.S. Secretary of Commerce
on behalf of the United States of America. All rights reserved.
##$NIST MASS SPEC NO=321219
##MOLFORM=C18 H27 N O3
##MW=305
##$NIST SOURCE=MSDC
##XUNITS=M/Z
##YUNITS=RELATIVE INTENSITY
##XFACTOR=1
##YFACTOR=1
##FIRSTX=27
##LASTX=307
##FIRSTY=20
##MAXX=307
##MINX=27
##MAXY=9999
##MINY=20
##NPOINTS=37
##PEAK TABLE=(XY..XY)
27,20 29,50 39,40 41,120
42,90 43,120 44,70 55,60
56,30 57,70 63,30 65,220
88,60 89,80 90,90 91,1001
92,90 105,30 118,70 119,9999
120,761 121,50 148,20 160,40
162,1832 163,250 164,20 186,370
187,40 189,70 190,80 206,30
208,60 304,821 305,1361 306,300
307,40
##END=
