##TITLE=Sarcosine, N-(3-cyclopentylpropionyl)-, isobutyl ester
##JCAMP-DX=4.24
##DATA TYPE=MASS SPECTRUM
##ORIGIN=Zaikin V.G., TIPS RAS, Moscow, Russia
##OWNER=NIST Mass Spectrometry Data Center
Collection (C) 2014 copyright by the U.S. Secretary of Commerce
on behalf of the United States of America. All rights reserved.
##$NIST MASS SPEC NO=321831
##MOLFORM=C15 H27 N O3
##MW=269
##$NIST SOURCE=MSDC
##XUNITS=M/Z
##YUNITS=RELATIVE INTENSITY
##XFACTOR=1
##YFACTOR=1
##FIRSTX=27
##LASTX=270
##FIRSTY=130
##MAXX=270
##MINX=27
##MAXY=9999
##MINY=20
##NPOINTS=73
##PEAK TABLE=(XY..XY)
27,130 29,360 30,20 39,210
40,40 41,1041 42,460 43,360
44,9999 45,360 53,140 54,110
55,1641 56,80 57,420 58,300
65,20 66,20 67,380 68,80
69,380 71,70 72,70 77,30
79,480 80,100 81,550 82,30
86,661 87,981 88,691 89,230
90,530 91,70 95,180 96,90
97,340 98,190 99,70 100,110
107,791 108,60 113,1191 114,100
116,30 124,60 125,581 126,410
127,100 130,80 131,370 132,1672
133,80 144,1091 145,1541 146,631
147,30 154,20 168,701 169,60
172,20 187,5265 188,540 189,30
195,80 196,991 197,100 200,1031
201,130 226,30 254,40 269,110
270,30
##END=
