##TITLE=S-Methylpropanethiosulfonate
##JCAMP-DX=4.24
##DATA TYPE=MASS SPECTRUM
##ORIGIN=S. Volkovich, Institute of Nutrition, Russia
##OWNER=NIST Mass Spectrometry Data Center
Collection (C) 2014 copyright by the U.S. Secretary of Commerce
on behalf of the United States of America. All rights reserved.
##$NIST MASS SPEC NO=322289
##MOLFORM=C4 H10 O2 S2
##MW=154
##$NIST SOURCE=MSDC
##XUNITS=M/Z
##YUNITS=RELATIVE INTENSITY
##XFACTOR=1
##YFACTOR=1
##FIRSTX=15
##LASTX=156
##FIRSTY=310
##MAXX=156
##MINX=15
##MAXY=9999
##MINY=50
##NPOINTS=37
##PEAK TABLE=(XY..XY)
15,310 16,110 29,230 30,70
39,2722 40,310 41,7116 42,1782
43,9999 44,110 45,4034 46,310
47,2332 48,6606 49,1722 50,110
51,90 61,811 62,60 63,80
75,861 76,70 77,90 90,781
91,60 92,80 107,190 121,320
125,410 126,60 127,70 139,210
140,50 141,60 154,320 155,60
156,70
##END=
