##TITLE=l-Leucine, N-benzyloxycarbonyl-N-methyl-, ethyl ester
##JCAMP-DX=4.24
##DATA TYPE=MASS SPECTRUM
##ORIGIN=Zaikin V.G., TIPS RAS, Moscow, Russia
##OWNER=NIST Mass Spectrometry Data Center
Collection (C) 2014 copyright by the U.S. Secretary of Commerce
on behalf of the United States of America. All rights reserved.
##$NIST MASS SPEC NO=322034
##MOLFORM=C17 H25 N O4
##MW=307
##$NIST SOURCE=MSDC
##XUNITS=M/Z
##YUNITS=RELATIVE INTENSITY
##XFACTOR=1
##YFACTOR=1
##FIRSTX=27
##LASTX=307
##FIRSTY=20
##MAXX=307
##MINX=27
##MAXY=9999
##MINY=20
##NPOINTS=33
##PEAK TABLE=(XY..XY)
27,20 29,80 39,50 41,40
42,200 44,40 51,20 57,140
58,30 63,30 65,310 73,20
77,20 84,20 88,40 89,100
90,70 91,9999 92,681 98,120
100,40 116,60 117,30 146,20
172,50 190,4494 191,591 192,30
206,30 234,2342 235,340 236,20
307,20
##END=
