##TITLE=2,4-Dimethyl-5,6-dithia-2,7-nonadienal, 5-oxide
##JCAMP-DX=4.24
##DATA TYPE=MASS SPECTRUM
##ORIGIN=S.Volkovich,Institute of Nutrition,Russia
##OWNER=NIST Mass Spectrometry Data Center
Collection (C) 2014 copyright by the U.S. Secretary of Commerce
on behalf of the United States of America. All rights reserved.
##$NIST MASS SPEC NO=322313
##MOLFORM=C9 H14 O2 S2
##MW=218
##$NIST SOURCE=MSDC
##XUNITS=M/Z
##YUNITS=RELATIVE INTENSITY
##XFACTOR=1
##YFACTOR=1
##FIRSTX=15
##LASTX=220
##FIRSTY=410
##MAXX=220
##MINX=15
##MAXY=9999
##MINY=90
##NPOINTS=30
##PEAK TABLE=(XY..XY)
15,410 16,110 39,1511 40,210
41,4214 42,310 45,2712 46,310
47,510 48,110 59,611 60,210
69,9999 70,611 71,811 73,510
74,110 75,110 145,711 146,110
147,210 149,761 150,110 185,110
203,330 204,90 217,310 218,611
219,110 220,110
##END=
