##TITLE=S-1-Propenylmethanethiosulfonate
##JCAMP-DX=4.24
##DATA TYPE=MASS SPECTRUM
##ORIGIN=S. Volkovich, Institute of Nutrition, Russia
##OWNER=NIST Mass Spectrometry Data Center
Collection (C) 2014 copyright by the U.S. Secretary of Commerce
on behalf of the United States of America. All rights reserved.
##$NIST MASS SPEC NO=322288
##MOLFORM=C4 H8 O2 S2
##MW=152
##$NIST SOURCE=MSDC
##XUNITS=M/Z
##YUNITS=RELATIVE INTENSITY
##XFACTOR=1
##YFACTOR=1
##FIRSTX=15
##LASTX=154
##FIRSTY=210
##MAXX=154
##MINX=15
##MAXY=9999
##MINY=90
##NPOINTS=30
##PEAK TABLE=(XY..XY)
15,210 16,110 29,310 30,110
39,2312 40,310 41,1912 42,310
43,1111 44,310 45,9999 46,1111
47,510 48,210 63,120 71,911
72,4014 73,3113 74,310 79,110
81,90 89,310 90,110 119,410
120,110 137,410 138,110 152,510
153,110 154,110
##END=
