##TITLE=S-Methyl-1-propenethiosulfonate
##JCAMP-DX=4.24
##DATA TYPE=MASS SPECTRUM
##ORIGIN=S. Volkovich, Institute of Nutrition, Russia
##OWNER=NIST Mass Spectrometry Data Center
Collection (C) 2014 copyright by the U.S. Secretary of Commerce
on behalf of the United States of America. All rights reserved.
##$NIST MASS SPEC NO=322290
##MOLFORM=C4 H8 O2 S2
##MW=152
##$NIST SOURCE=MSDC
##XUNITS=M/Z
##YUNITS=RELATIVE INTENSITY
##XFACTOR=1
##YFACTOR=1
##FIRSTX=15
##LASTX=154
##FIRSTY=410
##MAXX=154
##MINX=15
##MAXY=9999
##MINY=110
##NPOINTS=22
##PEAK TABLE=(XY..XY)
15,410 16,110 39,7106 40,310
41,9999 42,310 45,2913 46,811
47,1912 48,2112 73,1611 74,410
88,1511 89,210 105,1912 106,310
119,540 137,310 138,110 152,811
153,110 154,110
##END=
