##TITLE=3-Ethyl-5-vinyl-1,2,4-trithiolane
##JCAMP-DX=4.24
##DATA TYPE=MASS SPECTRUM
##ORIGIN=S. Volkovich, Institute of Nutrition, Russia
##OWNER=NIST Mass Spectrometry Data Center
Collection (C) 2014 copyright by the U.S. Secretary of Commerce
on behalf of the United States of America. All rights reserved.
##$NIST MASS SPEC NO=322293
##MOLFORM=C6 H10 S3
##MW=178
##$NIST SOURCE=MSDC
##XUNITS=M/Z
##YUNITS=RELATIVE INTENSITY
##XFACTOR=1
##YFACTOR=1
##FIRSTX=15
##LASTX=180
##FIRSTY=310
##MAXX=180
##MINX=15
##MAXY=9999
##MINY=90
##NPOINTS=31
##PEAK TABLE=(XY..XY)
15,310 16,90 29,410 30,110
39,4414 40,210 41,8608 42,310
45,9909 46,310 47,410 59,9999
60,310 61,310 71,5005 72,7807
73,310 104,5305 105,210 106,210
114,320 115,90 145,691 146,110
149,310 150,110 163,210 164,110
178,5905 179,210 180,210
##END=
