##TITLE=Isonipecotic acid, N-isobutoxycarbonyl-, butyl ester
##JCAMP-DX=4.24
##DATA TYPE=MASS SPECTRUM
##ORIGIN=Zaikin V.G., TIPS RAS, Moscow, Russia
##OWNER=NIST Mass Spectrometry Data Center
Collection (C) 2014 copyright by the U.S. Secretary of Commerce
on behalf of the United States of America. All rights reserved.
##$NIST MASS SPEC NO=322062
##MOLFORM=C15 H27 N O4
##MW=285
##$NIST SOURCE=MSDC
##XUNITS=M/Z
##YUNITS=RELATIVE INTENSITY
##XFACTOR=1
##YFACTOR=1
##FIRSTX=27
##LASTX=286
##FIRSTY=90
##MAXX=286
##MINX=27
##MAXY=9999
##MINY=20
##NPOINTS=64
##PEAK TABLE=(XY..XY)
27,90 29,671 30,50 39,90
41,851 42,290 43,40 44,70
45,20 53,30 54,50 55,350
56,360 57,2242 58,110 67,100
68,70 70,20 73,300 74,30
80,20 82,2742 83,260 84,480
85,50 86,150 87,50 88,70
100,110 101,230 102,20 110,160
111,30 112,200 113,40 114,40
126,751 127,280 128,1191 129,130
130,20 138,70 142,40 143,20
144,30 154,20 156,160 157,120
170,130 182,30 183,50 184,9999
185,1241 186,110 212,2102 213,260
214,30 228,1211 229,200 230,290
231,20 270,100 285,500 286,90
##END=
