##TITLE=1-Propyl-2-(4-thiohept-2-en-5-yl)disulfide
##JCAMP-DX=4.24
##DATA TYPE=MASS SPECTRUM
##ORIGIN=S. Volkovich, Institute of Nutrition, Russia
##OWNER=NIST Mass Spectrometry Data Center
Collection (C) 2014 copyright by the U.S. Secretary of Commerce
on behalf of the United States of America. All rights reserved.
##$NIST MASS SPEC NO=322296
##MOLFORM=C9 H18 S3
##MW=222
##$NIST SOURCE=MSDC
##XUNITS=M/Z
##YUNITS=RELATIVE INTENSITY
##XFACTOR=1
##YFACTOR=1
##FIRSTX=15
##LASTX=224
##FIRSTY=310
##MAXX=224
##MINX=15
##MAXY=9999
##MINY=80
##NPOINTS=44
##PEAK TABLE=(XY..XY)
15,310 16,110 29,310 30,110
39,3313 40,210 41,5505 42,410
43,2312 44,210 45,9999 46,210
47,1812 48,110 59,3813 60,410
61,2012 62,310 63,210 73,4514
74,210 75,210 81,3513 82,210
83,210 105,1311 106,210 107,210
115,8608 116,210 117,310 158,230
159,90 179,110 180,110 189,190
190,80 193,210 194,110 207,210
208,110 222,410 223,110 224,110
##END=
