##TITLE=5,7-Diethyl-1,2,3,4,6-pentathiepane
##JCAMP-DX=4.24
##DATA TYPE=MASS SPECTRUM
##ORIGIN=S.Volkovich,Institute of Nutrition,Russia
##OWNER=NIST Mass Spectrometry Data Center
Collection (C) 2014 copyright by the U.S. Secretary of Commerce
on behalf of the United States of America. All rights reserved.
##$NIST MASS SPEC NO=322315
##MOLFORM=C6 H12 S5
##MW=244
##$NIST SOURCE=MSDC
##XUNITS=M/Z
##YUNITS=RELATIVE INTENSITY
##XFACTOR=1
##YFACTOR=1
##FIRSTX=14
##LASTX=246
##FIRSTY=110
##MAXX=246
##MINX=14
##MAXY=9999
##MINY=90
##NPOINTS=47
##PEAK TABLE=(XY..XY)
14,110 15,711 16,110 29,911
30,110 39,3213 40,310 41,9999
42,310 45,7307 46,510 47,611
59,1611 60,210 61,210 64,2012
65,110 66,310 73,3013 74,5805
75,210 76,310 106,7106 107,310
108,410 147,691 148,220 149,90
150,90 170,2512 171,210 172,310
179,340 180,2112 181,110 182,210
211,611 212,90 215,410 216,110
217,110 229,310 230,110 231,110
244,911 245,110 246,110
##END=
