##TITLE=4,6-Diethyl-1,2,3,5-tetrathiolane
##JCAMP-DX=4.24
##DATA TYPE=MASS SPECTRUM
##ORIGIN=S.Volkovich,Institute of Nutrition,Russia
##OWNER=NIST Mass Spectrometry Data Center
Collection (C) 2014 copyright by the U.S. Secretary of Commerce
on behalf of the United States of America. All rights reserved.
##$NIST MASS SPEC NO=322311
##MOLFORM=C6 H12 S4
##MW=212
##$NIST SOURCE=MSDC
##XUNITS=M/Z
##YUNITS=RELATIVE INTENSITY
##XFACTOR=1
##YFACTOR=1
##FIRSTX=15
##LASTX=214
##FIRSTY=310
##MAXX=214
##MINX=15
##MAXY=9999
##MINY=110
##NPOINTS=40
##PEAK TABLE=(XY..XY)
15,310 16,110 29,410 30,110
39,1912 40,310 41,5905 42,410
45,4614 46,911 47,210 48,210
59,1011 60,210 61,210 69,1011
70,210 71,310 73,9999 74,4814
75,510 76,611 115,1211 116,210
117,210 138,1211 139,210 140,310
147,220 148,290 179,450 183,210
184,110 185,110 197,310 198,110
199,110 212,911 213,110 214,210
##END=
