##TITLE=Terephthalic acid, heptyl pentyl ester
##JCAMP-DX=4.24
##DATA TYPE=MASS SPECTRUM
##ORIGIN=V.G. Zaikin, R.S.Borisov, TIPS RAS, Moscow, Russia
##OWNER=NIST Mass Spectrometry Data Center
Collection (C) 2014 copyright by the U.S. Secretary of Commerce
on behalf of the United States of America. All rights reserved.
##$NIST MASS SPEC NO=323990
##MOLFORM=C20 H30 O4
##MW=334
##$NIST SOURCE=MSDC
##XUNITS=M/Z
##YUNITS=RELATIVE INTENSITY
##XFACTOR=1
##YFACTOR=1
##FIRSTX=29
##LASTX=334
##FIRSTY=110
##MAXX=334
##MINX=29
##MAXY=9999
##MINY=20
##NPOINTS=47
##PEAK TABLE=(XY..XY)
29,110 41,310 42,390 43,781
54,100 55,821 56,1361 57,1001
58,30 68,260 69,831 70,2672
71,380 76,210 98,1161 99,100
103,40 105,100 121,721 122,320
123,180 131,20 132,190 133,30
148,70 149,1641 150,200 151,20
152,80 162,80 167,9999 168,821
169,110 176,30 219,4004 220,571
221,40 237,8187 238,1151 239,110
247,3343 248,520 249,80 265,4024
266,611 277,40 334,70
##END=
