##TITLE=Succinic acid, butyl ethyl ester
##JCAMP-DX=4.24
##DATA TYPE=MASS SPECTRUM
##ORIGIN=V.G. Zaikin, R.S.Borisov, TIPS RAS, Moscow, Russia
##OWNER=NIST Mass Spectrometry Data Center
Collection (C) 2014 copyright by the U.S. Secretary of Commerce
on behalf of the United States of America. All rights reserved.
##$NIST MASS SPEC NO=324851
##MOLFORM=C10 H18 O4
##MW=202
##$NIST SOURCE=MSDC
##XUNITS=M/Z
##YUNITS=RELATIVE INTENSITY
##XFACTOR=1
##YFACTOR=1
##FIRSTX=27
##LASTX=157
##FIRSTY=450
##MAXX=157
##MINX=27
##MAXY=9999
##MINY=20
##NPOINTS=32
##PEAK TABLE=(XY..XY)
27,450 28,470 29,1171 31,60
36,80 39,80 41,731 42,170
43,150 44,40 45,160 55,811
56,1011 57,751 63,40 69,20
70,30 73,681 74,410 75,70
83,20 99,30 100,290 101,9999
102,761 103,70 128,220 129,5865
130,410 131,40 147,380 157,380
##END=
