##TITLE=Succinic acid, butyl isobutyl ester
##JCAMP-DX=4.24
##DATA TYPE=MASS SPECTRUM
##ORIGIN=V.G. Zaikin, R.S.Borisov, TIPS RAS, Moscow, Russia
##OWNER=NIST Mass Spectrometry Data Center
Collection (C) 2014 copyright by the U.S. Secretary of Commerce
on behalf of the United States of America. All rights reserved.
##$NIST MASS SPEC NO=324853
##MOLFORM=C12 H22 O4
##MW=230
##$NIST SOURCE=MSDC
##XUNITS=M/Z
##YUNITS=RELATIVE INTENSITY
##XFACTOR=1
##YFACTOR=1
##FIRSTX=27
##LASTX=175
##FIRSTY=270
##MAXX=175
##MINX=27
##MAXY=9999
##MINY=20
##NPOINTS=31
##PEAK TABLE=(XY..XY)
27,270 28,350 29,881 31,40
39,130 40,20 41,1061 42,80
43,180 44,30 45,200 55,490
56,1001 57,3323 58,100 71,40
73,410 74,330 75,50 84,30
100,210 101,9999 102,470 103,60
114,30 119,831 128,80 130,120
157,1792 158,110 175,310
##END=
