##TITLE=Trifluoroacetamide, N,N-diphenyl-
##JCAMP-DX=4.24
##DATA TYPE=MASS SPECTRUM
##ORIGIN=Nat. Inst. for Petroleum and Energy Research, Bartlesville, OK
##OWNER=NIST Mass Spectrometry Data Center
Collection (C) 2014 copyright by the U.S. Secretary of Commerce
on behalf of the United States of America. All rights reserved.
##$NIST MASS SPEC NO=328356
##MOLFORM=C14 H10 F3 N O
##MW=265
##$NIST SOURCE=MSDC
##XUNITS=M/Z
##YUNITS=RELATIVE INTENSITY
##XFACTOR=1
##YFACTOR=1
##FIRSTX=35
##LASTX=267
##FIRSTY=10
##MAXX=267
##MINX=35
##MAXY=9999
##MINY=10
##NPOINTS=120
##PEAK TABLE=(XY..XY)
35,10 36,100 37,120 38,360
39,1001 40,140 41,180 42,100
43,20 44,90 45,10 49,20
50,1141 51,5655 52,450 53,50
54,10 56,10 57,30 61,40
62,180 63,761 64,611 65,80
66,100 67,10 69,2132 70,90
73,40 74,320 75,270 76,420
77,7337 78,741 79,50 83,150
84,60 85,10 86,10 87,50
88,100 89,240 90,150 91,320
92,220 93,500 94,50 97,90
101,70 102,110 103,90 104,40
105,130 106,50 107,10 108,30
109,20 111,30 112,40 113,70
114,100 115,651 116,150 117,60
118,20 119,240 120,90 121,10
126,40 127,70 128,210 129,20
130,20 131,10 132,10 137,10
138,50 139,500 140,550 141,230
142,50 143,10 144,40 145,50
146,10 147,571 148,480 149,60
151,110 152,180 153,120 154,20
163,10 164,60 165,190 166,1742
167,7557 168,7317 169,1061 170,70
171,30 172,9999 173,891 174,40
177,20 178,300 179,40 195,40
196,1521 197,220 198,50 216,20
226,140 227,10 246,60 263,10
264,160 265,9609 266,1481 267,130
##END=
