##TITLE=Trifluoroacetamide, N-phenyl-n-propyl-
##JCAMP-DX=4.24
##DATA TYPE=MASS SPECTRUM
##ORIGIN=Nat. Inst. for Petroleum and Energy Research, Bartlesville, OK
##OWNER=NIST Mass Spectrometry Data Center
Collection (C) 2014 copyright by the U.S. Secretary of Commerce
on behalf of the United States of America. All rights reserved.
##$NIST MASS SPEC NO=328350
##MOLFORM=C11 H12 F3 N O
##MW=231
##$NIST SOURCE=MSDC
##XUNITS=M/Z
##YUNITS=RELATIVE INTENSITY
##XFACTOR=1
##YFACTOR=1
##FIRSTX=36
##LASTX=233
##FIRSTY=40
##MAXX=233
##MINX=36
##MAXY=9999
##MINY=10
##NPOINTS=81
##PEAK TABLE=(XY..XY)
36,40 37,30 39,1281 40,90
41,2062 42,150 43,3183 44,220
50,450 51,1742 52,290 53,20
56,60 57,10 62,60 63,310
64,410 65,450 66,60 69,1421
74,90 75,100 76,170 77,4594
78,671 79,190 90,60 91,681
92,440 93,80 94,240 96,10
97,60 103,80 104,2302 105,6576
106,751 107,100 115,10 116,30
117,120 118,150 119,460 120,2202
121,170 124,10 127,210 130,40
131,10 132,1611 133,250 134,250
135,10 138,210 141,30 142,30
152,20 154,240 155,40 162,410
163,30 170,130 172,140 174,60
175,30 182,60 184,30 188,30
189,2903 190,260 191,10 201,20
202,9999 203,1021 204,70 212,100
216,40 230,50 231,4444 232,561
233,40
##END=
