##TITLE=1,3-Dimethylcarbazole, N-trifluoroacetyl-
##JCAMP-DX=4.24
##DATA TYPE=MASS SPECTRUM
##ORIGIN=Nat. Inst. for Petroleum and Energy Research, Bartlesville, OK
##OWNER=NIST Mass Spectrometry Data Center
Collection (C) 2014 copyright by the U.S. Secretary of Commerce
on behalf of the United States of America. All rights reserved.
##$NIST MASS SPEC NO=328381
##MOLFORM=C16 H12 F3 N O
##MW=291
##$NIST SOURCE=MSDC
##XUNITS=M/Z
##YUNITS=RELATIVE INTENSITY
##XFACTOR=1
##YFACTOR=1
##FIRSTX=38
##LASTX=293
##FIRSTY=30
##MAXX=293
##MINX=38
##MAXY=9999
##MINY=10
##NPOINTS=85
##PEAK TABLE=(XY..XY)
38,30 39,450 41,40 42,30
43,10 44,40 50,190 51,410
52,120 53,70 61,10 62,130
63,310 64,50 65,140 69,1922
70,10 74,150 75,350 76,180
77,260 78,10 81,10 82,20
83,70 85,10 86,50 87,130
88,70 89,90 93,10 95,40
97,170 98,20 99,40 100,30
101,140 102,100 113,60 114,10
115,240 116,10 125,30 126,110
127,170 128,160 137,10 138,30
139,270 140,260 141,30 142,10
150,60 151,270 152,420 153,100
154,110 163,100 164,250 165,550
166,360 167,681 168,180 176,20
177,200 178,410 179,571 180,70
188,10 190,260 191,811 192,961
193,1211 194,9999 195,1461 196,120
207,30 222,440 223,30 244,40
276,80 290,50 291,3964 292,641
293,30
##END=
