##TITLE=2-Chlorobenzoic acid, 2-chloroethyl ester
##JCAMP-DX=4.24
##DATA TYPE=MASS SPECTRUM
##ORIGIN=V.G. Zaikin, R.S.Borisov, TIPS RAS, Moscow, Russia
##OWNER=NIST Mass Spectrometry Data Center
Collection (C) 2014 copyright by the U.S. Secretary of Commerce
on behalf of the United States of America. All rights reserved.
##$NIST MASS SPEC NO=331323
##MOLFORM=C9 H8 Cl2 O2
##MW=218
##$NIST SOURCE=MSDC
##XUNITS=M/Z
##YUNITS=RELATIVE INTENSITY
##XFACTOR=1
##YFACTOR=1
##FIRSTX=27
##LASTX=222
##FIRSTY=170
##MAXX=222
##MINX=27
##MAXY=9999
##MINY=20
##NPOINTS=37
##PEAK TABLE=(XY..XY)
27,170 49,40 50,230 51,120
61,30 62,30 63,100 65,40
73,20 74,140 75,851 76,230
77,70 84,30 85,100 87,30
104,50 105,30 110,40 111,1561
112,140 113,520 114,40 139,9999
140,621 141,3393 142,200 156,5615
157,410 158,1882 159,140 183,30
218,921 219,90 220,591 221,50
222,90
##END=
