##TITLE=2,4-Dimethylphenol, TBDMS derivative
##JCAMP-DX=4.24
##DATA TYPE=MASS SPECTRUM
##ORIGIN=John Halket,Royal Holloway, University of London, UK
##OWNER=NIST Mass Spectrometry Data Center
Collection (C) 2014 copyright by the U.S. Secretary of Commerce
on behalf of the United States of America. All rights reserved.
##$NIST MASS SPEC NO=331759
##MOLFORM=C14 H24 O Si
##MW=236
##$NIST SOURCE=MSDC
##XUNITS=M/Z
##YUNITS=RELATIVE INTENSITY
##XFACTOR=1
##YFACTOR=1
##FIRSTX=15
##LASTX=239
##FIRSTY=10
##MAXX=239
##MINX=15
##MAXY=9999
##MINY=10
##NPOINTS=136
##PEAK TABLE=(XY..XY)
15,10 27,120 29,260 30,10
31,50 38,10 39,250 40,40
41,470 42,70 43,250 44,40
45,300 46,20 47,90 48,10
50,30 51,140 52,60 53,150
54,20 55,80 56,40 57,340
58,120 59,631 60,60 61,100
62,20 63,90 64,30 65,190
66,40 67,60 68,60 69,50
70,10 71,20 73,881 74,140
75,1261 76,130 77,891 78,250
79,571 80,50 81,130 82,370
83,100 84,10 85,70 86,10
87,20 88,20 89,150 91,561
92,70 93,70 94,10 95,50
96,10 97,40 98,10 99,50
100,10 101,10 102,80 103,540
105,6075 106,681 107,100 108,10
109,50 110,10 111,20 115,120
116,30 117,110 118,30 119,290
120,40 121,140 122,30 123,50
124,10 125,10 127,10 128,10
129,20 130,10 131,50 132,10
133,70 134,20 135,190 136,30
137,70 138,10 139,10 143,10
145,130 146,30 147,300 148,170
149,2933 150,450 151,210 152,20
159,60 160,20 161,260 162,120
163,1772 164,440 165,240 166,40
167,10 175,150 177,741 179,9999
180,3593 181,941 182,130 183,10
189,10 191,10 193,10 205,20
221,240 222,50 223,10 234,20
236,4834 237,1071 238,290 239,30
##END=
