##TITLE=Niflumic acid, TBDMS derivative
##JCAMP-DX=4.24
##DATA TYPE=MASS SPECTRUM
##ORIGIN=John Halket,Royal Holloway, University of London, UK
##OWNER=NIST Mass Spectrometry Data Center
Collection (C) 2014 copyright by the U.S. Secretary of Commerce
on behalf of the United States of America. All rights reserved.
##$NIST MASS SPEC NO=331798
##MOLFORM=C19 H23 F3 N2 O2 Si
##MW=396
##$NIST SOURCE=MSDC
##XUNITS=M/Z
##YUNITS=RELATIVE INTENSITY
##XFACTOR=1
##YFACTOR=1
##FIRSTX=41
##LASTX=399
##FIRSTY=190
##MAXX=399
##MINX=41
##MAXY=9999
##MINY=10
##NPOINTS=255
##PEAK TABLE=(XY..XY)
41,190 42,10 46,10 49,10
55,20 56,30 57,270 58,40
60,20 61,30 62,10 63,20
64,30 65,50 66,30 67,10
69,20 70,10 73,380 75,791
76,100 77,280 78,160 79,60
80,10 81,20 82,10 83,20
84,20 85,20 86,10 87,10
88,20 89,10 90,30 91,20
92,50 93,90 94,30 95,110
96,20 97,30 99,20 100,10
101,10 102,10 103,30 104,10
105,10 106,20 107,20 108,30
109,20 110,10 112,10 113,40
114,80 115,50 116,10 117,20
118,10 119,20 120,40 121,60
122,70 124,10 125,140 126,110
127,30 128,10 129,10 130,10
131,10 132,20 133,30 134,20
135,40 136,20 137,20 138,20
139,30 140,260 141,120 142,40
143,30 145,450 146,50 147,10
150,20 151,20 152,90 153,30
154,10 155,10 156,10 157,20
158,30 159,30 160,40 161,20
162,20 163,60 164,110 165,40
166,60 167,180 168,671 169,120
170,140 171,40 172,40 173,10
176,10 177,30 179,430 180,100
181,30 182,40 183,50 184,20
185,30 186,80 187,20 188,20
189,90 190,170 191,40 192,20
193,10 194,10 195,120 196,270
197,430 198,130 199,80 200,20
202,10 203,10 205,10 207,10
208,60 209,50 210,40 211,30
212,10 213,10 214,10 215,120
216,270 217,1161 218,1281 219,180
220,20 221,10 222,10 223,40
224,10 225,50 226,10 227,20
228,10 229,10 230,10 231,20
232,20 233,10 235,190 236,1001
237,270 238,60 239,10 240,10
241,10 243,140 245,5275 246,891
247,90 248,10 249,20 250,30
251,20 252,10 253,10 254,10
255,10 257,10 259,10 260,10
261,30 262,50 263,340 264,200
265,1722 266,270 267,30 268,10
269,30 270,10 271,10 272,10
273,140 274,40 275,30 276,10
277,10 278,10 279,30 280,10
288,10 289,80 290,20 291,20
292,10 293,50 294,130 295,210
296,50 297,20 299,10 304,10
305,10 306,10 307,10 309,280
310,70 311,30 312,10 318,280
319,631 320,160 321,230 322,60
323,50 324,10 325,10 337,250
339,9999 340,2893 341,831 342,120
343,10 351,10 361,10 377,571
378,150 379,60 381,601 382,160
383,40 384,10 395,300 396,2422
397,681 398,180 399,30
##END=
