##TITLE=3-Phenylpropionic acid, 2-methylbutyl ester
##JCAMP-DX=4.24
##DATA TYPE=MASS SPECTRUM
##ORIGIN=V.G. Zaikin, R.S.Borisov, TIPS RAS, Moscow, Russia
##OWNER=NIST Mass Spectrometry Data Center
Collection (C) 2014 copyright by the U.S. Secretary of Commerce
on behalf of the United States of America. All rights reserved.
##$NIST MASS SPEC NO=331055
##MOLFORM=C14 H20 O2
##MW=220
##$NIST SOURCE=MSDC
##XUNITS=M/Z
##YUNITS=RELATIVE INTENSITY
##XFACTOR=1
##YFACTOR=1
##FIRSTX=27
##LASTX=222
##FIRSTY=250
##MAXX=222
##MINX=27
##MAXY=9999
##MINY=20
##NPOINTS=57
##PEAK TABLE=(XY..XY)
27,250 29,410 39,290 40,20
41,601 42,170 43,3813 44,110
50,70 51,370 52,140 53,80
55,651 56,40 57,140 63,100
65,581 66,40 69,80 70,1551
71,5485 72,310 75,20 76,50
77,1161 78,921 79,841 80,40
89,140 90,80 91,9328 92,861
93,20 102,110 103,901 104,9999
105,5825 106,500 107,2232 108,170
131,220 132,240 133,3373 134,370
135,20 147,60 148,60 149,260
150,9118 151,1031 152,60 163,20
177,60 191,50 220,2893 221,440
222,20
##END=
