##TITLE=o-Cresol, TBDMS derivative
##JCAMP-DX=4.24
##DATA TYPE=MASS SPECTRUM
##ORIGIN=John Halket,Royal Holloway, University of London, UK
##OWNER=NIST Mass Spectrometry Data Center
Collection (C) 2014 copyright by the U.S. Secretary of Commerce
on behalf of the United States of America. All rights reserved.
##$NIST MASS SPEC NO=331834
##MOLFORM=C13 H22 O Si
##MW=222
##$NIST SOURCE=MSDC
##XUNITS=M/Z
##YUNITS=RELATIVE INTENSITY
##XFACTOR=1
##YFACTOR=1
##FIRSTX=15
##LASTX=225
##FIRSTY=10
##MAXX=225
##MINX=15
##MAXY=9999
##MINY=10
##NPOINTS=125
##PEAK TABLE=(XY..XY)
15,10 26,10 27,90 29,270
30,10 31,70 38,20 39,320
40,40 41,530 42,90 43,350
44,50 45,410 46,30 47,160
48,10 49,10 50,40 51,150
52,60 53,110 54,20 55,100
56,50 57,380 58,140 59,911
60,90 61,130 62,30 63,150
64,50 65,741 66,60 67,90
68,50 69,60 70,10 71,30
72,20 73,741 74,120 75,931
76,90 77,430 78,130 79,210
80,20 81,50 82,170 84,10
85,60 86,10 87,10 89,270
90,170 91,6596 92,601 93,50
94,10 95,70 96,10 97,30
98,10 99,40 100,10 101,10
102,20 103,150 104,40 105,370
106,40 107,80 108,20 109,80
110,10 111,10 115,30 116,10
117,20 119,40 120,10 121,170
122,20 123,40 124,10 129,10
131,60 132,10 133,170 135,3633
136,520 137,250 138,20 139,10
143,10 145,50 146,10 147,230
148,100 149,1611 150,260 151,220
152,30 153,10 161,140 162,20
163,490 165,9999 166,2362 167,631
168,70 169,10 175,10 177,10
179,10 191,10 207,150 208,30
209,10 222,2803 223,561 224,150
225,20
##END=
