##TITLE=Carbonic acid, 2-biphenyl isobutyl ester
##JCAMP-DX=4.24
##DATA TYPE=MASS SPECTRUM
##ORIGIN=V.G. Zaikin, R.S.Borisov, TIPS RAS, Moscow, Russia
##OWNER=NIST Mass Spectrometry Data Center
Collection (C) 2014 copyright by the U.S. Secretary of Commerce
on behalf of the United States of America. All rights reserved.
##$NIST MASS SPEC NO=331409
##MOLFORM=C17 H18 O3
##MW=270
##$NIST SOURCE=MSDC
##XUNITS=M/Z
##YUNITS=RELATIVE INTENSITY
##XFACTOR=1
##YFACTOR=1
##FIRSTX=27
##LASTX=271
##FIRSTY=70
##MAXX=271
##MINX=27
##MAXY=9999
##MINY=20
##NPOINTS=57
##PEAK TABLE=(XY..XY)
27,70 29,330 31,30 39,110
40,20 41,821 42,110 43,120
44,20 45,30 53,20 55,150
56,320 57,1702 58,70 63,240
73,30 76,60 77,30 82,50
83,110 85,130 86,40 89,30
101,20 102,30 113,20 114,20
115,320 116,30 118,20 119,30
126,20 127,30 139,160 140,30
141,450 142,200 143,20 145,20
150,20 151,100 152,420 153,420
154,60 155,30 165,40 168,180
169,1481 170,9999 171,1151 172,80
183,20 197,180 198,20 270,380
271,70
##END=
