##TITLE=Carbonic acid, isobutyl 4-isopropylphenyl ester
##JCAMP-DX=4.24
##DATA TYPE=MASS SPECTRUM
##ORIGIN=V.G. Zaikin, R.S.Borisov, TIPS RAS, Moscow, Russia
##OWNER=NIST Mass Spectrometry Data Center
Collection (C) 2014 copyright by the U.S. Secretary of Commerce
on behalf of the United States of America. All rights reserved.
##$NIST MASS SPEC NO=331406
##MOLFORM=C14 H20 O3
##MW=236
##$NIST SOURCE=MSDC
##XUNITS=M/Z
##YUNITS=RELATIVE INTENSITY
##XFACTOR=1
##YFACTOR=1
##FIRSTX=27
##LASTX=237
##FIRSTY=60
##MAXX=237
##MINX=27
##MAXY=9999
##MINY=20
##NPOINTS=44
##PEAK TABLE=(XY..XY)
27,60 29,280 39,110 41,530
42,20 43,70 51,50 52,20
53,20 55,50 56,20 57,681
58,20 63,20 65,100 77,220
78,70 79,70 91,490 92,90
93,60 94,20 95,40 103,200
104,80 105,50 107,170 115,30
117,40 119,310 120,150 121,9999
122,771 123,50 134,20 135,150
136,3033 137,300 149,40 163,20
179,30 221,20 236,270 237,40
##END=
