##TITLE=Phenylacetic acid, 2-methylbutyl ester
##JCAMP-DX=4.24
##DATA TYPE=MASS SPECTRUM
##ORIGIN=V.G. Zaikin, R.S.Borisov, TIPS RAS, Moscow, Russia
##OWNER=NIST Mass Spectrometry Data Center
Collection (C) 2014 copyright by the U.S. Secretary of Commerce
on behalf of the United States of America. All rights reserved.
##$NIST MASS SPEC NO=331133
##MOLFORM=C13 H18 O2
##MW=206
##$NIST SOURCE=MSDC
##XUNITS=M/Z
##YUNITS=RELATIVE INTENSITY
##XFACTOR=1
##YFACTOR=1
##FIRSTX=27
##LASTX=207
##FIRSTY=250
##MAXX=207
##MINX=27
##MAXY=9999
##MINY=20
##NPOINTS=41
##PEAK TABLE=(XY..XY)
27,250 29,661 39,440 40,40
41,841 42,260 43,6936 44,190
51,120 52,20 53,50 55,831
56,40 57,230 62,20 63,170
64,70 65,1111 66,60 69,80
70,6095 71,2142 72,100 77,20
85,70 89,290 90,200 91,9999
92,2682 93,180 105,20 115,70
119,881 120,70 136,3103 137,951
138,70 149,70 177,20 206,200
207,30
##END=
