##TITLE=21-Hydroxyprogesterone, TMS derivative
##JCAMP-DX=4.24
##DATA TYPE=MASS SPECTRUM
##ORIGIN=NIST Mass Spectrometry Data Center
##OWNER=NIST Mass Spectrometry Data Center
Collection (C) 2014 copyright by the U.S. Secretary of Commerce
on behalf of the United States of America. All rights reserved.
##$NIST MASS SPEC NO=332917
##MOLFORM=C24 H38 O3 Si
##MW=402
##$NIST SOURCE=MSDC
##XUNITS=M/Z
##YUNITS=RELATIVE INTENSITY
##XFACTOR=1
##YFACTOR=1
##FIRSTX=15
##LASTX=403
##FIRSTY=20
##MAXX=403
##MINX=15
##MAXY=9999
##MINY=10
##NPOINTS=291
##PEAK TABLE=(XY..XY)
15,20 26,10 27,140 29,330
30,10 31,40 36,10 39,390
40,80 41,1661 42,130 43,1011
44,240 45,1021 46,90 47,180
48,10 49,10 50,20 51,110
52,110 53,1001 54,160 55,4564
56,200 57,230 58,450 59,1011
60,110 61,270 62,20 63,50
64,20 65,540 66,190 67,2072
68,240 69,631 70,70 71,130
72,190 73,9999 74,901 75,2662
76,180 77,1782 78,450 79,2973
80,380 81,2312 82,200 83,450
84,30 85,420 86,80 87,110
88,180 89,350 90,40 91,3563
92,470 93,2292 94,611 95,2702
96,270 97,691 98,80 99,300
100,50 101,520 102,120 103,4434
104,581 105,2963 106,460 107,2132
108,390 109,1291 110,140 111,300
112,40 113,130 114,40 115,641
116,370 117,2462 118,390 119,1591
120,340 121,2282 122,420 123,1892
124,470 125,170 126,30 127,390
128,410 129,891 130,280 131,1331
132,310 133,1972 134,480 135,2462
136,440 137,761 138,100 139,110
140,20 141,250 142,480 143,4334
144,701 145,2162 146,420 147,5375
148,851 149,2572 150,340 151,200
152,50 153,100 154,60 155,390
156,230 157,1521 158,360 159,1361
160,310 161,2302 162,380 163,711
164,110 165,270 166,50 167,110
168,60 169,300 170,110 171,1001
172,430 173,821 174,180 175,891
176,140 177,220 178,40 179,80
180,90 181,160 182,60 183,320
184,70 185,320 186,100 187,420
188,100 189,220 190,50 191,40
192,10 193,50 194,30 195,120
196,110 197,530 198,150 199,190
200,60 201,280 202,60 203,80
204,10 205,20 206,10 207,40
208,20 209,100 210,30 211,250
212,60 213,360 214,90 215,310
216,50 217,30 218,10 219,20
220,10 221,40 222,20 223,50
224,30 225,360 226,90 227,561
228,140 229,721 230,160 231,30
233,10 234,10 235,30 236,20
237,50 238,60 239,80 240,20
241,70 242,40 243,360 244,150
245,70 246,30 247,20 248,20
249,20 250,10 251,30 253,5415
254,1151 255,260 256,60 257,40
258,10 261,10 263,20 264,10
265,20 266,10 267,30 268,10
269,70 270,40 271,6226 272,1261
273,140 274,10 277,30 278,10
279,20 280,10 281,30 282,40
283,721 284,160 285,30 286,10
287,10 291,10 293,10 294,10
295,270 296,50 297,80 298,370
299,6746 300,1441 301,170 302,30
312,10 314,10 316,10 329,220
330,60 331,20 339,10 342,10
343,10 344,30 345,20 355,10
357,100 358,40 359,10 369,10
370,10 371,30 372,20 373,10
374,10 384,10 385,10 386,10
387,4664 388,1331 389,390 390,70
401,10 402,90 403,20
##END=
