##TITLE=dl-3-Aminoisobutyric acid, N-methyl-, methyl ester
##JCAMP-DX=4.24
##DATA TYPE=MASS SPECTRUM
##ORIGIN=NIST Mass Spectrometry Data Center
##OWNER=NIST Mass Spectrometry Data Center
Collection (C) 2014 copyright by the U.S. Secretary of Commerce
on behalf of the United States of America. All rights reserved.
##$NIST MASS SPEC NO=332879
##MOLFORM=C6 H13 N O2
##MW=131
##$NIST SOURCE=MSDC
##XUNITS=M/Z
##YUNITS=RELATIVE INTENSITY
##XFACTOR=1
##YFACTOR=1
##FIRSTX=15
##LASTX=132
##FIRSTY=70
##MAXX=132
##MINX=15
##MAXY=9999
##MINY=10
##NPOINTS=46
##PEAK TABLE=(XY..XY)
15,70 18,50 26,20 27,90
28,260 29,90 30,160 31,30
32,10 33,10 37,10 38,20
39,150 40,50 41,250 42,631
43,180 44,9999 45,300 52,10
53,10 54,50 55,110 56,230
57,260 59,70 60,30 68,30
69,30 70,180 71,60 72,50
73,10 74,30 75,10 82,10
84,50 87,40 88,10 98,80
99,10 100,100 101,10 116,20
131,240 132,20
##END=
