##TITLE=DL-Norepinephrine, 4TMS derivative
##JCAMP-DX=4.24
##DATA TYPE=MASS SPECTRUM
##ORIGIN=NIST Mass Spectrometry Data Center
##OWNER=NIST Mass Spectrometry Data Center
Collection (C) 2014 copyright by the U.S. Secretary of Commerce
on behalf of the United States of America. All rights reserved.
##$NIST MASS SPEC NO=332935
##MOLFORM=C20 H43 N O3 Si4
##MW=457
##$NIST SOURCE=MSDC
##XUNITS=M/Z
##YUNITS=RELATIVE INTENSITY
##XFACTOR=1
##YFACTOR=1
##FIRSTX=14
##LASTX=457
##FIRSTY=10
##MAXX=457
##MINX=14
##MAXY=9999
##MINY=10
##NPOINTS=192
##PEAK TABLE=(XY..XY)
14,10 15,10 27,10 28,10
29,20 30,90 31,10 41,10
42,10 43,90 44,90 45,941
46,70 47,90 53,10 55,20
56,10 57,40 58,60 59,200
60,30 61,30 63,10 65,10
70,20 71,20 73,8157 74,791
75,701 76,40 77,40 78,10
79,10 83,10 84,10 85,10
86,60 87,30 88,20 89,20
90,10 91,40 92,10 93,10
95,10 100,40 102,4444 103,470
104,180 105,50 106,10 107,10
109,10 113,10 115,50 116,70
117,50 118,20 119,40 120,10
121,10 128,10 129,10 130,80
131,120 132,60 133,180 134,30
135,40 136,10 137,20 143,10
144,10 145,20 146,190 147,701
148,130 149,90 150,20 151,30
158,10 159,10 160,20 161,40
162,40 163,40 164,10 165,30
166,30 167,10 172,10 173,10
174,20 175,20 176,10 177,90
178,30 179,250 180,50 181,60
182,10 187,10 188,80 189,30
190,30 191,70 192,100 193,190
194,40 195,30 196,10 203,10
204,20 205,30 206,50 207,70
208,40 209,40 210,10 218,10
219,10 220,10 221,40 222,10
223,40 224,10 225,10 233,10
234,10 235,50 236,20 237,70
238,20 239,10 247,10 248,10
249,30 250,20 251,210 252,50
253,30 254,10 262,10 263,10
264,50 265,230 266,60 267,150
268,40 269,20 278,20 279,40
280,230 281,260 282,90 283,60
284,10 293,10 294,30 295,40
296,20 297,10 311,10 325,40
326,10 327,10 339,90 340,40
341,20 342,10 351,10 352,220
353,130 355,9999 356,3483 357,1631
358,360 359,80 360,10 366,20
367,40 368,40 369,20 370,20
371,10 442,230 443,90 444,50
445,10 455,10 456,10 457,10
##END=
