##TITLE=Cholecalciferol, TMS derivative
##JCAMP-DX=4.24
##DATA TYPE=MASS SPECTRUM
##ORIGIN=NIST Mass Spectrometry Data Center
##OWNER=NIST Mass Spectrometry Data Center
Collection (C) 2014 copyright by the U.S. Secretary of Commerce
on behalf of the United States of America. All rights reserved.
##$NIST MASS SPEC NO=332996
##MOLFORM=C30 H52 O Si
##MW=456
##$NIST SOURCE=MSDC
##XUNITS=M/Z
##YUNITS=RELATIVE INTENSITY
##XFACTOR=1
##YFACTOR=1
##FIRSTX=15
##LASTX=459
##FIRSTY=10
##MAXX=459
##MINX=15
##MAXY=9999
##MINY=10
##NPOINTS=325
##PEAK TABLE=(XY..XY)
15,10 26,10 27,140 29,440
30,10 37,10 38,10 39,160
40,30 41,1852 42,210 43,3944
44,170 45,400 46,30 47,170
48,10 49,10 50,10 51,20
53,270 54,30 55,2752 56,290
57,2662 58,150 59,300 60,50
61,180 62,20 63,20 64,10
65,100 66,20 67,911 68,80
69,1692 70,170 71,1101 73,5485
74,500 75,2382 76,170 77,370
78,70 79,761 80,110 81,1852
82,180 83,1031 84,100 85,320
86,30 87,40 88,10 89,50
91,1211 92,160 93,741 94,140
95,1832 96,150 97,661 98,60
99,110 100,10 101,120 102,30
103,170 104,90 105,1231 106,180
107,631 108,100 109,841 110,80
111,360 112,40 113,70 115,901
116,290 117,841 118,460 119,3934
120,460 121,290 122,110 123,300
124,40 125,130 126,50 127,240
128,1061 129,2492 130,691 131,2072
132,510 133,671 134,140 135,180
136,70 137,150 138,20 139,80
141,1061 142,851 143,4074 144,1601
145,3403 146,641 147,370 148,60
149,100 150,40 151,80 152,80
153,250 154,240 155,1121 156,641
157,2762 158,1601 159,1952 160,420
161,160 162,30 163,60 164,100
165,240 166,130 167,340 168,380
169,1451 170,731 171,1581 172,611
173,711 174,120 175,100 176,20
177,30 178,70 179,160 180,100
181,420 182,601 183,1241 184,460
185,1581 186,380 187,240 188,40
189,40 190,20 191,50 192,30
193,220 194,190 195,480 196,300
197,1131 198,561 199,1461 200,270
201,160 202,30 203,30 204,10
205,50 206,90 207,90 208,50
209,230 210,180 211,1982 212,530
213,430 214,90 215,100 216,20
217,50 218,20 219,130 221,110
222,40 223,130 224,70 225,390
226,581 227,330 228,70 229,60
230,20 231,60 232,40 233,80
234,30 235,40 236,50 237,220
238,100 239,270 240,60 241,60
242,20 243,40 244,20 245,40
246,20 247,60 248,30 249,40
250,20 251,90 252,70 253,821
254,190 255,70 256,20 257,30
258,20 259,30 260,20 261,40
262,10 263,10 264,10 265,60
266,20 267,50 268,20 269,50
270,20 271,30 272,10 273,20
274,10 275,10 279,20 280,10
281,110 282,30 283,30 284,10
285,40 286,20 287,20 288,10
289,30 290,10 293,20 294,10
295,40 296,10 297,20 298,10
299,50 300,20 301,30 302,50
303,10 307,10 308,20 309,160
310,50 311,410 312,320 313,100
314,190 315,50 316,10 317,10
321,10 322,10 323,90 325,9018
326,2442 327,550 328,90 329,20
335,20 336,10 337,40 338,60
339,20 340,50 341,20 342,10
343,40 344,10 345,10 347,10
349,40 351,9999 352,2853 353,400
354,40 355,10 364,30 365,400
366,1051 367,300 368,50 369,10
371,20 372,10 383,10 384,10
385,10 399,10 401,10 414,10
427,10 439,10 440,10 441,300
442,110 443,30 444,10 454,10
455,10 456,2032 457,751 458,200
459,40
##END=
