##TITLE=L(-)-Fucose, tetramethyl ether
##JCAMP-DX=4.24
##DATA TYPE=MASS SPECTRUM
##ORIGIN=NIST Mass Spectrometry Data Center
##OWNER=NIST Mass Spectrometry Data Center
Collection (C) 2014 copyright by the U.S. Secretary of Commerce
on behalf of the United States of America. All rights reserved.
##$NIST MASS SPEC NO=332750
##MOLFORM=C10 H20 O5
##MW=220
##$NIST SOURCE=MSDC
##XUNITS=M/Z
##YUNITS=RELATIVE INTENSITY
##XFACTOR=1
##YFACTOR=1
##FIRSTX=15
##LASTX=189
##FIRSTY=60
##MAXX=189
##MINX=15
##MAXY=9999
##MINY=10
##NPOINTS=83
##PEAK TABLE=(XY..XY)
15,60 26,10 27,120 28,40
29,410 30,20 31,120 32,10
33,100 38,10 39,150 40,30
41,540 42,170 43,510 44,50
45,1481 46,30 47,150 50,10
51,10 52,10 53,180 54,60
55,380 56,100 57,490 58,50
59,400 60,30 61,70 65,30
66,10 67,140 68,40 69,160
70,20 71,400 72,1111 73,2072
74,230 75,2973 76,90 77,30
79,40 81,50 82,60 83,50
84,20 85,400 86,40 88,9999
89,550 90,60 95,20 96,10
97,340 98,80 99,100 101,2302
102,170 103,30 111,10 112,10
113,50 114,40 115,40 116,40
117,30 119,330 120,10 125,20
127,10 129,681 130,60 131,330
132,20 145,20 155,10 157,10
176,190 177,20 189,10
##END=
