##TITLE=2,3-Dihydroxybenzoic acid, 3TBDMS derivative
##JCAMP-DX=4.24
##DATA TYPE=MASS SPECTRUM
##ORIGIN=NIST Mass Spectrometry Data Center
##OWNER=NIST Mass Spectrometry Data Center
Collection (C) 2014 copyright by the U.S. Secretary of Commerce
on behalf of the United States of America. All rights reserved.
##$NIST MASS SPEC NO=332766
##MOLFORM=C25 H48 O4 Si3
##MW=496
##$NIST SOURCE=MSDC
##XUNITS=M/Z
##YUNITS=RELATIVE INTENSITY
##XFACTOR=1
##YFACTOR=1
##FIRSTX=27
##LASTX=497
##FIRSTY=20
##MAXX=497
##MINX=27
##MAXY=9999
##MINY=10
##NPOINTS=246
##PEAK TABLE=(XY..XY)
27,20 29,170 31,10 39,50
41,360 42,20 43,90 44,10
45,270 46,20 47,30 53,10
55,30 56,110 57,691 58,170
59,550 60,50 61,30 63,10
67,10 69,10 70,10 71,20
73,7727 74,831 75,520 76,30
77,30 78,10 79,30 81,10
83,70 84,10 85,90 86,20
87,10 89,20 90,10 91,170
92,20 93,40 95,20 97,20
98,10 99,120 100,30 101,10
102,10 103,60 104,30 105,340
106,40 107,30 108,10 109,40
110,10 111,10 113,20 115,170
116,30 117,70 118,20 119,120
120,20 121,50 122,10 123,30
126,10 127,10 128,10 129,20
131,90 133,440 134,70 135,140
136,40 137,641 138,80 139,30
141,10 143,20 145,30 147,350
148,70 149,200 150,40 151,70
152,10 153,10 155,10 157,10
159,10 161,20 162,10 163,120
164,50 165,150 166,40 167,40
168,10 169,10 173,10 175,20
176,10 177,60 178,30 179,140
180,30 181,70 182,10 183,10
187,10 189,30 190,10 191,240
193,1802 194,300 195,390 196,80
197,50 198,10 201,10 203,20
204,30 205,40 207,400 208,90
209,180 210,40 211,60 212,10
213,10 215,10 217,20 218,10
219,70 220,20 221,20 223,520
224,120 225,80 226,10 227,10
231,10 233,70 234,20 235,230
236,50 237,100 238,20 239,50
240,10 241,10 247,10 249,90
250,20 251,220 252,50 253,150
254,40 255,20 263,20 264,10
265,100 267,1021 268,250 269,130
270,20 271,10 275,10 277,20
278,10 279,30 280,10 281,90
282,30 283,30 284,10 289,10
291,30 292,10 293,30 294,10
295,20 296,10 297,90 298,20
299,10 305,10 307,60 308,20
309,210 310,50 311,50 312,10
313,10 321,10 322,10 323,20
325,480 326,130 327,60 328,10
339,10 349,150 350,50 351,30
352,10 353,10 363,10 365,150
366,50 367,140 368,40 369,20
381,160 382,60 383,80 384,20
385,10 395,10 397,20 398,10
409,10 423,50 424,20 425,20
426,10 437,70 439,9999 440,6586
441,3293 442,851 443,200 444,30
465,10 479,10 481,751 482,320
483,140 484,40 485,10 495,20
496,10 497,10
##END=
