##TITLE=(17.alpha.)-3-Methoxyestra-1,3,5(10)-trien-17-ol
##JCAMP-DX=4.24
##DATA TYPE=MASS SPECTRUM
##ORIGIN=NIST Mass Spectrometry Data Center
##OWNER=NIST Mass Spectrometry Data Center
Collection (C) 2014 copyright by the U.S. Secretary of Commerce
on behalf of the United States of America. All rights reserved.
##$NIST MASS SPEC NO=332921
##MOLFORM=C19 H26 O2
##MW=286
##$NIST SOURCE=MSDC
##XUNITS=M/Z
##YUNITS=RELATIVE INTENSITY
##XFACTOR=1
##YFACTOR=1
##FIRSTX=15
##LASTX=289
##FIRSTY=30
##MAXX=289
##MINX=15
##MAXY=9999
##MINY=10
##NPOINTS=227
##PEAK TABLE=(XY..XY)
15,30 26,10 27,170 28,30
29,370 30,30 31,120 38,10
39,380 40,90 41,1141 42,110
43,711 44,140 45,240 50,40
51,220 52,90 53,591 54,100
55,1151 56,90 57,761 58,70
59,20 62,20 63,160 64,70
65,430 66,80 67,581 68,130
69,210 70,30 71,100 72,10
73,10 74,20 75,40 76,90
77,851 78,370 79,701 80,90
81,490 82,90 83,170 84,40
85,60 86,60 87,30 88,20
89,220 90,80 91,1932 92,260
93,530 94,100 95,290 96,40
97,160 98,50 99,110 100,20
101,40 102,290 103,651 104,310
105,591 106,230 107,621 108,200
109,220 110,90 111,80 112,50
113,80 114,30 115,2482 116,781
117,841 118,130 119,280 120,80
121,1371 122,731 123,180 124,30
125,50 126,80 127,701 128,1692
129,1341 130,370 131,691 132,270
133,230 134,1101 135,661 136,160
137,30 138,10 139,130 140,50
141,961 142,370 143,540 144,991
145,1341 146,581 147,2472 148,520
149,110 150,40 151,170 152,330
153,420 154,220 155,340 156,120
157,300 158,1371 159,2432 160,3713
161,1071 162,170 163,50 164,40
165,420 166,190 167,270 168,110
169,270 170,160 171,1551 172,1121
173,3103 174,2752 175,400 176,70
177,30 178,120 179,150 180,50
181,210 182,90 183,190 184,380
185,831 186,4184 187,1051 188,160
189,771 190,140 191,40 192,20
193,50 194,50 195,130 196,120
197,380 198,330 199,2072 200,1892
201,430 202,581 203,100 204,30
205,10 206,10 207,20 208,20
209,100 210,70 211,360 212,230
213,450 214,320 215,260 216,50
217,10 220,10 221,20 222,10
223,50 224,40 225,721 226,210
227,1651 228,360 229,240 230,50
231,10 235,10 236,10 237,420
238,100 239,330 240,651 241,170
242,150 243,60 244,10 251,40
252,20 253,210 254,40 255,40
256,20 257,40 258,240 259,40
260,10 266,10 267,530 268,230
269,50 270,10 271,40 272,10
282,10 283,10 284,60 286,9999
287,2052 288,240 289,20
##END=
