##TITLE=Epitestosterone, TBDMS derivative
##JCAMP-DX=4.24
##DATA TYPE=MASS SPECTRUM
##ORIGIN=NIST Mass Spectrometry Data Center
##OWNER=NIST Mass Spectrometry Data Center
Collection (C) 2014 copyright by the U.S. Secretary of Commerce
on behalf of the United States of America. All rights reserved.
##$NIST MASS SPEC NO=332945
##MOLFORM=C25 H42 O2 Si
##MW=402
##$NIST SOURCE=MSDC
##XUNITS=M/Z
##YUNITS=RELATIVE INTENSITY
##XFACTOR=1
##YFACTOR=1
##FIRSTX=27
##LASTX=402
##FIRSTY=70
##MAXX=402
##MINX=27
##MAXY=9999
##MINY=10
##NPOINTS=237
##PEAK TABLE=(XY..XY)
27,70 29,290 31,20 39,180
40,60 41,991 42,100 43,370
45,320 46,20 47,280 48,10
51,40 52,30 53,330 54,50
55,1111 56,180 57,550 58,190
59,921 60,120 61,210 62,10
63,20 65,180 66,60 67,721
68,80 69,210 70,20 71,50
73,3253 74,380 75,8067 76,591
77,951 78,170 79,1261 80,160
81,811 82,60 83,140 84,20
85,190 86,30 87,70 88,10
89,60 91,1581 92,240 93,1211
94,210 95,801 96,90 97,190
98,30 99,200 100,40 101,500
102,70 103,160 104,110 105,1231
106,240 107,731 108,140 109,260
110,30 111,100 112,20 113,70
114,30 115,540 116,140 117,450
118,120 119,681 120,160 121,520
122,130 123,300 124,90 125,40
127,90 128,170 129,350 130,140
131,641 132,120 133,611 134,310
135,320 136,70 137,100 138,20
139,20 140,10 141,180 142,120
143,340 144,180 145,1561 146,290
147,831 148,160 149,180 150,50
152,290 153,70 154,40 155,220
156,100 157,841 159,550 160,120
161,510 162,90 163,130 164,40
165,100 166,30 167,120 168,50
169,160 170,70 171,1782 172,350
173,480 174,90 175,530 176,80
177,60 178,40 179,120 180,40
181,150 182,50 183,1211 184,220
185,320 186,80 187,240 188,50
189,70 190,20 191,40 193,50
194,30 195,300 196,80 197,711
198,150 199,260 200,70 201,120
202,20 203,30 205,30 206,10
207,50 209,130 210,50 211,350
212,80 213,270 214,80 215,60
216,20 217,10 219,10 221,50
222,30 223,80 224,30 225,130
227,1922 228,420 229,70 230,10
231,10 233,20 234,10 235,50
236,20 237,90 238,40 239,50
240,20 241,140 242,140 243,70
244,30 245,20 247,10 249,20
251,530 252,100 253,210 254,60
255,40 256,10 257,10 258,30
259,10 261,10 263,10 267,20
269,3573 270,801 271,110 272,10
273,20 274,10 286,10 287,20
288,10 289,10 301,30 302,10
315,10 316,10 327,20 328,10
329,20 330,10 331,10 343,120
345,9999 346,2783 347,721 348,130
349,10 387,120 388,30 389,20
402,10
##END=
