##TITLE=DL-Norepinephrine, N,N-dimethyl-, trimethyl ether
##JCAMP-DX=4.24
##DATA TYPE=MASS SPECTRUM
##ORIGIN=NIST Mass Spectrometry Data Center
##OWNER=NIST Mass Spectrometry Data Center
Collection (C) 2014 copyright by the U.S. Secretary of Commerce
on behalf of the United States of America. All rights reserved.
##$NIST MASS SPEC NO=332936
##MOLFORM=C13 H21 N O3
##MW=239
##$NIST SOURCE=MSDC
##XUNITS=M/Z
##YUNITS=RELATIVE INTENSITY
##XFACTOR=1
##YFACTOR=1
##FIRSTX=15
##LASTX=240
##FIRSTY=20
##MAXX=240
##MINX=15
##MAXY=9999
##MINY=10
##NPOINTS=111
##PEAK TABLE=(XY..XY)
15,20 18,10 27,20 28,20
29,30 30,100 31,10 32,10
38,10 39,40 40,10 41,40
42,230 43,70 44,20 45,30
50,30 51,100 52,60 53,40
54,10 55,30 56,40 58,9999
59,320 62,10 63,50 64,20
65,90 66,20 67,30 69,10
70,10 71,10 72,20 73,10
74,10 75,10 76,20 77,160
78,80 79,90 80,30 81,10
86,10 89,30 90,20 91,110
92,30 93,20 94,30 95,90
96,10 102,10 103,40 104,20
105,40 106,30 107,50 108,30
109,10 117,10 118,20 119,30
120,30 121,50 122,30 123,20
127,10 128,10 131,10 132,10
133,20 134,20 135,50 136,30
137,50 138,30 146,10 147,10
148,20 149,60 150,40 151,150
152,20 162,10 163,10 164,60
165,200 166,270 167,30 174,10
175,10 176,10 177,10 178,10
179,10 180,10 181,591 182,60
183,10 192,40 193,20 194,10
204,10 207,10 208,50 209,10
222,10 239,40 240,10
##END=
