##TITLE=Deoxyguanosine, 4TMS derivative
##JCAMP-DX=4.24
##DATA TYPE=MASS SPECTRUM
##ORIGIN=NIST Mass Spectrometry Data Center
##OWNER=NIST Mass Spectrometry Data Center
Collection (C) 2014 copyright by the U.S. Secretary of Commerce
on behalf of the United States of America. All rights reserved.
##$NIST MASS SPEC NO=332897
##MOLFORM=C22 H45 N5 O4 Si4
##MW=555
##$NIST SOURCE=MSDC
##XUNITS=M/Z
##YUNITS=RELATIVE INTENSITY
##XFACTOR=1
##YFACTOR=1
##FIRSTX=14
##LASTX=559
##FIRSTY=10
##MAXX=559
##MINX=14
##MAXY=9999
##MINY=10
##NPOINTS=331
##PEAK TABLE=(XY..XY)
14,10 15,30 26,10 27,40
29,50 30,10 31,20 36,10
38,10 39,50 40,10 41,30
42,30 43,150 44,120 45,771
46,50 47,140 48,10 50,10
51,10 52,40 53,100 54,80
55,120 56,20 57,50 58,90
59,430 60,60 61,130 62,10
63,10 65,10 66,60 67,20
68,30 69,50 70,30 71,60
73,9999 74,941 75,1391 76,100
77,70 78,10 79,10 80,40
81,621 82,40 83,30 84,110
85,100 86,40 87,60 88,20
89,80 90,10 91,10 92,10
93,20 94,10 95,20 96,20
97,30 98,40 99,270 100,150
101,370 103,3103 104,310 105,150
106,10 107,10 108,10 109,20
110,30 111,130 112,30 113,130
114,30 115,90 116,50 117,530
118,70 119,60 120,10 121,10
122,10 123,10 124,30 125,70
126,20 127,130 128,40 129,300
130,100 131,350 132,110 133,400
134,70 135,50 136,30 137,30
138,70 139,30 140,30 141,90
142,60 143,140 144,40 145,360
146,160 147,1471 148,270 149,170
150,30 151,30 152,20 153,30
154,10 155,460 156,110 157,170
158,160 159,50 160,30 161,10
162,20 163,20 164,30 165,90
166,380 167,70 168,50 169,581
170,520 171,591 172,130 173,90
174,20 175,20 176,30 177,20
178,20 179,20 180,40 181,20
182,50 183,20 184,10 185,10
186,10 187,40 188,20 189,270
190,180 191,130 192,100 193,30
194,30 195,20 196,30 197,20
198,40 199,10 200,10 201,10
202,10 203,10 204,20 205,50
206,120 207,70 208,120 209,40
210,20 211,10 212,10 215,30
216,40 217,170 218,50 219,100
220,40 221,100 222,90 223,190
224,50 225,30 230,10 231,20
232,80 233,30 234,50 235,10
236,20 237,40 238,120 239,40
240,20 243,10 244,10 245,40
246,10 247,20 248,30 249,20
250,50 251,100 252,50 253,40
254,20 256,10 258,10 259,10
260,20 261,10 262,30 263,20
264,581 265,130 266,100 267,40
268,20 269,10 275,10 276,20
277,30 278,160 280,9739 281,2212
282,891 283,120 284,30 286,10
290,40 291,20 292,50 293,50
294,631 295,6646 296,1802 297,651
298,120 299,20 304,20 305,10
306,811 307,210 308,120 309,30
310,10 318,10 320,40 321,100
322,340 323,110 324,591 325,190
326,70 327,20 332,10 333,10
334,20 335,10 336,10 337,20
338,20 340,10 346,10 349,10
350,20 352,150 353,50 354,30
355,10 360,10 362,10 363,10
364,10 366,20 367,80 368,50
369,20 370,20 376,10 378,10
379,10 380,10 382,10 384,10
393,10 394,80 395,30 396,20
397,10 398,10 406,10 407,10
408,10 410,10 422,10 423,30
424,20 425,10 426,10 434,10
436,10 437,10 439,10 450,50
451,20 452,40 453,10 454,10
464,10 465,10 466,10 467,10
468,10 540,330 541,150 542,70
543,20 544,10 555,550 556,250
557,130 558,50 559,10
##END=
