##TITLE=2-Phenylbutyric acid, TMS derivative
##JCAMP-DX=4.24
##DATA TYPE=MASS SPECTRUM
##ORIGIN=NIST Mass Spectrometry Data Center
##OWNER=NIST Mass Spectrometry Data Center
Collection (C) 2014 copyright by the U.S. Secretary of Commerce
on behalf of the United States of America. All rights reserved.
##$NIST MASS SPEC NO=332775
##MOLFORM=C13 H20 O2 Si
##MW=236
##$NIST SOURCE=MSDC
##XUNITS=M/Z
##YUNITS=RELATIVE INTENSITY
##XFACTOR=1
##YFACTOR=1
##FIRSTX=15
##LASTX=238
##FIRSTY=20
##MAXX=238
##MINX=15
##MAXY=9999
##MINY=10
##NPOINTS=122
##PEAK TABLE=(XY..XY)
15,20 27,50 28,10 29,240
30,10 31,20 39,130 40,20
41,160 42,30 43,270 44,140
45,911 46,70 47,350 48,20
49,10 51,140 52,40 53,30
54,10 55,60 56,20 57,40
58,220 59,230 60,80 61,300
62,50 63,150 64,50 65,250
66,20 67,10 68,10 69,20
70,30 71,40 73,9999 74,1651
75,3743 76,310 77,520 78,240
81,10 82,40 83,10 85,10
86,10 87,20 88,20 89,480
90,671 91,1722 92,150 93,10
95,10 96,10 99,10 101,10
102,90 103,390 104,350 105,110
106,10 109,10 110,40 113,10
115,540 116,130 117,1111 118,5565
119,490 121,50 122,10 123,10
127,10 128,20 129,110 130,20
131,80 132,20 133,40 134,10
135,110 137,30 143,40 144,10
145,120 146,50 147,70 148,490
149,110 150,30 151,10 159,20
161,50 162,10 163,30 175,10
177,120 178,20 179,50 180,10
192,3213 193,611 194,160 195,20
203,30 204,10 205,40 206,20
207,10 208,10 221,3043 222,571
223,160 224,20 235,10 236,130
237,30 238,10
##END=
