##TITLE=2-Ketovaleric acid ho-tms
##JCAMP-DX=4.24
##DATA TYPE=MASS SPECTRUM
##ORIGIN=John Halket,Royal Holloway, University of London, UK
##OWNER=NIST Mass Spectrometry Data Center
Collection (C) 2014 copyright by the U.S. Secretary of Commerce
on behalf of the United States of America. All rights reserved.
##$NIST MASS SPEC NO=332273
##MOLFORM=C11 H25 N O3 Si2
##MW=275
##$NIST SOURCE=MSDC
##XUNITS=M/Z
##YUNITS=RELATIVE INTENSITY
##XFACTOR=1
##YFACTOR=1
##FIRSTX=15
##LASTX=278
##FIRSTY=60
##MAXX=278
##MINX=15
##MAXY=9999
##MINY=10
##NPOINTS=135
##PEAK TABLE=(XY..XY)
15,60 27,220 29,220 30,20
31,110 39,100 41,350 42,250
43,891 44,270 45,2022 46,140
47,370 48,20 53,60 54,90
55,200 56,110 57,180 58,460
59,1591 60,190 61,340 62,10
66,40 67,50 68,310 69,40
70,130 71,80 73,9999 74,1081
75,1732 76,130 77,110 82,30
83,50 84,310 85,70 86,310
87,70 89,931 90,90 91,100
96,110 97,20 98,70 99,80
100,400 101,90 102,50 103,100
104,30 105,50 111,10 112,30
113,70 114,50 115,150 116,50
117,210 118,40 119,60 122,20
124,10 126,380 127,50 128,80
129,520 130,330 131,571 132,110
133,971 134,150 135,80 140,100
141,50 142,210 143,30 144,50
145,10 147,5665 148,931 149,530
150,60 156,20 157,260 158,2122
159,410 160,140 161,10 163,140
164,20 165,20 168,10 170,250
171,40 172,110 173,30 174,40
175,10 185,30 186,1822 187,280
188,110 189,20 190,40 194,10
201,10 202,30 203,20 204,60
214,30 215,20 216,50 218,30
230,20 232,2042 233,480 234,180
235,20 244,10 247,1281 248,240
249,100 250,20 258,30 260,3083
261,691 262,300 263,30 275,801
276,150 277,80 278,20
##END=
