##TITLE=Homoserine, 3TBDMS derivative
##JCAMP-DX=4.24
##DATA TYPE=MASS SPECTRUM
##ORIGIN=NIST Mass Spectrometry Data Center
##OWNER=NIST Mass Spectrometry Data Center
Collection (C) 2014 copyright by the U.S. Secretary of Commerce
on behalf of the United States of America. All rights reserved.
##$NIST MASS SPEC NO=332847
##MOLFORM=C22 H51 N O3 Si3
##MW=461
##$NIST SOURCE=MSDC
##XUNITS=M/Z
##YUNITS=RELATIVE INTENSITY
##XFACTOR=1
##YFACTOR=1
##FIRSTX=27
##LASTX=463
##FIRSTY=20
##MAXX=463
##MINX=27
##MAXY=9999
##MINY=10
##NPOINTS=225
##PEAK TABLE=(XY..XY)
27,20 29,130 30,10 31,10
43,70 46,20 47,50 53,10
54,40 55,90 56,280 57,601
58,210 60,90 61,60 66,10
67,10 68,20 69,70 70,20
71,20 73,7827 74,801 75,951
76,60 77,30 81,10 82,10
83,30 84,50 85,130 86,80
87,70 89,1822 90,160 91,70
95,10 96,10 97,30 98,100
99,190 100,400 101,150 102,70
103,400 104,40 105,70 106,10
110,10 111,10 112,60 113,60
114,230 115,791 116,170 117,210
118,80 119,120 120,20 121,10
126,20 127,10 128,220 129,150
130,641 131,450 132,520 133,1331
134,240 135,140 136,20 137,10
140,20 141,10 142,120 143,50
144,110 145,140 146,190 147,2402
148,470 149,480 150,70 151,30
154,20 155,10 156,40 157,40
158,170 159,140 160,240 161,70
162,40 163,20 168,10 170,1051
171,210 172,210 173,120 174,360
175,120 176,50 177,70 178,10
179,10 184,30 185,10 186,60
187,40 188,270 189,350 190,130
191,70 192,30 193,20 194,10
198,40 199,10 200,30 201,10
202,220 203,50 204,90 205,40
206,110 207,170 208,50 209,20
214,40 215,30 216,210 217,60
218,140 219,50 220,30 221,130
222,30 223,20 228,10 229,10
230,70 231,50 232,400 233,80
234,50 235,30 236,10 242,30
244,1291 245,350 246,240 247,50
248,20 249,10 256,10 258,60
259,20 260,30 261,10 262,10
263,10 264,10 272,921 273,230
274,190 275,80 276,30 277,10
286,100 287,50 288,30 289,10
290,20 291,10 300,70 302,9999
303,3263 304,1211 305,230 306,40
312,30 314,180 315,50 316,40
317,10 318,20 319,10 320,10
328,10 329,40 330,20 331,10
332,10 346,10 347,10 348,10
349,10 360,10 361,10 374,20
376,4634 377,1641 378,751 379,170
380,40 381,10 404,6246 405,2332
406,1061 407,250 408,60 409,10
418,130 419,50 420,20 421,10
446,510 447,200 448,90 449,20
450,10 460,10 461,90 462,40
463,20
##END=
