##TITLE=2-Hydroxyoctanoic acid, 2TMS derivative
##JCAMP-DX=4.24
##DATA TYPE=MASS SPECTRUM
##ORIGIN=NIST Mass Spectrometry Data Center
##OWNER=NIST Mass Spectrometry Data Center
Collection (C) 2014 copyright by the U.S. Secretary of Commerce
on behalf of the United States of America. All rights reserved.
##$NIST MASS SPEC NO=332744
##MOLFORM=C14 H32 O3 Si2
##MW=304
##$NIST SOURCE=MSDC
##XUNITS=M/Z
##YUNITS=RELATIVE INTENSITY
##XFACTOR=1
##YFACTOR=1
##FIRSTX=15
##LASTX=304
##FIRSTY=20
##MAXX=304
##MINX=15
##MAXY=9999
##MINY=10
##NPOINTS=163
##PEAK TABLE=(XY..XY)
15,20 26,20 27,240 28,60
29,550 30,20 31,40 39,140
41,731 42,120 43,911 44,290
45,1381 46,100 47,260 48,10
49,10 51,10 52,20 53,80
55,2512 56,140 57,170 58,200
59,961 60,110 61,220 62,10
63,10 65,20 66,100 67,120
68,60 69,500 70,90 71,110
73,9659 74,1161 75,2182 76,150
77,100 78,10 79,30 80,10
81,130 82,20 83,80 84,10
85,180 86,40 87,100 88,20
89,50 91,240 92,20 93,30
94,20 95,210 97,1902 98,160
99,120 101,460 103,3283 104,330
105,180 106,10 107,30 109,10
111,20 112,10 113,100 115,410
116,180 117,290 118,40 119,130
120,20 121,10 123,10 125,60
126,10 127,20 129,651 130,120
131,561 132,130 133,1491 134,210
135,140 136,10 137,10 141,10
142,20 143,140 144,20 145,60
147,7667 148,1391 149,1051 150,120
151,50 153,10 155,20 156,10
157,80 158,10 159,20 160,10
161,30 162,10 163,10 169,20
171,130 172,30 173,30 175,140
176,20 177,150 178,20 179,10
181,10 183,10 185,90 187,9999
188,2672 189,801 190,561 191,120
192,50 193,10 197,30 199,340
200,50 201,20 203,50 204,50
205,10 215,10 217,100 218,20
219,80 220,70 221,20 222,10
231,30 232,10 233,10 245,10
246,10 247,10 261,1151 262,280
263,110 264,20 273,90 274,20
275,10 289,1061 290,260 291,110
292,20 303,10 304,10
##END=
