##TITLE=2-Hydroxyisocaproic acid, methyl ether, methyl ester
##JCAMP-DX=4.24
##DATA TYPE=MASS SPECTRUM
##ORIGIN=NIST Mass Spectrometry Data Center
##OWNER=NIST Mass Spectrometry Data Center
Collection (C) 2014 copyright by the U.S. Secretary of Commerce
on behalf of the United States of America. All rights reserved.
##$NIST MASS SPEC NO=332756
##MOLFORM=C8 H16 O3
##MW=160
##$NIST SOURCE=MSDC
##XUNITS=M/Z
##YUNITS=RELATIVE INTENSITY
##XFACTOR=1
##YFACTOR=1
##FIRSTX=14
##LASTX=145
##FIRSTY=10
##MAXX=145
##MINX=14
##MAXY=9999
##MINY=10
##NPOINTS=81
##PEAK TABLE=(XY..XY)
14,10 15,280 16,10 26,40
27,691 28,180 29,711 30,50
31,310 32,10 33,420 37,10
38,50 39,851 40,130 41,2202
42,300 43,3613 44,190 45,4704
46,100 47,280 48,10 49,10
50,50 51,100 52,40 53,440
54,90 55,1421 56,150 57,310
58,791 59,7507 60,250 61,40
62,10 63,10 65,50 66,10
67,190 68,50 69,6866 70,430
71,1261 72,110 73,60 74,20
75,681 76,20 77,10 79,10
81,130 82,20 83,30 85,861
86,70 87,370 88,20 89,290
90,10 95,50 96,30 97,30
98,20 99,60 101,9999 102,681
103,430 104,470 105,20 111,10
113,290 114,20 117,30 127,90
128,20 129,10 130,100 131,10
145,10
##END=
