##TITLE=3-Hydroxy-DL-tyrosine, 4TMS derivative
##JCAMP-DX=4.24
##DATA TYPE=MASS SPECTRUM
##ORIGIN=NIST Mass Spectrometry Data Center
##OWNER=NIST Mass Spectrometry Data Center
Collection (C) 2014 copyright by the U.S. Secretary of Commerce
on behalf of the United States of America. All rights reserved.
##$NIST MASS SPEC NO=332930
##MOLFORM=C21 H43 N O4 Si4
##MW=485
##$NIST SOURCE=MSDC
##XUNITS=M/Z
##YUNITS=RELATIVE INTENSITY
##XFACTOR=1
##YFACTOR=1
##FIRSTX=15
##LASTX=486
##FIRSTY=10
##MAXX=486
##MINX=15
##MAXY=9999
##MINY=10
##NPOINTS=202
##PEAK TABLE=(XY..XY)
15,10 27,10 28,30 29,10
31,10 42,10 43,60 44,100
45,681 46,50 47,60 53,10
55,20 56,10 57,40 58,40
59,120 60,20 61,30 70,20
71,20 73,6826 74,621 75,571
76,30 77,30 78,10 79,10
83,10 84,20 85,10 86,40
87,20 88,10 89,10 90,10
91,30 93,10 95,10 98,10
99,10 100,621 101,130 102,60
103,70 104,50 105,50 106,10
107,10 113,10 115,60 116,20
117,70 118,20 119,50 120,10
121,10 128,10 129,20 130,90
131,130 132,130 133,180 134,30
135,30 136,10 137,10 143,10
144,20 145,20 146,50 147,781
148,140 149,160 150,30 151,30
158,20 159,30 160,30 161,40
162,20 163,60 164,10 165,30
166,30 167,10 172,20 173,10
174,40 175,20 176,10 177,60
178,10 179,1011 180,170 181,150
182,20 183,10 184,10 188,10
189,10 190,30 191,100 192,30
193,60 194,10 195,20 196,10
202,20 203,80 204,30 205,30
206,20 207,40 208,30 209,30
210,10 218,9999 219,2292 220,1001
221,150 222,30 223,40 224,10
233,10 234,10 235,10 237,60
238,20 239,10 248,10 249,10
250,10 251,30 252,10 253,20
254,10 263,10 264,20 265,60
267,2282 268,711 269,260 270,50
271,10 277,10 278,20 279,20
280,370 281,150 282,50 283,10
290,10 291,100 292,30 293,20
294,20 295,60 296,50 297,20
298,10 304,10 306,40 307,30
308,20 309,10 311,10 352,20
353,30 354,30 355,20 356,10
366,20 367,50 368,801 369,280
370,130 371,30 372,10 378,20
379,10 380,130 381,60 382,30
383,10 394,10 396,10 398,20
399,10 411,10 413,20 414,10
442,140 443,60 444,30 445,10
470,110 471,50 472,20 473,10
485,20 486,10
##END=
