##TITLE=5-Cholesten-3.beta.-ol-7-one, methyl ether
##JCAMP-DX=4.24
##DATA TYPE=MASS SPECTRUM
##ORIGIN=NIST Mass Spectrometry Data Center
##OWNER=NIST Mass Spectrometry Data Center
Collection (C) 2014 copyright by the U.S. Secretary of Commerce
on behalf of the United States of America. All rights reserved.
##$NIST MASS SPEC NO=332985
##MOLFORM=C28 H46 O2
##MW=414
##$NIST SOURCE=MSDC
##XUNITS=M/Z
##YUNITS=RELATIVE INTENSITY
##XFACTOR=1
##YFACTOR=1
##FIRSTX=27
##LASTX=417
##FIRSTY=340
##MAXX=417
##MINX=27
##MAXY=9999
##MINY=50
##NPOINTS=253
##PEAK TABLE=(XY..XY)
27,340 29,1041 31,190 33,50
39,500 41,4544 42,681 43,6426
45,691 51,200 53,841 55,5445
56,771 57,3994 58,460 59,360
64,80 65,490 66,150 67,2132
68,220 69,2052 70,250 71,4434
72,310 73,1511 74,100 75,70
76,60 77,1171 78,190 79,2652
80,591 81,3073 82,400 83,831
84,470 85,791 86,140 87,90
91,4494 92,701 93,3553 94,881
95,2472 96,370 97,741 98,140
99,100 101,80 102,80 103,290
104,230 105,3173 106,1331 107,3583
108,2082 109,1661 110,240 111,530
112,170 113,70 115,490 116,320
117,1311 118,260 119,1722 120,741
121,1962 122,991 123,1341 124,611
125,170 127,160 128,641 129,811
130,250 131,1151 132,230 133,1822
134,3033 135,3653 136,971 137,621
138,520 139,350 141,320 143,731
144,440 145,1641 146,530 147,1531
148,841 149,641 150,190 151,120
152,200 153,190 154,130 155,330
156,180 157,911 158,370 159,2562
160,921 161,6306 162,1111 163,581
164,170 165,260 166,1912 167,550
168,120 169,330 170,120 171,661
172,180 173,1561 174,2953 175,1591
176,571 177,440 178,80 179,120
180,190 181,320 182,160 183,280
184,180 185,761 186,170 187,3033
188,871 189,571 190,100 191,370
192,180 193,781 194,240 195,500
196,190 197,230 198,260 199,631
200,200 201,771 202,220 203,140
204,100 205,530 206,2923 207,831
208,280 209,450 210,250 211,250
212,110 213,500 214,350 215,440
216,100 217,200 219,1421 220,350
221,220 222,70 223,100 225,210
226,130 227,841 228,410 229,490
230,80 231,110 233,120 235,70
237,120 239,60 241,480 242,480
243,200 245,150 246,220 247,160
248,160 249,100 251,200 253,100
255,70 256,100 257,70 259,781
260,270 261,490 268,60 269,671
270,130 271,60 273,320 274,230
275,390 276,100 277,60 283,210
285,80 292,80 297,110 298,70
299,140 300,130 301,1001 302,360
311,90 313,100 314,140 315,50
325,80 326,90 328,130 329,180
330,100 339,50 340,100 341,490
342,520 343,200 349,130 353,80
354,140 355,80 357,470 358,150
364,70 365,100 367,5485 368,1251
369,210 371,80 382,1371 383,1782
384,410 385,100 386,70 396,150
397,170 399,520 400,160 401,50
413,230 414,9999 415,2813 416,490
417,70
##END=
