##TITLE=4-Methylcatechol, 2TMS derivative
##JCAMP-DX=4.24
##DATA TYPE=MASS SPECTRUM
##ORIGIN=NIST Mass Spectrometry Data Center
##OWNER=NIST Mass Spectrometry Data Center
Collection (C) 2014 copyright by the U.S. Secretary of Commerce
on behalf of the United States of America. All rights reserved.
##$NIST MASS SPEC NO=332799
##MOLFORM=C13 H24 O2 Si2
##MW=268
##$NIST SOURCE=MSDC
##XUNITS=M/Z
##YUNITS=RELATIVE INTENSITY
##XFACTOR=1
##YFACTOR=1
##FIRSTX=27
##LASTX=272
##FIRSTY=10
##MAXX=272
##MINX=27
##MAXY=9999
##MINY=10
##NPOINTS=125
##PEAK TABLE=(XY..XY)
27,10 29,30 31,20 39,30
41,10 43,160 44,100 45,1101
46,80 47,50 50,10 51,40
52,30 53,30 54,10 55,30
56,10 57,50 58,50 59,160
60,20 61,20 62,10 63,30
64,10 65,30 66,20 67,10
68,10 69,10 70,20 71,30
73,9999 74,841 75,460 76,30
77,120 78,50 79,50 81,10
82,10 83,40 85,20 87,20
89,40 90,20 91,80 92,20
93,20 95,20 96,10 97,20
99,20 101,10 102,20 103,60
104,20 105,150 106,30 107,20
109,20 110,10 111,10 113,10
115,40 116,10 117,30 118,20
119,80 120,10 121,30 122,10
131,90 132,10 133,100 134,20
135,40 136,10 137,10 145,20
146,10 147,200 149,380 150,300
151,70 152,20 153,10 159,10
161,30 162,10 163,60 165,370
166,60 167,20 175,10 177,40
179,490 180,631 181,110 182,30
191,10 192,10 193,60 194,20
195,40 196,10 207,20 209,10
221,10 223,20 237,30 238,10
239,10 251,20 252,10 253,440
254,90 255,40 256,10 266,10
268,2142 269,540 270,190 271,40
272,10
##END=
