##TITLE=Dehydroepiandrosterone, (E)-, TMS derivative
##JCAMP-DX=4.24
##DATA TYPE=MASS SPECTRUM
##ORIGIN=NIST Mass Spectrometry Data Center
##OWNER=NIST Mass Spectrometry Data Center
Collection (C) 2014 copyright by the U.S. Secretary of Commerce
on behalf of the United States of America. All rights reserved.
##$NIST MASS SPEC NO=332999
##MOLFORM=C22 H36 O2 Si
##MW=360
##$NIST SOURCE=MSDC
##XUNITS=M/Z
##YUNITS=RELATIVE INTENSITY
##XFACTOR=1
##YFACTOR=1
##FIRSTX=27
##LASTX=363
##FIRSTY=50
##MAXX=363
##MINX=27
##MAXY=9999
##MINY=10
##NPOINTS=231
##PEAK TABLE=(XY..XY)
27,50 28,20 29,110 31,10
39,100 40,30 41,571 42,50
43,250 44,50 45,390 46,30
47,170 48,10 49,10 50,10
51,30 52,20 53,260 54,50
55,811 56,60 57,90 58,40
59,230 60,40 61,190 62,10
63,20 65,160 66,50 67,550
68,60 69,170 70,20 71,40
73,3433 74,340 75,1802 76,140
77,540 78,130 79,901 80,110
81,611 82,50 83,80 84,10
85,60 86,10 87,20 88,10
89,70 91,1271 92,230 93,901
94,200 95,510 96,60 97,530
98,80 99,70 100,10 101,180
102,30 103,170 104,100 105,1051
106,250 107,651 108,150 109,300
110,60 111,50 113,70 115,320
116,270 117,500 118,180 119,841
120,290 121,661 122,130 123,150
124,30 125,20 127,80 129,9999
130,1441 131,941 132,250 133,370
134,110 135,320 136,60 137,110
138,20 139,10 141,170 142,150
143,671 144,180 145,561 146,160
147,220 148,100 149,160 151,130
152,30 153,50 154,40 155,210
156,100 157,410 158,140 159,460
160,110 161,210 162,40 163,70
164,20 165,50 166,20 167,50
168,40 169,150 170,60 171,300
172,691 173,360 174,160 175,120
176,70 177,60 178,20 179,30
180,20 181,110 182,60 183,120
184,50 185,230 186,100 187,160
188,40 189,90 190,20 191,10
193,20 194,10 195,90 196,40
197,140 198,50 199,500 200,100
201,90 202,40 203,70 204,10
205,10 207,10 208,10 209,40
210,20 211,130 212,50 213,721
214,290 215,100 216,30 217,10
219,10 220,10 221,10 222,10
223,20 224,10 225,20 226,40
227,160 228,90 229,110 230,571
231,1221 232,210 233,30 234,10
235,10 236,10 237,140 238,30
239,10 241,60 242,140 243,30
244,30 245,10 251,20 252,30
253,70 255,681 256,130 257,20
261,10 263,10 268,10 269,50
270,951 271,220 272,30 289,20
290,10 304,1411 305,380 306,90
307,20 317,10 318,10 327,20
328,10 331,10 332,10 345,350
346,100 347,20 358,10 360,1131
361,330 362,90 363,20
##END=
