##TITLE=2-Ketoadipic acid, 2TBDMS derivative
##JCAMP-DX=4.24
##DATA TYPE=MASS SPECTRUM
##ORIGIN=John Halket,Royal Holloway, University of London, UK
##OWNER=NIST Mass Spectrometry Data Center
Collection (C) 2014 copyright by the U.S. Secretary of Commerce
on behalf of the United States of America. All rights reserved.
##$NIST MASS SPEC NO=332330
##MOLFORM=C18 H36 O5 Si2
##MW=388
##$NIST SOURCE=MSDC
##XUNITS=M/Z
##YUNITS=RELATIVE INTENSITY
##XFACTOR=1
##YFACTOR=1
##FIRSTX=15
##LASTX=373
##FIRSTY=30
##MAXX=373
##MINX=15
##MAXY=9999
##MINY=10
##NPOINTS=186
##PEAK TABLE=(XY..XY)
15,30 26,10 27,240 28,140
29,641 30,20 31,70 37,10
39,300 40,80 41,1111 42,300
43,410 44,130 45,971 46,70
47,510 48,20 49,20 50,10
51,10 53,70 55,1361 56,260
57,1061 58,591 59,891 60,190
61,250 62,20 63,10 65,20
66,20 67,30 68,40 69,100
70,40 73,9999 74,1031 75,4324
76,320 77,200 78,10 79,10
81,40 82,10 83,40 85,180
86,230 87,80 88,120 89,20
93,10 94,10 95,20 97,110
98,30 99,220 101,310 102,60
103,50 104,10 105,10 107,10
109,10 110,10 111,20 112,10
113,40 115,1161 116,991 117,310
118,70 119,50 120,10 121,10
123,10 125,20 127,180 129,530
130,200 131,130 133,911 134,130
135,120 136,10 137,80 138,10
141,20 142,20 143,70 144,70
145,110 147,1872 148,350 149,480
150,60 151,40 153,10 155,540
157,6626 158,821 159,340 160,30
161,50 162,10 163,10 169,20
171,460 172,70 173,50 174,10
175,180 176,240 177,70 178,20
179,10 181,10 183,10 185,20
187,10 189,110 190,40 191,20
192,10 195,20 196,10 197,60
199,4784 200,751 201,360 202,60
203,130 204,60 205,20 211,10
213,90 214,10 215,10 216,10
217,60 218,30 219,10 223,50
224,10 229,1051 230,190 231,230
232,180 233,60 234,10 239,10
241,110 242,10 243,10 245,180
246,40 247,20 256,10 257,50
258,10 259,30 260,30 261,40
262,20 273,50 274,10 275,20
276,10 287,120 288,170 289,60
290,30 291,10 301,10 302,10
303,80 305,10 315,50 316,20
317,10 331,420 332,120 333,50
334,10 373,10
##END=
