##TITLE=7-(Trimethylsilyl)-2,6-bis[(trimethylsilyl)oxy]-7H-purine
##JCAMP-DX=4.24
##DATA TYPE=MASS SPECTRUM
##ORIGIN=NIST Mass Spectrometry Data Center
##OWNER=NIST Mass Spectrometry Data Center
Collection (C) 2014 copyright by the U.S. Secretary of Commerce
on behalf of the United States of America. All rights reserved.
##$NIST MASS SPEC NO=332895
##MOLFORM=C14 H28 N4 O2 Si3
##MW=368
##$NIST SOURCE=MSDC
##XUNITS=M/Z
##YUNITS=RELATIVE INTENSITY
##XFACTOR=1
##YFACTOR=1
##FIRSTX=27
##LASTX=373
##FIRSTY=10
##MAXX=373
##MINX=27
##MAXY=9999
##MINY=10
##NPOINTS=246
##PEAK TABLE=(XY..XY)
27,10 29,30 31,20 42,20
43,280 44,220 45,1762 46,120
47,80 52,10 53,10 54,30
55,70 56,60 57,130 58,220
59,360 60,40 61,50 65,10
66,20 67,10 68,20 69,30
70,160 71,80 72,370 73,9999
74,871 75,540 76,30 77,10
79,10 80,10 81,10 82,10
83,30 84,330 85,110 86,140
87,60 88,10 89,10 91,10
93,20 94,10 95,30 96,20
97,30 98,110 99,140 100,921
101,120 102,80 103,70 104,10
105,50 106,10 107,10 108,10
109,10 110,30 111,90 112,30
113,50 114,40 115,110 116,60
117,190 118,40 119,50 120,10
121,10 122,10 123,20 124,40
125,60 126,50 127,40 128,100
129,40 130,170 131,851 132,200
133,450 134,70 135,40 136,20
137,20 138,20 139,40 140,40
141,50 142,70 143,70 144,80
145,30 147,3733 148,581 149,310
150,40 151,30 152,40 153,30
154,30 155,40 156,60 157,130
158,631 159,140 160,80 161,20
162,10 163,10 164,20 165,20
166,30 167,40 168,40 169,110
170,50 171,150 172,140 173,70
174,140 175,20 176,10 177,10
178,20 179,20 180,30 181,70
182,40 183,50 184,40 185,30
186,10 187,10 188,10 189,10
190,10 191,20 192,10 193,10
194,20 195,20 196,20 197,30
198,50 199,20 200,10 201,10
204,10 205,30 206,50 207,40
208,40 209,30 210,40 211,30
212,10 213,10 214,10 215,10
220,20 221,70 222,70 223,60
224,50 225,30 226,10 227,10
235,20 236,90 237,60 238,260
239,70 240,40 241,10 242,10
247,10 249,30 250,20 251,50
252,120 253,50 254,40 255,10
256,10 257,10 262,10 263,50
264,20 265,510 266,110 267,50
268,40 269,60 270,20 271,10
277,30 278,220 279,1171 280,480
281,240 282,60 283,30 284,10
293,40 294,1952 295,801 296,280
297,80 298,10 309,20 310,20
311,60 312,20 313,10 323,20
324,10 325,20 326,200 327,90
328,40 329,10 337,130 338,40
339,40 340,20 341,10 342,10
351,20 353,8398 354,2562 355,1251
356,270 357,60 358,10 367,290
368,4134 369,1361 370,631 371,140
372,30 373,10
##END=
