##TITLE=3-Hydroxymandelic acid, 3TBDMS derivative
##JCAMP-DX=4.24
##DATA TYPE=MASS SPECTRUM
##ORIGIN=NIST Mass Spectrometry Data Center
##OWNER=NIST Mass Spectrometry Data Center
Collection (C) 2014 copyright by the U.S. Secretary of Commerce
on behalf of the United States of America. All rights reserved.
##$NIST MASS SPEC NO=332761
##MOLFORM=C26 H50 O4 Si3
##MW=510
##$NIST SOURCE=MSDC
##XUNITS=M/Z
##YUNITS=RELATIVE INTENSITY
##XFACTOR=1
##YFACTOR=1
##FIRSTX=15
##LASTX=498
##FIRSTY=10
##MAXX=498
##MINX=15
##MAXY=9999
##MINY=10
##NPOINTS=274
##PEAK TABLE=(XY..XY)
15,10 27,40 29,320 30,10
31,20 39,100 41,661 42,40
43,140 44,30 45,430 46,30
47,90 50,10 51,10 53,20
55,70 56,420 57,1361 58,330
59,891 60,80 61,80 62,10
63,20 65,10 66,10 69,20
70,10 73,9999 74,1171 75,1371
76,100 77,150 78,20 79,10
81,10 83,40 85,180 86,30
87,20 89,140 90,50 91,240
92,20 93,10 95,60 96,10
97,30 99,190 100,90 101,40
102,30 103,160 104,60 105,310
106,30 107,40 109,20 111,10
113,30 115,621 116,90 117,240
118,50 119,210 120,30 121,60
122,10 123,30 127,10 128,20
129,40 131,280 133,1071 134,170
135,360 136,50 137,70 138,10
141,10 143,30 144,10 145,80
147,6556 148,1171 149,971 150,140
151,360 152,50 153,20 155,10
157,30 159,70 161,200 162,70
163,380 164,130 165,100 166,20
167,10 168,10 169,210 173,70
174,20 175,60 176,30 177,180
179,631 180,110 181,130 182,20
183,10 185,10 187,20 189,290
191,661 192,190 193,330 194,70
195,110 196,20 197,20 198,90
201,10 203,50 204,30 205,330
206,160 207,480 208,110 209,330
210,60 211,40 212,10 215,10
217,40 218,10 219,130 220,120
221,280 222,80 223,160 224,40
225,70 226,20 227,10 231,40
232,10 233,30 235,140 237,641
238,190 239,90 240,20 241,10
245,20 246,10 247,20 248,20
249,70 250,20 251,70 253,561
254,120 255,60 256,10 261,30
262,20 263,50 264,20 265,150
266,50 267,100 268,30 269,20
275,20 276,10 277,30 278,20
279,60 280,60 281,310 282,80
283,50 284,10 291,10 293,340
294,290 295,270 296,80 297,50
298,10 305,10 306,10 307,20
308,10 309,30 311,150 312,50
313,30 314,10 319,50 320,20
321,40 322,70 323,80 324,30
325,40 326,10 327,20 335,90
336,110 337,50 338,20 339,40
340,20 341,10 349,60 351,7016
352,2372 353,1021 354,220 355,50
356,10 363,360 364,120 365,60
366,10 367,70 368,50 369,120
370,40 371,20 377,20 379,170
380,60 381,40 382,10 383,10
395,10 396,50 397,120 398,40
399,20 409,30 410,10 411,10
423,30 425,8358 426,3693 427,1712
428,430 429,100 430,20 437,10
438,10 439,50 440,20 441,10
453,8077 454,3673 455,1712 456,430
457,100 458,20 467,140 468,60
469,30 470,10 495,300 496,130
497,60 498,20
##END=
