##TITLE=Coprostan-3-ol, methyl ether
##JCAMP-DX=4.24
##DATA TYPE=MASS SPECTRUM
##ORIGIN=NIST Mass Spectrometry Data Center
##OWNER=NIST Mass Spectrometry Data Center
Collection (C) 2014 copyright by the U.S. Secretary of Commerce
on behalf of the United States of America. All rights reserved.
##$NIST MASS SPEC NO=332887
##MOLFORM=C28 H50 O
##MW=402
##$NIST SOURCE=MSDC
##XUNITS=M/Z
##YUNITS=RELATIVE INTENSITY
##XFACTOR=1
##YFACTOR=1
##FIRSTX=15
##LASTX=404
##FIRSTY=40
##MAXX=404
##MINX=15
##MAXY=9999
##MINY=30
##NPOINTS=221
##PEAK TABLE=(XY..XY)
15,40 27,250 29,701 32,170
33,50 39,280 40,180 41,3944
42,400 43,6246 45,470 53,891
54,170 55,7026 56,921 57,4614
58,621 59,150 65,350 66,90
67,3894 68,711 69,3033 70,400
71,3023 72,340 73,530 77,991
78,230 79,3964 80,921 81,5415
82,1031 83,1641 84,821 85,1091
86,160 87,60 88,50 90,40
91,2732 92,731 93,5345 94,1832
95,5925 96,771 97,1702 98,230
99,120 100,110 101,370 102,120
103,130 104,140 105,3313 106,1902
107,5725 108,5955 109,3833 110,901
111,1021 112,130 113,40 115,350
116,100 117,661 118,440 119,2162
120,1511 121,3483 122,2002 123,2222
124,520 125,601 126,70 128,150
129,220 131,1011 132,270 133,2322
134,1311 135,2592 136,1541 137,651
138,1311 139,290 140,40 142,140
143,140 144,110 145,1541 146,510
147,3313 148,1531 149,2492 150,550
151,581 152,490 153,90 157,130
158,50 159,851 160,811 161,1962
162,781 163,771 164,100 165,310
166,50 171,60 172,40 173,1051
174,510 175,851 176,430 177,631
178,400 179,561 180,240 181,250
182,50 183,30 185,50 186,30
187,510 188,340 189,410 190,641
191,260 192,190 193,180 194,50
199,110 200,60 201,1041 202,480
203,330 204,130 205,410 206,130
207,210 213,50 215,6105 216,2732
217,2342 218,500 219,190 220,160
229,300 230,801 231,520 232,100
233,330 234,130 241,30 242,30
243,160 244,180 245,150 247,2202
248,1531 249,230 250,50 255,60
256,70 257,1171 258,280 259,90
260,180 261,140 262,1491 263,310
264,50 269,40 273,80 274,220
275,110 276,140 285,90 286,60
287,200 288,230 289,110 299,40
300,50 301,90 302,150 303,50
313,110 314,200 315,200 316,280
317,50 318,40 327,70 328,200
329,400 330,100 331,60 341,50
342,40 344,110 345,2442 346,691
347,130 353,40 355,5135 356,1341
357,210 369,40 370,9999 371,2983
372,571 373,40 387,1211 388,460
389,90 400,90 402,791 403,250
404,50
##END=
