##TITLE=D-(+)-Gluconolactone, 4TMS derivative
##JCAMP-DX=4.24
##DATA TYPE=MASS SPECTRUM
##ORIGIN=NIST Mass Spectrometry Data Center
##OWNER=NIST Mass Spectrometry Data Center
Collection (C) 2014 copyright by the U.S. Secretary of Commerce
on behalf of the United States of America. All rights reserved.
##$NIST MASS SPEC NO=332831
##MOLFORM=C18 H42 O6 Si4
##MW=466
##$NIST SOURCE=MSDC
##XUNITS=M/Z
##YUNITS=RELATIVE INTENSITY
##XFACTOR=1
##YFACTOR=1
##FIRSTX=15
##LASTX=469
##FIRSTY=10
##MAXX=469
##MINX=15
##MAXY=9999
##MINY=10
##NPOINTS=255
##PEAK TABLE=(XY..XY)
15,10 27,10 28,10 29,30
31,20 39,20 41,40 43,150
44,170 45,991 46,70 47,110
52,10 53,60 54,30 55,140
56,20 57,60 58,100 59,530
60,50 61,90 62,10 65,10
66,20 67,30 68,20 69,80
70,50 71,80 73,9999 74,1301
75,1141 76,70 77,40 79,10
81,190 82,10 83,80 84,10
85,70 86,20 87,70 88,30
89,300 90,30 91,20 94,10
95,10 96,10 97,50 98,20
99,100 101,320 102,470 103,1421
104,160 105,100 106,10 107,10
109,10 111,60 112,10 113,130
114,20 115,180 116,120 117,1141
118,130 119,190 120,20 121,20
125,20 126,10 127,70 129,3593
130,871 131,661 133,1541 134,220
135,180 136,20 137,10 139,10
140,20 141,60 142,60 143,711
144,100 145,170 147,5175 148,881
149,771 150,90 151,80 152,10
153,40 154,10 155,140 157,1021
158,140 159,110 160,20 161,90
162,20 163,100 164,20 165,10
167,10 169,711 170,110 171,160
172,20 173,90 174,20 175,120
176,80 177,190 178,30 179,20
181,10 183,10 185,40 186,10
187,40 189,1782 190,400 191,1041
192,190 193,110 194,20 195,10
197,140 198,20 199,40 201,300
202,80 203,420 204,2092 205,611
206,220 207,170 208,40 209,20
213,10 215,370 217,2212 218,631
219,1081 220,2903 221,841 222,300
223,60 224,10 227,70 229,2472
230,811 231,591 232,160 233,100
234,30 235,10 241,30 243,1081
244,250 245,380 246,100 247,70
248,10 249,10 255,10 257,330
258,160 259,330 260,80 261,30
262,30 263,10 264,10 265,60
266,10 267,10 269,10 271,360
272,80 273,90 274,20 275,10
277,60 278,20 279,10 285,10
286,20 287,120 288,30 289,30
291,300 292,140 293,110 294,30
295,10 303,20 305,530 306,210
307,110 308,30 309,10 315,10
317,300 319,5895 320,1862 321,931
322,190 323,50 324,10 331,540
332,190 333,1081 334,330 335,520
336,140 337,60 338,10 343,20
344,10 345,20 346,10 347,20
348,20 349,10 358,10 359,50
361,500 362,150 363,100 364,20
365,10 376,80 377,80 378,40
379,20 380,10 393,30 394,10
395,10 421,10 423,10 451,280
452,110 453,60 454,20 466,230
467,90 468,50 469,20
##END=
