##TITLE=Androsterone, (E)-, TMS derivative
##JCAMP-DX=4.24
##DATA TYPE=MASS SPECTRUM
##ORIGIN=NIST Mass Spectrometry Data Center
##OWNER=NIST Mass Spectrometry Data Center
Collection (C) 2014 copyright by the U.S. Secretary of Commerce
on behalf of the United States of America. All rights reserved.
##$NIST MASS SPEC NO=332796
##MOLFORM=C22 H38 O2 Si
##MW=362
##$NIST SOURCE=MSDC
##XUNITS=M/Z
##YUNITS=RELATIVE INTENSITY
##XFACTOR=1
##YFACTOR=1
##FIRSTX=15
##LASTX=365
##FIRSTY=20
##MAXX=365
##MINX=15
##MAXY=9999
##MINY=10
##NPOINTS=271
##PEAK TABLE=(XY..XY)
15,20 16,10 27,80 28,100
29,250 30,20 31,20 36,10
39,240 40,70 41,1631 42,160
43,611 44,150 45,761 46,60
47,470 48,30 49,20 50,10
51,40 52,50 53,811 54,240
55,3043 56,190 57,240 58,90
59,691 60,160 61,741 62,40
63,20 65,360 66,190 67,2342
68,340 69,571 70,90 71,100
72,90 73,4904 74,631 75,9799
76,751 77,1421 78,240 79,2702
80,410 81,2943 82,340 83,380
84,40 85,140 86,20 87,60
88,50 89,200 91,2893 92,550
93,2883 94,581 95,1962 96,220
97,951 98,90 99,140 100,30
101,571 102,70 103,270 104,170
105,2642 106,1361 107,3203 108,1191
109,1181 110,280 111,260 112,30
113,130 114,30 115,390 116,220
117,731 118,260 119,1491 120,591
121,1301 122,320 123,540 124,260
125,140 126,30 127,190 128,180
129,2783 130,1872 131,1361 132,310
133,1191 134,460 135,701 136,310
137,370 138,681 139,40 140,20
141,150 142,1732 143,661 144,380
145,1591 146,420 147,1541 148,460
149,571 150,250 151,310 153,50
155,2943 156,480 157,490 158,200
159,951 160,300 161,1291 162,320
163,320 164,160 165,150 166,30
167,60 168,20 169,150 170,40
171,260 172,130 173,631 174,300
175,581 176,270 177,120 178,30
179,40 180,10 181,100 182,110
183,170 184,40 185,200 186,70
187,400 188,120 189,260 190,200
191,140 193,10 194,20 195,30
196,120 197,170 198,70 199,290
200,90 201,540 202,150 203,220
204,240 205,90 206,20 209,40
210,10 211,90 212,10 213,360
214,180 215,1341 216,581 217,430
218,170 219,30 223,20 224,30
225,40 226,30 227,60 228,250
229,240 230,110 231,150 232,440
233,500 234,80 235,20 236,30
237,30 238,20 239,220 240,50
241,30 242,20 243,150 244,290
245,40 246,30 247,20 249,20
250,10 251,10 252,10 253,250
254,170 255,320 256,80 257,601
258,130 259,10 260,10 263,20
264,10 265,20 266,10 268,10
270,60 271,1021 272,1822 273,420
274,50 276,20 277,20 278,10
280,10 287,50 288,30 291,40
292,30 293,60 294,20 303,10
304,40 305,390 306,290 307,90
308,30 311,10 315,10 318,40
319,30 320,10 329,30 330,10
331,20 332,10 333,30 335,10
337,10 342,10 344,40 345,10
347,9999 348,2722 349,701 350,110
351,30 360,10 361,80 362,1611
363,430 364,130 365,20
##END=
