##TITLE=N-Acetyl-L-phenylalanine, TBDMS derivative
##JCAMP-DX=4.24
##DATA TYPE=MASS SPECTRUM
##ORIGIN=NIST Mass Spectrometry Data Center
##OWNER=NIST Mass Spectrometry Data Center
Collection (C) 2014 copyright by the U.S. Secretary of Commerce
on behalf of the United States of America. All rights reserved.
##$NIST MASS SPEC NO=332877
##MOLFORM=C17 H27 N O3 Si
##MW=321
##$NIST SOURCE=MSDC
##XUNITS=M/Z
##YUNITS=RELATIVE INTENSITY
##XFACTOR=1
##YFACTOR=1
##FIRSTX=14
##LASTX=323
##FIRSTY=10
##MAXX=323
##MINX=14
##MAXY=9999
##MINY=10
##NPOINTS=194
##PEAK TABLE=(XY..XY)
14,10 15,50 26,10 27,90
28,180 29,350 30,50 31,40
37,10 38,20 39,360 40,60
41,801 42,410 43,3663 44,200
45,841 46,60 47,711 48,40
49,30 50,50 51,190 52,60
53,60 54,30 55,140 56,200
57,761 58,340 59,901 60,260
61,310 62,40 63,130 64,40
65,691 66,40 67,20 68,50
69,20 70,20 71,40 72,70
73,4304 74,891 75,7467 76,611
77,981 78,200 79,50 80,20
81,10 82,10 83,20 84,30
85,120 86,150 87,260 88,90
89,190 90,130 91,2923 92,350
93,190 94,30 95,10 97,10
98,20 99,130 100,140 101,90
102,300 103,1511 104,1481 105,220
106,20 107,20 111,10 112,10
113,10 114,70 115,450 116,3173
117,801 118,761 119,500 120,5485
121,550 122,30 123,10 124,10
126,10 127,10 128,90 129,120
130,931 131,1401 132,330 133,80
134,30 135,80 136,10 137,20
142,20 143,40 144,280 145,260
146,140 147,130 148,50 149,60
150,10 151,10 156,10 157,10
158,60 159,60 160,120 161,1101
162,1261 163,180 164,20 165,10
172,70 173,160 174,50 175,30
176,190 177,410 178,100 179,30
180,10 181,10 186,20 188,2492
189,430 190,230 191,30 192,30
193,80 194,1051 195,240 196,70
197,10 200,20 201,10 202,20
203,30 205,8638 206,1571 207,530
208,70 209,10 218,130 219,30
220,70 221,80 222,450 223,90
224,30 230,30 231,10 232,10
233,10 234,30 235,10 236,220
237,40 238,10 246,10 247,30
248,20 249,10 250,10 260,10
261,10 262,30 264,9999 265,2002
266,581 267,70 268,10 276,10
277,10 278,30 279,10 303,10
306,310 307,70 308,20 321,100
322,30 323,10
##END=
