##TITLE=2-Butenedioic acid, 2TBDMS derivative
##JCAMP-DX=4.24
##DATA TYPE=MASS SPECTRUM
##ORIGIN=NIST Mass Spectrometry Data Center
##OWNER=NIST Mass Spectrometry Data Center
Collection (C) 2014 copyright by the U.S. Secretary of Commerce
on behalf of the United States of America. All rights reserved.
##$NIST MASS SPEC NO=332854
##MOLFORM=C16 H32 O4 Si2
##MW=344
##$NIST SOURCE=MSDC
##XUNITS=M/Z
##YUNITS=RELATIVE INTENSITY
##XFACTOR=1
##YFACTOR=1
##FIRSTX=15
##LASTX=331
##FIRSTY=10
##MAXX=331
##MINX=15
##MAXY=9999
##MINY=10
##NPOINTS=152
##PEAK TABLE=(XY..XY)
15,10 26,10 27,50 28,20
29,260 30,10 31,20 38,10
39,120 40,30 41,550 42,50
43,160 44,30 45,400 46,30
47,260 48,10 49,10 50,10
51,20 52,10 53,130 54,200
55,400 56,130 57,791 58,400
59,520 60,100 61,130 62,10
66,20 67,30 68,30 69,110
70,20 71,30 73,4824 74,460
75,1982 76,140 77,80 78,10
79,10 80,10 81,20 82,200
83,300 84,721 85,220 86,50
87,20 89,20 93,10 95,20
96,10 97,30 98,20 99,220
100,40 101,40 102,10 103,50
104,10 105,20 108,10 109,10
111,20 112,10 113,210 114,80
115,330 116,50 117,240 118,40
119,90 120,10 121,10 125,10
126,10 127,80 128,420 129,190
130,40 131,70 132,200 133,1011
134,150 135,120 136,10 137,10
141,10 143,220 144,40 145,60
147,911 148,150 149,200 150,30
151,20 155,90 156,310 157,150
158,30 159,140 160,20 161,20
162,10 169,10 170,10 171,60
172,10 173,100 174,20 175,10
176,40 177,10 185,60 186,10
187,20 188,10 189,10 190,10
198,10 201,10 202,20 203,30
204,10 213,70 214,10 217,10
229,10 230,140 231,40 232,20
233,10 245,340 246,70 247,40
259,40 260,10 271,10 272,20
273,10 287,9999 288,2582 289,1071
290,190 291,30 330,60 331,20
##END=
