##TITLE=3-Hydroxymandelic acid, methyl ester
##JCAMP-DX=4.24
##DATA TYPE=MASS SPECTRUM
##ORIGIN=NIST Mass Spectrometry Data Center
##OWNER=NIST Mass Spectrometry Data Center
Collection (C) 2014 copyright by the U.S. Secretary of Commerce
on behalf of the United States of America. All rights reserved.
##$NIST MASS SPEC NO=332763
##MOLFORM=C9 H10 O4
##MW=182
##$NIST SOURCE=MSDC
##XUNITS=M/Z
##YUNITS=RELATIVE INTENSITY
##XFACTOR=1
##YFACTOR=1
##FIRSTX=14
##LASTX=184
##FIRSTY=10
##MAXX=184
##MINX=14
##MAXY=9999
##MINY=10
##NPOINTS=83
##PEAK TABLE=(XY..XY)
14,10 15,250 26,30 27,140
28,60 29,410 30,50 31,100
32,20 33,30 37,70 38,250
39,1301 40,290 41,500 42,70
43,70 44,40 45,50 46,20
47,30 49,30 50,330 51,801
52,170 53,320 54,50 55,390
56,20 59,360 60,20 61,100
62,210 63,470 64,200 65,1772
66,871 67,500 68,60 69,20
74,110 75,90 77,5345 78,470
79,70 80,10 81,30 82,10
85,10 86,10 87,10 91,30
92,90 93,781 94,771 95,9999
96,671 97,40 105,90 106,40
107,50 108,10 109,20 110,20
119,10 121,1101 122,611 123,9959
124,781 125,90 126,10 134,70
135,10 137,40 138,10 149,20
150,10 153,10 166,10 180,10
182,3033 183,300 184,40
##END=
