##TITLE=Dodecanedioic acid, TBDMS derivative
##JCAMP-DX=4.24
##DATA TYPE=MASS SPECTRUM
##ORIGIN=NIST Mass Spectrometry Data Center
##OWNER=NIST Mass Spectrometry Data Center
Collection (C) 2014 copyright by the U.S. Secretary of Commerce
on behalf of the United States of America. All rights reserved.
##$NIST MASS SPEC NO=332828
##MOLFORM=C18 H36 O4 Si
##MW=344
##$NIST SOURCE=MSDC
##XUNITS=M/Z
##YUNITS=RELATIVE INTENSITY
##XFACTOR=1
##YFACTOR=1
##FIRSTX=15
##LASTX=343
##FIRSTY=10
##MAXX=343
##MINX=15
##MAXY=9999
##MINY=10
##NPOINTS=225
##PEAK TABLE=(XY..XY)
15,10 26,30 27,250 28,280
29,550 30,50 31,70 36,20
37,10 38,40 39,380 40,100
41,1762 42,390 43,1001 44,100
45,851 46,40 47,490 48,20
49,20 50,20 51,50 52,30
53,260 54,320 55,2853 56,370
57,791 58,330 59,651 60,1171
61,340 62,30 63,30 65,50
66,30 67,921 68,150 69,1061
70,120 71,170 72,240 73,3593
74,561 75,9999 76,771 77,731
78,50 79,440 80,80 81,1231
82,150 83,821 84,220 85,280
86,180 87,120 88,80 89,40
90,10 91,270 92,40 93,1041
94,100 95,561 96,90 97,490
98,470 99,440 100,70 101,210
102,50 103,110 104,30 105,340
106,50 107,370 108,80 109,230
110,40 111,250 112,140 113,60
114,170 115,611 116,741 117,1942
118,270 119,210 120,30 121,160
122,30 123,90 124,30 125,100
126,30 127,50 129,2973 130,390
131,1141 132,150 133,340 134,60
135,691 136,631 137,60 138,30
139,30 141,120 142,40 143,180
144,40 145,80 146,10 147,140
148,30 149,581 150,80 151,50
152,20 153,50 154,10 155,210
156,50 157,450 158,90 159,1251
160,170 161,40 163,20 165,30
166,40 167,260 168,50 169,270
170,70 171,861 172,150 173,110
174,20 175,120 176,30 177,350
178,50 179,50 181,40 182,10
183,110 184,30 185,380 186,70
187,160 188,30 189,20 192,10
193,70 194,50 195,170 196,30
197,40 198,10 199,110 200,20
201,40 205,10 208,10 209,30
211,40 213,2833 214,510 215,270
216,40 217,20 221,30 223,40
224,10 225,220 226,60 227,200
228,40 229,80 230,10 233,60
234,10 235,10 237,20 239,240
240,50 241,2252 242,440 243,230
244,40 249,40 251,1692 252,350
253,140 254,20 255,80 256,30
257,10 259,10 269,470 270,100
271,100 272,20 273,10 283,20
284,10 285,180 287,4844 288,1001
289,300 290,40 291,10 293,70
294,20 295,10 307,10 311,150
312,40 327,30 328,10 329,50
343,10
##END=
