##TITLE=4-Hydroxyphenylpyruvic acid, methyl ether, methyl ester
##JCAMP-DX=4.24
##DATA TYPE=MASS SPECTRUM
##ORIGIN=NIST Mass Spectrometry Data Center
##OWNER=NIST Mass Spectrometry Data Center
Collection (C) 2014 copyright by the U.S. Secretary of Commerce
on behalf of the United States of America. All rights reserved.
##$NIST MASS SPEC NO=332839
##MOLFORM=C11 H12 O4
##MW=208
##$NIST SOURCE=MSDC
##XUNITS=M/Z
##YUNITS=RELATIVE INTENSITY
##XFACTOR=1
##YFACTOR=1
##FIRSTX=15
##LASTX=210
##FIRSTY=80
##MAXX=210
##MINX=15
##MAXY=9999
##MINY=10
##NPOINTS=94
##PEAK TABLE=(XY..XY)
15,80 27,50 28,20 29,40
30,10 31,20 38,30 39,260
40,30 41,530 42,20 43,80
45,20 50,90 51,210 52,80
53,110 54,10 55,50 57,20
58,10 59,160 60,10 61,10
62,50 63,210 64,100 65,310
66,50 67,20 68,10 69,10
70,10 73,10 74,40 75,50
76,50 77,571 78,230 79,210
80,20 81,10 86,10 87,10
88,10 89,190 90,150 91,921
92,140 93,70 94,250 95,20
98,10 101,40 102,70 103,210
104,60 105,160 106,100 107,70
108,110 109,1001 110,80 111,10
115,210 116,50 117,160 118,140
119,170 121,1922 122,170 123,20
131,30 132,20 133,571 134,230
135,140 136,20 137,10 145,10
146,10 147,60 149,9999 150,1061
151,110 152,10 161,10 165,70
166,10 177,10 193,20 208,801
209,110 210,10
##END=
