##TITLE=Inosine, 4TMS derivative
##JCAMP-DX=4.24
##DATA TYPE=MASS SPECTRUM
##ORIGIN=NIST Mass Spectrometry Data Center
##OWNER=NIST Mass Spectrometry Data Center
Collection (C) 2014 copyright by the U.S. Secretary of Commerce
on behalf of the United States of America. All rights reserved.
##$NIST MASS SPEC NO=332747
##MOLFORM=C22 H44 N4 O5 Si4
##MW=556
##$NIST SOURCE=MSDC
##XUNITS=M/Z
##YUNITS=RELATIVE INTENSITY
##XFACTOR=1
##YFACTOR=1
##FIRSTX=29
##LASTX=558
##FIRSTY=20
##MAXX=558
##MINX=29
##MAXY=9999
##MINY=10
##NPOINTS=321
##PEAK TABLE=(XY..XY)
29,20 31,10 39,10 41,20
42,10 43,90 44,80 45,510
46,40 47,50 52,10 53,30
54,20 55,90 56,20 57,40
58,100 59,270 60,30 61,50
65,10 66,10 67,20 68,20
69,110 70,40 71,50 73,9999
74,981 75,911 76,50 77,30
79,10 80,10 81,50 82,10
83,20 84,110 85,110 86,40
87,50 88,20 89,140 90,10
91,10 92,10 93,10 94,10
95,20 96,10 97,60 98,30
99,120 100,60 101,270 103,1892
104,180 105,90 106,10 107,10
108,10 109,10 110,100 111,130
112,30 113,140 114,30 115,390
116,200 117,450 118,60 119,100
120,20 121,10 122,10 123,30
124,40 125,40 126,40 127,80
129,651 130,90 131,320 132,60
133,611 134,110 135,70 136,20
137,20 138,110 139,40 140,40
141,80 142,80 143,320 144,70
145,170 147,2292 148,380 149,300
150,60 151,30 152,30 153,50
154,20 155,50 156,50 157,160
158,50 159,40 160,10 161,20
162,60 163,80 164,40 165,60
166,160 167,50 168,40 169,520
170,90 171,80 172,20 173,40
174,10 175,40 176,20 177,80
178,30 179,40 180,40 181,30
182,20 183,20 184,10 185,10
186,10 187,20 189,310 190,60
191,190 192,120 193,1882 194,290
195,90 196,10 197,10 199,10
201,30 202,10 203,50 204,130
205,100 206,100 207,540 208,240
209,961 210,150 211,50 212,10
213,10 215,180 217,6606 218,1431
219,721 220,110 221,110 222,40
223,20 224,10 225,10 227,10
230,5265 231,1331 232,540 233,120
234,30 235,60 237,1952 238,340
239,110 240,20 241,10 243,1291
244,340 245,3183 246,701 247,330
248,80 249,50 250,20 251,20
252,10 253,10 254,10 257,160
258,460 259,2512 260,581 261,250
262,40 263,30 265,340 266,100
267,90 268,20 269,10 271,10
275,10 276,10 277,20 278,20
279,160 280,721 281,2883 282,721
283,280 284,50 285,10 287,10
289,10 291,50 292,20 293,40
294,30 295,30 296,10 297,10
303,10 304,10 305,20 307,601
308,160 309,290 310,90 311,40
312,10 317,10 318,20 319,60
320,140 321,90 322,100 323,601
324,160 325,70 326,10 331,10
332,10 333,90 334,30 335,310
336,80 337,40 338,120 339,160
340,50 341,20 347,60 348,881
349,290 350,140 351,40 352,10
353,20 354,10 355,10 361,20
363,170 364,50 365,20 366,10
375,20 376,70 377,70 378,20
379,30 380,10 381,10 382,10
383,10 393,20 395,340 396,120
397,70 398,20 399,10 409,20
410,10 411,10 412,10 421,10
423,20 424,20 425,40 426,10
427,10 437,20 438,10 439,10
451,40 452,20 453,210 454,70
455,30 456,10 465,10 466,130
467,60 468,30 469,20 470,10
483,10 541,861 542,390 543,210
544,60 545,20 556,40 557,20
558,10
##END=
