##TITLE=trans-Androsterone, methyl ether
##JCAMP-DX=4.24
##DATA TYPE=MASS SPECTRUM
##ORIGIN=NIST Mass Spectrometry Data Center
##OWNER=NIST Mass Spectrometry Data Center
Collection (C) 2014 copyright by the U.S. Secretary of Commerce
on behalf of the United States of America. All rights reserved.
##$NIST MASS SPEC NO=332794
##MOLFORM=C20 H32 O2
##MW=304
##$NIST SOURCE=MSDC
##XUNITS=M/Z
##YUNITS=RELATIVE INTENSITY
##XFACTOR=1
##YFACTOR=1
##FIRSTX=14
##LASTX=307
##FIRSTY=20
##MAXX=307
##MINX=14
##MAXY=9999
##MINY=10
##NPOINTS=249
##PEAK TABLE=(XY..XY)
14,20 26,10 27,410 28,330
29,1101 30,80 31,80 33,100
35,10 38,40 39,1051 40,350
41,6116 42,591 43,1611 45,1361
46,30 50,30 51,260 52,190
53,2702 54,701 55,7076 56,691
57,811 58,1051 59,350 60,30
62,20 63,60 64,30 65,1191
66,520 67,6005 68,971 69,1431
70,170 71,3023 72,821 73,2883
74,130 76,30 77,2692 78,661
79,6476 80,1221 81,4664 82,1001
83,791 84,1992 85,601 86,120
87,140 88,100 89,70 91,5715
92,1221 93,6015 94,2362 95,3633
96,571 97,4324 98,530 99,120
100,50 101,380 102,100 103,350
104,350 105,4364 106,3083 107,9669
108,7857 109,3353 110,1441 111,691
112,80 113,40 114,40 115,751
116,330 117,1081 118,651 119,3033
120,2422 121,2863 122,1822 123,1772
124,1511 125,991 126,130 127,120
128,320 129,500 130,250 131,1511
132,530 133,2272 134,1431 135,1481
136,1461 137,611 138,1631 139,400
140,50 141,150 142,50 143,470
144,380 145,2192 146,1121 147,3563
148,1702 149,1451 150,781 151,1191
152,571 153,150 154,40 155,110
156,60 157,390 158,330 159,1441
160,941 161,1611 162,861 163,621
164,1541 165,601 166,130 167,40
168,10 169,90 170,40 171,370
172,200 173,1101 174,761 175,831
176,1011 177,320 178,270 179,761
180,230 181,40 182,10 183,150
184,60 185,280 186,210 187,661
188,270 189,430 190,1491 191,711
192,90 193,60 194,10 195,10
197,190 198,90 199,410 200,160
201,1631 202,450 203,520 204,270
205,210 206,70 207,110 208,40
209,30 210,20 211,80 212,120
213,1451 214,410 215,2292 216,1912
217,651 218,430 219,100 220,130
221,50 222,10 223,10 224,10
225,100 226,50 227,90 228,1181
229,861 230,540 231,420 232,460
233,691 234,110 235,20 236,10
237,20 238,10 239,1521 240,360
241,80 242,20 243,270 244,430
245,350 246,190 247,1151 248,841
249,140 250,20 253,40 254,1041
255,250 256,20 257,1692 258,300
259,60 260,1992 261,540 262,210
263,40 270,10 271,380 272,1351
273,340 274,40 275,30 276,90
277,30 283,10 284,10 286,390
287,90 289,1001 290,140 291,20
293,10 294,10 295,10 302,20
303,70 304,9999 305,2302 306,270
307,20
##END=
