##TITLE=11.alpha.-Hydroxyprogesterone, methyl ether
##JCAMP-DX=4.24
##DATA TYPE=MASS SPECTRUM
##ORIGIN=NIST Mass Spectrometry Data Center
##OWNER=NIST Mass Spectrometry Data Center
Collection (C) 2014 copyright by the U.S. Secretary of Commerce
on behalf of the United States of America. All rights reserved.
##$NIST MASS SPEC NO=332961
##MOLFORM=C22 H32 O3
##MW=344
##$NIST SOURCE=MSDC
##XUNITS=M/Z
##YUNITS=RELATIVE INTENSITY
##XFACTOR=1
##YFACTOR=1
##FIRSTX=15
##LASTX=347
##FIRSTY=90
##MAXX=347
##MINX=15
##MAXY=9999
##MINY=10
##NPOINTS=273
##PEAK TABLE=(XY..XY)
15,90 26,20 27,190 29,350
31,50 33,30 39,581 40,130
41,2422 42,200 43,9999 44,150
45,1611 46,20 50,30 51,210
52,190 53,1371 54,200 55,2803
56,200 57,230 58,350 59,220
60,10 61,30 63,50 64,40
65,761 66,300 67,1581 68,200
69,661 70,30 71,2182 72,120
75,50 76,20 77,2112 78,530
79,3313 80,591 81,2332 82,260
83,450 84,400 85,2082 86,150
87,40 88,20 89,120 90,40
91,4584 92,771 93,1972 94,661
95,1491 96,320 97,671 98,270
99,150 100,60 101,20 102,40
103,440 104,270 105,2973 106,921
107,2192 108,571 109,2212 110,671
111,3143 112,921 113,250 114,90
115,801 116,390 117,1381 118,460
119,1972 120,1121 121,1802 122,1922
123,2202 124,2192 125,520 126,90
127,200 128,601 129,881 130,490
131,1692 132,701 133,1722 134,1221
135,1231 136,1121 137,1181 138,310
139,851 140,200 141,711 142,300
143,1021 144,430 145,2122 146,721
147,2272 148,851 149,1281 150,470
151,320 152,150 153,250 154,150
155,380 156,190 157,731 158,290
159,1021 160,500 161,1011 162,1051
163,1271 164,330 165,250 166,90
167,130 168,70 169,350 170,170
171,601 172,340 173,1301 174,591
175,951 176,370 177,320 178,100
179,130 180,30 181,250 182,160
183,270 184,150 185,370 186,240
187,601 188,300 189,1041 190,641
191,330 192,70 193,80 194,50
195,140 196,90 197,170 198,100
199,450 200,220 201,320 202,220
203,140 204,150 205,240 206,70
207,460 208,130 209,310 210,110
211,190 212,100 213,370 214,150
215,150 216,100 217,40 218,60
219,90 220,3583 221,1832 222,250
223,180 224,70 225,170 226,120
227,761 228,260 229,210 230,60
231,70 232,20 233,310 234,70
235,30 236,50 237,100 238,30
239,200 240,70 241,410 242,460
243,180 244,70 245,40 246,10
247,60 248,60 249,60 250,20
251,220 252,100 253,70 254,140
255,210 256,80 257,150 258,70
259,80 260,30 261,40 265,60
266,50 267,60 268,100 269,861
270,330 271,110 272,30 273,220
274,380 275,70 276,10 277,10
279,200 280,50 281,50 283,50
284,220 285,270 286,100 287,50
288,30 293,20 294,220 295,70
296,30 297,561 298,160 299,60
300,30 301,200 302,70 303,10
311,50 312,1922 313,741 314,120
315,10 316,50 317,30 323,10
326,60 327,10 329,320 330,60
331,10 344,3113 345,761 346,100
347,10
##END=
