##TITLE=Octanoic acid, 2-methoxy-, methyl ester, (.+/-.)-
##JCAMP-DX=4.24
##DATA TYPE=MASS SPECTRUM
##ORIGIN=NIST Mass Spectrometry Data Center
##OWNER=NIST Mass Spectrometry Data Center
Collection (C) 2014 copyright by the U.S. Secretary of Commerce
on behalf of the United States of America. All rights reserved.
##$NIST MASS SPEC NO=332742
##MOLFORM=C10 H20 O3
##MW=188
##$NIST SOURCE=MSDC
##XUNITS=M/Z
##YUNITS=RELATIVE INTENSITY
##XFACTOR=1
##YFACTOR=1
##FIRSTX=15
##LASTX=173
##FIRSTY=110
##MAXX=173
##MINX=15
##MAXY=9999
##MINY=10
##NPOINTS=89
##PEAK TABLE=(XY..XY)
15,110 26,30 27,420 28,140
29,761 30,30 31,130 33,80
38,20 39,530 40,90 41,1772
42,280 43,1641 44,110 45,3483
46,80 47,180 50,10 51,50
52,20 53,290 55,9999 56,561
57,631 58,991 59,891 60,40
61,20 63,10 65,60 66,20
67,320 68,130 69,1511 70,130
71,1281 72,150 73,70 74,50
75,340 76,10 77,30 78,10
79,50 80,10 81,210 82,60
83,80 84,50 85,190 86,20
87,350 88,20 89,180 90,10
91,10 93,20 94,10 95,210
97,8117 98,701 99,100 100,50
101,30 103,90 104,330 105,10
109,10 111,10 113,100 114,20
115,40 117,20 123,10 124,10
125,10 126,10 127,80 129,9408
130,851 131,50 141,30 146,10
156,70 157,10 158,30 159,10
173,10
##END=
