##TITLE=3-Hydroxybutyric acid, (R)-, 2TBDMS derivative
##JCAMP-DX=4.24
##DATA TYPE=MASS SPECTRUM
##ORIGIN=NIST Mass Spectrometry Data Center
##OWNER=NIST Mass Spectrometry Data Center
Collection (C) 2014 copyright by the U.S. Secretary of Commerce
on behalf of the United States of America. All rights reserved.
##$NIST MASS SPEC NO=332957
##MOLFORM=C16 H36 O3 Si2
##MW=332
##$NIST SOURCE=MSDC
##XUNITS=M/Z
##YUNITS=RELATIVE INTENSITY
##XFACTOR=1
##YFACTOR=1
##FIRSTX=15
##LASTX=331
##FIRSTY=10
##MAXX=331
##MINX=15
##MAXY=9999
##MINY=10
##NPOINTS=149
##PEAK TABLE=(XY..XY)
15,10 26,10 27,50 28,30
29,340 30,10 31,40 37,10
38,10 39,200 40,50 41,971
42,240 43,370 44,90 45,801
46,60 47,460 48,20 49,20
50,10 51,20 52,20 53,40
54,10 55,340 56,260 57,991
58,530 59,1361 60,190 61,280
62,20 63,10 66,400 67,80
68,20 69,390 70,50 71,60
73,9999 74,861 75,3393 76,220
77,150 78,10 79,10 80,10
81,20 83,50 84,10 85,230
86,50 87,160 88,1511 94,10
95,10 97,40 98,20 99,500
100,100 101,390 102,100 103,1341
104,140 105,110 106,10 107,10
109,80 111,10 113,40 115,2012
116,330 117,701 118,90 119,400
120,50 121,30 127,10 129,150
130,20 131,360 133,2943 134,430
135,280 136,30 137,10 141,10
143,310 144,40 145,60 147,6966
148,1111 149,1191 150,150 151,90
152,10 157,50 159,7457 160,1151
161,480 162,50 163,10 171,10
172,10 173,70 174,20 175,180
176,40 177,60 178,10 185,40
186,10 187,10 189,2903 190,571
191,260 192,30 193,10 199,10
201,10 203,140 204,30 205,10
215,10 217,30 218,10 219,10
231,150 233,3233 234,701 235,350
236,50 237,10 245,30 246,10
259,90 260,20 261,10 273,40
275,4714 276,1131 277,470 278,80
279,20 317,160 318,50 319,20
331,10
##END=
