##TITLE=5.alpha.-Androstane-3.beta.,17.beta.-diol, dimethyl ether
##JCAMP-DX=4.24
##DATA TYPE=MASS SPECTRUM
##ORIGIN=NIST Mass Spectrometry Data Center
##OWNER=NIST Mass Spectrometry Data Center
Collection (C) 2014 copyright by the U.S. Secretary of Commerce
on behalf of the United States of America. All rights reserved.
##$NIST MASS SPEC NO=332980
##MOLFORM=C21 H36 O2
##MW=320
##$NIST SOURCE=MSDC
##XUNITS=M/Z
##YUNITS=RELATIVE INTENSITY
##XFACTOR=1
##YFACTOR=1
##FIRSTX=15
##LASTX=322
##FIRSTY=30
##MAXX=322
##MINX=15
##MAXY=9999
##MINY=10
##NPOINTS=239
##PEAK TABLE=(XY..XY)
15,30 27,320 28,200 29,1071
30,70 31,110 32,80 33,110
38,30 39,661 40,180 41,5845
42,601 43,2012 45,1982 47,20
50,10 51,110 52,120 53,2042
54,450 55,6816 56,571 57,891
58,2302 59,1061 60,40 62,40
65,941 66,450 67,5575 68,1291
69,1471 70,140 71,4584 72,1171
73,661 74,130 75,20 77,2702
78,571 79,6406 80,1201 81,5825
82,811 83,1041 84,961 85,871
86,140 87,120 88,60 89,20
90,20 91,5865 92,1311 93,6506
94,2893 95,4464 96,921 97,1501
98,530 99,250 101,200 102,70
103,390 104,270 105,5105 106,2222
107,7046 108,2963 109,2843 110,420
111,941 112,110 113,50 115,1031
117,1151 118,490 119,3263 120,1952
121,3733 122,2752 123,2512 124,480
125,611 126,110 127,90 128,260
129,480 130,250 131,1571 132,550
133,3163 134,1481 135,2742 136,721
137,410 138,721 139,210 140,40
141,70 143,270 144,180 145,2362
146,1031 147,4214 148,4174 149,2742
150,390 151,741 152,300 153,80
154,50 155,70 156,60 157,300
158,170 159,1722 160,1281 161,1912
162,891 163,641 164,130 165,350
166,110 167,60 169,30 170,20
171,350 172,90 173,1121 174,480
175,721 176,360 177,200 178,270
179,1802 180,1641 181,260 182,30
183,20 184,40 185,571 186,140
187,701 188,350 189,220 190,240
191,160 192,120 193,90 194,40
195,10 197,30 199,520 200,160
201,1171 202,440 203,80 204,70
205,120 206,150 207,60 209,40
210,20 212,20 213,460 214,150
215,9999 216,2202 217,4294 218,671
219,140 220,120 226,20 227,100
228,190 229,180 230,621 231,320
232,30 233,601 234,250 235,20
236,20 238,20 239,30 240,10
241,2762 242,510 243,120 244,20
245,50 246,360 247,2652 248,701
249,50 255,80 256,961 257,160
258,90 259,20 260,270 261,60
262,220 263,771 264,180 265,50
266,20 267,30 271,30 272,20
273,4124 274,901 275,130 276,20
281,30 283,20 284,20 286,10
287,40 288,2122 289,510 290,80
291,50 293,10 297,20 303,30
304,20 305,3453 306,871 307,50
308,20 315,10 318,30 319,10
320,9519 321,2032 322,230
##END=
