##TITLE=4,6-Dioxoheptanoic acid, TMS derivative
##JCAMP-DX=4.24
##DATA TYPE=MASS SPECTRUM
##ORIGIN=NIST Mass Spectrometry Data Center
##OWNER=NIST Mass Spectrometry Data Center
Collection (C) 2014 copyright by the U.S. Secretary of Commerce
on behalf of the United States of America. All rights reserved.
##$NIST MASS SPEC NO=332932
##MOLFORM=C10 H18 O4 Si
##MW=230
##$NIST SOURCE=MSDC
##XUNITS=M/Z
##YUNITS=RELATIVE INTENSITY
##XFACTOR=1
##YFACTOR=1
##FIRSTX=14
##LASTX=233
##FIRSTY=10
##MAXX=233
##MINX=14
##MAXY=9999
##MINY=10
##NPOINTS=153
##PEAK TABLE=(XY..XY)
14,10 15,100 16,10 26,50
27,430 28,320 29,340 30,20
31,190 36,20 37,10 38,30
39,360 40,80 41,430 42,561
43,8778 44,550 45,2672 46,200
47,1561 48,70 49,60 50,40
51,300 52,60 53,390 54,110
55,2833 56,1551 57,430 58,701
59,571 60,270 61,1221 62,90
63,70 64,10 65,70 66,50
67,170 68,60 69,731 70,230
71,210 72,380 73,8658 74,1001
75,9999 76,751 77,861 78,70
79,250 80,30 81,550 82,100
83,110 84,110 85,3493 86,651
87,160 88,80 89,140 90,20
91,210 92,20 93,40 94,40
95,380 96,120 97,831 98,1081
99,1111 100,110 101,230 102,50
103,80 104,10 105,20 107,10
109,20 111,1031 112,1531 113,1902
114,170 115,4954 116,701 117,631
118,70 119,30 122,10 123,100
125,4124 126,270 127,150 128,110
129,2392 130,1141 131,1301 132,150
133,60 135,10 137,10 138,10
140,3894 141,440 142,60 143,220
144,70 145,991 146,290 147,70
148,10 151,30 152,10 153,120
154,10 155,530 156,210 157,1241
158,200 159,120 160,10 167,10
169,4554 170,661 171,520 172,340
173,6236 174,821 175,270 176,20
183,20 185,20 186,10 187,420
188,200 189,40 190,10 197,120
198,10 199,10 212,10 213,10
215,1732 216,220 217,80 218,10
229,10 230,1351 231,230 232,70
233,10
##END=
