##TITLE=11.alpha.-Hydroxyprogesterone, TMS derivative
##JCAMP-DX=4.24
##DATA TYPE=MASS SPECTRUM
##ORIGIN=NIST Mass Spectrometry Data Center
##OWNER=NIST Mass Spectrometry Data Center
Collection (C) 2014 copyright by the U.S. Secretary of Commerce
on behalf of the United States of America. All rights reserved.
##$NIST MASS SPEC NO=332963
##MOLFORM=C24 H38 O3 Si
##MW=402
##$NIST SOURCE=MSDC
##XUNITS=M/Z
##YUNITS=RELATIVE INTENSITY
##XFACTOR=1
##YFACTOR=1
##FIRSTX=15
##LASTX=406
##FIRSTY=40
##MAXX=406
##MINX=15
##MAXY=9999
##MINY=10
##NPOINTS=324
##PEAK TABLE=(XY..XY)
15,40 26,10 27,110 29,210
30,10 31,20 38,10 39,270
40,60 41,1071 43,8257 44,310
45,1211 46,80 47,350 48,20
49,10 50,20 51,90 52,70
53,651 54,80 55,1631 56,80
57,200 58,110 59,520 60,90
61,510 62,40 63,50 64,10
65,400 66,140 67,1051 68,140
69,400 70,60 71,661 73,9999
74,921 75,3954 76,290 77,1421
78,320 79,2072 80,400 81,1902
82,180 83,260 84,140 85,621
86,50 87,60 88,20 89,190
91,3103 92,510 93,1441 94,340
95,1141 96,170 97,330 98,50
99,130 100,20 101,671 102,100
103,691 104,220 105,2232 106,591
107,1521 108,390 109,811 110,510
111,240 112,40 113,110 114,20
115,550 116,651 117,1221 118,350
119,1401 120,701 121,1241 122,1081
123,871 124,611 125,310 126,50
127,210 128,440 129,1201 130,430
131,1281 132,430 133,1131 134,691
135,581 136,1041 137,410 138,90
139,100 140,40 141,350 142,330
143,2532 144,540 145,1672 146,561
147,1411 148,430 149,661 150,220
151,250 152,80 153,200 154,110
155,540 156,340 157,821 158,270
159,811 160,360 161,711 162,1531
163,861 164,270 165,280 166,90
167,581 168,260 169,2332 170,571
171,731 172,280 173,651 174,300
175,651 176,280 177,330 178,110
179,250 180,120 181,601 182,1161
183,941 184,280 185,440 186,190
187,330 188,470 189,641 190,230
191,230 192,70 193,420 194,320
195,811 196,981 197,2602 198,731
199,861 200,290 201,310 202,190
203,130 204,110 205,110 206,70
207,310 208,350 209,681 210,310
211,510 212,200 213,330 214,160
215,170 216,90 217,70 218,50
219,140 220,120 221,260 222,100
223,260 224,130 225,290 226,160
227,751 228,260 229,170 230,50
231,110 232,40 233,130 234,150
235,641 236,320 237,230 238,110
239,480 240,410 241,530 242,390
243,250 244,60 245,90 246,30
247,230 248,80 249,120 250,50
251,230 252,100 253,140 254,170
255,170 256,80 257,170 258,50
259,60 260,40 261,100 262,60
263,360 264,110 265,420 266,220
267,170 268,130 269,971 270,310
271,90 272,20 273,30 274,30
275,80 276,40 277,240 278,1581
279,751 280,200 281,50 282,20
283,50 284,210 285,270 286,140
287,50 288,20 289,50 290,20
291,180 292,50 293,30 294,360
295,130 297,691 298,150 299,60
300,20 301,30 302,10 303,60
304,30 305,30 306,10 307,10
310,10 312,2772 313,691 314,110
315,60 316,320 317,210 318,100
319,30 320,10 327,10 328,10
329,220 330,70 331,651 332,280
333,80 334,20 341,20 342,10
343,40 344,20 345,40 346,30
347,10 356,10 357,30 358,50
359,1211 360,360 361,100 362,20
369,50 370,20 371,20 372,20
373,40 374,70 375,20 376,10
384,130 385,60 387,1521 388,450
389,120 390,20 401,90 402,3473
403,1081 404,300 405,50 406,10
##END=
