##TITLE=.alpha.-Linolenic acid, TBDMS derivative
##JCAMP-DX=4.24
##DATA TYPE=MASS SPECTRUM
##ORIGIN=NIST Mass Spectrometry Data Center
##OWNER=NIST Mass Spectrometry Data Center
Collection (C) 2014 copyright by the U.S. Secretary of Commerce
on behalf of the United States of America. All rights reserved.
##$NIST MASS SPEC NO=333203
##MOLFORM=C24 H44 O2 Si
##MW=392
##$NIST SOURCE=MSDC
##XUNITS=M/Z
##YUNITS=RELATIVE INTENSITY
##XFACTOR=1
##YFACTOR=1
##FIRSTX=27
##LASTX=394
##FIRSTY=90
##MAXX=394
##MINX=27
##MAXY=9999
##MINY=10
##NPOINTS=270
##PEAK TABLE=(XY..XY)
27,90 28,20 29,220 30,10
31,10 38,10 39,260 40,50
41,1321 42,100 43,290 44,20
45,200 46,20 47,240 48,10
49,10 50,10 51,50 52,40
53,330 54,210 55,1411 56,140
57,430 58,150 59,330 60,90
61,190 62,20 63,20 64,10
65,260 66,230 67,2102 68,230
69,530 70,40 71,50 72,140
73,3453 74,490 75,9999 76,791
77,1231 78,410 79,3033 80,831
81,1141 82,170 83,220 84,30
85,150 86,100 87,70 88,40
89,40 91,1361 92,250 93,1712
94,400 95,1892 96,180 97,160
98,40 99,270 100,50 101,150
102,40 103,100 104,40 105,881
106,170 107,821 108,1291 109,561
110,60 111,70 112,10 113,50
114,50 115,561 116,581 117,561
118,90 119,581 120,100 121,591
122,210 123,150 124,20 125,40
126,10 127,30 129,3183 130,420
131,1531 132,180 133,510 134,80
135,420 136,130 137,60 138,10
139,40 141,40 142,20 143,240
144,40 145,270 146,70 147,310
148,60 149,390 150,80 151,40
152,10 153,40 154,10 155,100
156,20 157,220 158,50 159,240
160,40 161,160 162,40 163,180
164,40 165,30 166,10 167,40
168,10 169,150 170,30 171,380
172,80 173,310 174,50 175,80
176,20 177,50 178,10 179,20
181,50 182,10 183,90 184,20
185,230 186,40 187,170 188,30
189,40 190,10 191,90 192,20
193,10 195,30 196,10 197,80
198,20 199,120 200,20 201,60
202,10 203,20 204,20 205,20
207,10 209,30 210,10 211,80
212,20 213,100 214,20 215,50
216,10 217,30 218,10 219,10
221,10 223,40 224,10 225,90
226,20 227,190 228,40 229,40
230,10 231,20 232,10 233,10
235,10 237,30 238,10 239,170
240,30 241,190 242,40 243,110
244,20 245,10 247,10 249,10
251,30 252,10 253,260 254,50
255,60 256,10 257,10 259,100
260,40 261,40 262,10 263,20
264,10 265,110 266,30 267,240
268,50 269,40 270,10 271,10
277,40 279,550 280,130 281,130
282,30 283,10 285,20 291,50
292,10 293,170 294,40 295,10
297,10 305,40 306,10 307,80
308,20 309,10 313,10 317,100
318,30 319,70 320,20 321,10
322,10 323,10 331,10 333,440
335,9228 336,2632 337,701 338,110
339,10 347,20 349,20 350,10
363,40 364,10 375,10 377,450
378,140 379,40 380,10 392,200
393,60 394,20
##END=
