##TITLE=1-Undecanol, TBDMS derivative
##JCAMP-DX=4.24
##DATA TYPE=MASS SPECTRUM
##ORIGIN=NIST Mass Spectrometry Data Center
##OWNER=NIST Mass Spectrometry Data Center
Collection (C) 2014 copyright by the U.S. Secretary of Commerce
on behalf of the United States of America. All rights reserved.
##$NIST MASS SPEC NO=333308
##MOLFORM=C17 H38 O Si
##MW=286
##$NIST SOURCE=MSDC
##XUNITS=M/Z
##YUNITS=RELATIVE INTENSITY
##XFACTOR=1
##YFACTOR=1
##FIRSTX=26
##LASTX=286
##FIRSTY=10
##MAXX=286
##MINX=26
##MAXY=9999
##MINY=10
##NPOINTS=113
##PEAK TABLE=(XY..XY)
26,10 27,100 28,30 29,320
30,10 31,10 39,110 41,761
42,120 43,761 44,40 45,160
46,10 47,150 48,10 53,40
54,40 55,631 56,110 57,571
58,160 59,440 60,70 61,300
62,20 63,10 65,10 66,10
67,130 68,50 69,821 70,70
71,280 72,60 73,1281 75,5005
76,400 77,260 78,10 79,30
80,10 81,110 82,50 83,1271
84,90 85,260 86,40 87,220
88,110 89,1431 90,120 91,60
93,10 95,90 97,1541 98,130
99,330 100,60 101,811 102,90
103,60 104,10 109,40 110,10
111,430 112,40 113,150 114,30
115,641 116,70 117,60 123,10
124,10 125,30 126,10 127,80
128,10 129,270 130,30 131,70
132,20 133,10 139,10 141,20
143,170 144,20 145,40 146,10
153,10 155,10 157,200 158,30
159,20 169,10 171,190 172,30
173,20 185,20 187,10 199,10
213,60 214,10 227,30 229,9999
230,2762 231,751 232,90 233,10
271,150 272,30 273,10 285,10
286,10
##END=
