##TITLE=9-Hexadecenoic acid, (Z)-, TMS derivative
##JCAMP-DX=4.24
##DATA TYPE=MASS SPECTRUM
##ORIGIN=NIST Mass Spectrometry Data Center
##OWNER=NIST Mass Spectrometry Data Center
Collection (C) 2014 copyright by the U.S. Secretary of Commerce
on behalf of the United States of America. All rights reserved.
##$NIST MASS SPEC NO=333198
##MOLFORM=C19 H38 O2 Si
##MW=326
##$NIST SOURCE=MSDC
##XUNITS=M/Z
##YUNITS=RELATIVE INTENSITY
##XFACTOR=1
##YFACTOR=1
##FIRSTX=15
##LASTX=329
##FIRSTY=10
##MAXX=329
##MINX=15
##MAXY=9999
##MINY=10
##NPOINTS=241
##PEAK TABLE=(XY..XY)
15,10 26,10 27,250 28,70
29,621 30,20 31,10 38,10
39,470 40,110 41,2783 42,661
43,2102 44,180 45,731 46,60
47,380 48,20 49,10 50,10
51,40 52,30 53,470 54,1051
55,4894 56,961 57,611 58,200
59,270 60,120 61,651 62,40
63,30 65,160 66,140 67,2202
68,871 69,2242 70,470 71,250
72,460 73,9859 74,1121 75,9769
76,741 77,621 78,100 79,781
80,390 81,2192 82,1201 83,1601
84,1892 85,370 86,140 87,100
88,90 89,350 90,50 91,400
92,130 93,550 94,380 95,1802
96,2512 97,1561 98,1932 99,420
100,50 101,160 102,30 103,70
104,20 105,350 106,90 107,340
108,260 109,1061 110,1141 111,691
112,420 113,110 114,30 115,100
116,1071 117,9999 118,1031 119,751
120,130 121,380 122,170 123,1011
124,530 125,250 126,100 127,100
129,8478 130,1131 131,1541 132,1922
133,751 134,310 135,250 136,120
137,671 138,510 139,170 140,50
141,210 142,110 143,520 144,110
145,3623 146,480 147,370 148,150
149,110 150,60 151,430 152,1151
153,250 154,50 155,510 156,140
157,280 158,110 159,310 160,60
161,120 162,40 163,50 164,20
165,240 166,190 167,70 168,60
169,180 170,110 171,470 172,190
173,260 174,70 175,80 176,20
177,20 178,20 179,170 180,80
181,60 182,20 183,220 184,60
185,841 186,240 187,230 188,100
189,50 190,10 191,10 192,260
193,280 194,1351 195,240 196,20
197,70 198,20 199,851 200,170
201,240 202,50 203,20 205,10
207,140 208,200 209,40 210,10
211,80 212,20 213,220 214,50
215,70 216,20 217,30 218,70
219,20 221,30 222,10 225,50
226,10 227,230 228,50 229,140
230,60 231,10 235,20 236,801
237,160 238,20 239,50 240,10
241,130 242,30 243,90 244,100
245,20 253,60 254,10 255,80
256,20 257,30 258,60 259,10
267,110 268,30 269,50 270,10
271,50 272,10 281,40 282,20
283,110 284,30 285,30 286,10
293,10 295,30 296,10 297,40
298,10 308,10 309,20 311,7897
312,2032 313,530 314,80 315,10
325,30 326,691 327,200 328,50
329,10
##END=
