##TITLE=(-)-Isolongifolol, methyl ether
##JCAMP-DX=4.24
##DATA TYPE=MASS SPECTRUM
##ORIGIN=NIST Mass Spectrometry Data Center
##OWNER=NIST Mass Spectrometry Data Center
Collection (C) 2014 copyright by the U.S. Secretary of Commerce
on behalf of the United States of America. All rights reserved.
##$NIST MASS SPEC NO=333808
##MOLFORM=C16 H28 O
##MW=236
##$NIST SOURCE=MSDC
##XUNITS=M/Z
##YUNITS=RELATIVE INTENSITY
##XFACTOR=1
##YFACTOR=1
##FIRSTX=15
##LASTX=238
##FIRSTY=110
##MAXX=238
##MINX=15
##MAXY=9999
##MINY=10
##NPOINTS=170
##PEAK TABLE=(XY..XY)
15,110 26,20 27,611 28,140
29,1331 30,50 31,60 33,70
38,40 39,1541 40,320 41,6386
42,410 43,2152 44,90 45,6035
46,150 47,20 50,50 51,430
52,230 53,2192 54,410 55,6025
56,861 57,961 58,210 59,400
60,10 62,10 63,140 64,70
65,1461 66,791 67,6075 68,821
69,4364 70,390 71,1131 72,150
73,230 74,30 75,30 77,3493
78,861 79,6676 80,2783 81,8317
82,2973 83,1551 84,3013 85,1872
86,230 87,30 89,90 91,6436
92,2662 93,7917 94,3823 95,9999
96,1201 97,2562 98,941 99,200
100,30 101,30 102,60 103,450
104,230 105,4634 106,1682 107,6956
108,4044 109,9999 110,3383 111,2002
112,390 113,80 114,20 115,480
116,200 117,681 118,210 119,3193
120,1902 121,4784 122,2162 123,2732
124,711 125,621 126,771 127,250
128,200 129,200 130,90 131,410
132,170 133,3653 134,1641 135,6045
136,2022 137,1641 138,711 139,290
140,50 141,70 142,40 143,60
144,30 145,170 146,100 147,1601
148,2783 149,2662 150,831 151,831
152,330 153,140 154,30 155,10
157,10 158,10 159,80 160,100
161,2212 162,951 163,2192 164,350
165,1722 166,550 167,170 168,981
169,140 170,10 173,20 174,20
175,1051 176,831 177,731 178,1531
179,250 180,290 181,40 187,20
189,3473 190,550 191,2452 192,370
193,350 194,60 195,110 196,10
201,10 202,10 204,1852 205,360
206,20 207,40 208,691 209,120
210,10 219,10 221,270 222,40
223,10 234,10 235,10 236,360
237,80 238,10
##END=
