##TITLE=Heneicosanoic acid, TMS derivative
##JCAMP-DX=4.24
##DATA TYPE=MASS SPECTRUM
##ORIGIN=NIST Mass Spectrometry Data Center
##OWNER=NIST Mass Spectrometry Data Center
Collection (C) 2014 copyright by the U.S. Secretary of Commerce
on behalf of the United States of America. All rights reserved.
##$NIST MASS SPEC NO=333868
##MOLFORM=C24 H50 O2 Si
##MW=398
##$NIST SOURCE=MSDC
##XUNITS=M/Z
##YUNITS=RELATIVE INTENSITY
##XFACTOR=1
##YFACTOR=1
##FIRSTX=26
##LASTX=401
##FIRSTY=10
##MAXX=401
##MINX=26
##MAXY=9999
##MINY=10
##NPOINTS=231
##PEAK TABLE=(XY..XY)
26,10 27,100 28,20 29,360
30,10 39,130 41,1421 42,360
43,2853 44,140 45,320 46,20
47,140 48,10 49,10 51,10
53,100 54,170 55,2392 56,561
57,2262 58,220 59,200 60,60
61,310 62,20 63,10 65,20
66,20 67,440 68,140 69,1191
70,280 71,701 72,320 73,7427
74,761 75,5205 76,380 77,240
78,20 79,130 80,30 81,450
82,120 83,831 84,280 85,390
86,80 87,70 88,40 89,240
90,30 91,80 92,10 93,130
94,30 95,460 96,100 97,681
98,430 99,190 100,30 101,110
102,20 103,40 104,10 105,130
106,20 107,100 108,20 109,200
110,50 111,330 112,160 113,60
114,20 115,90 116,641 117,9999
118,991 119,420 120,30 121,120
122,10 123,70 124,20 125,100
126,40 127,40 129,4794 130,631
131,1021 132,5985 133,1441 134,330
135,130 136,20 137,30 138,10
139,40 140,20 141,30 142,20
143,340 145,4374 146,550 147,190
148,20 149,50 150,10 151,10
152,10 153,30 154,40 155,40
156,10 157,90 158,20 159,310
160,50 161,20 163,20 165,10
167,20 168,20 169,10 171,250
172,40 173,90 174,80 175,10
177,10 181,10 182,10 183,10
185,380 186,60 187,310 188,90
189,20 191,10 195,10 196,10
197,10 199,80 200,20 201,741
202,130 203,40 204,10 209,10
210,10 213,80 214,20 215,60
216,10 217,10 223,10 224,10
227,110 228,20 229,40 230,20
237,10 241,120 242,30 243,110
244,30 245,10 251,10 252,10
255,100 256,20 257,110 258,30
259,10 265,20 266,10 269,90
270,20 271,40 272,10 279,10
280,10 283,90 284,20 285,40
286,10 297,70 298,20 299,120
300,30 301,10 307,10 308,10
309,10 311,30 312,10 313,90
314,20 315,10 325,30 326,10
327,30 328,10 339,420 340,130
341,80 342,30 343,10 353,60
354,20 355,390 356,120 357,30
367,10 369,70 370,20 371,10
381,30 383,7927 384,2442 385,651
386,110 387,10 397,70 398,1581
399,510 400,130 401,30
##END=
