##TITLE=Pyridoxic acid, 3TMS derivative
##JCAMP-DX=4.24
##DATA TYPE=MASS SPECTRUM
##ORIGIN=NIST Mass Spectrometry Data Center
##OWNER=NIST Mass Spectrometry Data Center
Collection (C) 2014 copyright by the U.S. Secretary of Commerce
on behalf of the United States of America. All rights reserved.
##$NIST MASS SPEC NO=333509
##MOLFORM=C17 H33 N O4 Si3
##MW=399
##$NIST SOURCE=MSDC
##XUNITS=M/Z
##YUNITS=RELATIVE INTENSITY
##XFACTOR=1
##YFACTOR=1
##FIRSTX=15
##LASTX=402
##FIRSTY=10
##MAXX=402
##MINX=15
##MAXY=9999
##MINY=10
##NPOINTS=250
##PEAK TABLE=(XY..XY)
15,10 27,10 28,10 29,20
31,20 39,50 41,10 42,20
43,160 44,180 45,1451 46,100
47,140 50,10 51,60 52,20
53,30 54,10 55,50 56,10
57,70 58,80 59,250 60,30
61,90 62,10 63,20 64,20
65,120 66,40 67,20 68,10
69,30 70,40 71,50 73,9999
74,891 75,1141 76,90 77,110
78,30 79,90 80,20 81,20
82,10 83,100 84,30 85,40
86,10 87,30 88,10 89,50
90,20 91,90 92,70 93,50
94,10 95,50 96,30 97,80
98,30 99,40 100,20 101,20
102,20 103,120 104,50 105,60
106,40 107,50 108,30 109,90
110,20 111,30 112,10 113,20
114,10 115,80 116,30 117,90
118,70 119,140 120,540 121,90
122,30 123,50 124,30 125,30
126,20 127,20 128,10 129,20
130,30 131,310 132,80 133,841
134,160 135,140 136,60 137,40
138,10 139,10 140,10 141,10
142,10 143,40 144,20 145,20
147,5915 148,1131 149,581 150,140
151,60 152,30 153,20 154,10
155,10 156,10 157,40 158,20
159,10 160,20 161,20 162,90
163,50 164,70 165,30 166,40
167,20 168,10 169,20 170,10
171,10 172,10 173,10 174,20
175,10 176,80 177,50 178,190
179,60 180,60 181,30 182,10
183,10 184,10 186,10 188,20
189,20 190,30 191,170 192,250
193,100 194,80 195,30 196,20
197,10 198,10 199,10 202,10
203,10 204,20 205,20 206,60
207,140 208,100 209,40 210,20
211,10 212,10 218,50 219,30
220,90 221,150 222,1952 223,330
224,130 225,20 226,10 232,10
234,30 235,20 236,160 237,50
238,50 239,20 240,10 241,10
248,20 249,20 250,80 251,70
252,110 253,30 254,20 255,10
262,20 263,10 264,40 266,4084
267,991 268,420 269,60 270,10
278,20 279,10 280,510 281,290
282,140 283,40 284,10 292,10
293,10 294,190 295,70 296,2312
297,571 298,240 299,40 300,10
307,10 309,5695 310,1571 311,601
312,120 313,20 324,10 325,10
326,10 327,10 338,10 340,150
341,50 342,20 343,10 354,30
355,10 356,10 368,40 369,10
370,10 384,2282 385,741 386,370
387,90 388,20 399,480 400,160
401,70 402,20
##END=
