##TITLE=cis-9-Octadecenoic acid, picolinyl ester
##JCAMP-DX=4.24
##DATA TYPE=MASS SPECTRUM
##ORIGIN=NIST Mass Spectrometry Data Center
##OWNER=NIST Mass Spectrometry Data Center
Collection (C) 2014 copyright by the U.S. Secretary of Commerce
on behalf of the United States of America. All rights reserved.
##$NIST MASS SPEC NO=333214
##MOLFORM=C24 H39 N O2
##MW=373
##$NIST SOURCE=MSDC
##XUNITS=M/Z
##YUNITS=RELATIVE INTENSITY
##XFACTOR=1
##YFACTOR=1
##FIRSTX=26
##LASTX=376
##FIRSTY=10
##MAXX=376
##MINX=26
##MAXY=9999
##MINY=10
##NPOINTS=224
##PEAK TABLE=(XY..XY)
26,10 27,190 28,60 29,550
30,20 31,10 38,30 39,781
40,100 41,2662 42,500 43,2012
44,70 45,30 50,40 51,140
52,110 53,450 54,1011 55,4204
56,781 57,1131 58,50 59,20
60,20 61,10 62,10 63,140
64,210 65,1591 66,190 67,1281
68,350 69,1581 70,330 71,240
72,20 73,30 76,10 77,120
78,160 79,460 80,390 81,841
82,220 83,881 84,140 85,140
86,10 87,20 90,10 91,500
92,9999 93,4644 94,530 95,520
96,130 97,530 98,110 99,40
101,20 102,10 103,10 104,10
105,60 106,190 107,210 108,6766
109,2883 110,801 111,240 112,30
113,30 114,10 115,30 116,10
117,40 118,90 119,80 120,90
121,130 122,40 123,140 124,30
125,70 127,30 129,20 130,50
131,40 132,60 133,220 134,120
135,90 136,50 137,70 138,20
139,30 141,10 143,10 144,30
145,30 146,70 147,130 148,230
149,70 151,1952 152,250 153,40
154,10 155,10 156,10 157,10
158,30 159,20 160,40 161,50
162,60 164,5715 165,761 166,70
167,20 169,10 172,20 173,10
174,30 175,20 176,30 177,50
178,1001 179,200 180,20 181,10
182,10 183,10 186,10 187,10
188,30 189,20 190,90 191,60
192,280 193,80 194,20 200,10
201,10 202,20 203,20 204,160
205,40 206,611 207,170 208,20
214,10 216,20 217,10 218,70
219,30 220,811 221,190 222,30
228,10 229,10 230,30 231,20
232,80 233,40 234,250 235,50
236,10 242,10 243,10 244,30
245,40 246,170 247,160 248,120
249,20 256,70 257,10 258,20
259,10 260,490 261,200 262,60
263,20 265,30 266,10 270,80
271,20 272,20 274,1712 275,470
276,90 277,10 284,10 286,10
288,1842 289,450 290,70 291,10
300,10 302,410 303,110 304,20
314,10 316,460 317,110 318,20
328,10 330,430 331,120 332,30
333,10 344,300 345,100 346,20
354,10 358,80 359,20 372,420
373,1471 374,390 375,50 376,10
##END=
