##TITLE=2,3,4,6-Tetrachlorophenol, TMS derivative
##JCAMP-DX=4.24
##DATA TYPE=MASS SPECTRUM
##ORIGIN=NIST Mass Spectrometry Data Center
##OWNER=NIST Mass Spectrometry Data Center
Collection (C) 2014 copyright by the U.S. Secretary of Commerce
on behalf of the United States of America. All rights reserved.
##$NIST MASS SPEC NO=333389
##MOLFORM=C9 H10 Cl4 O Si
##MW=302
##$NIST SOURCE=MSDC
##XUNITS=M/Z
##YUNITS=RELATIVE INTENSITY
##XFACTOR=1
##YFACTOR=1
##FIRSTX=14
##LASTX=310
##FIRSTY=10
##MAXX=310
##MINX=14
##MAXY=9999
##MINY=10
##NPOINTS=259
##PEAK TABLE=(XY..XY)
14,10 15,70 26,20 27,80
28,70 29,220 30,20 31,40
35,20 36,20 37,40 38,20
39,50 41,40 42,180 43,1041
44,470 45,1842 46,130 47,110
48,10 49,20 50,100 51,100
52,20 53,290 54,50 55,230
56,50 57,190 58,150 59,150
60,70 61,540 62,150 63,1792
64,170 65,2022 66,150 67,530
68,30 69,20 70,70 71,160
72,400 73,6246 74,721 75,691
76,170 77,210 78,170 79,941
80,120 81,340 82,30 83,130
84,130 85,170 86,100 87,240
88,60 89,180 90,50 91,110
92,300 93,8297 94,711 95,3173
96,1201 97,440 98,380 99,270
100,40 101,170 102,70 103,150
104,20 105,50 106,120 107,390
108,500 109,440 110,200 111,390
112,90 113,1832 114,150 115,1201
116,90 117,290 118,110 119,80
120,60 121,60 122,30 123,220
124,110 125,180 126,70 127,170
128,30 129,90 130,120 131,1591
132,170 133,1201 134,110 135,400
136,70 137,150 138,80 139,240
140,30 141,180 142,70 143,530
144,741 145,400 146,100 147,140
148,40 149,60 150,10 151,20
152,20 153,40 154,10 155,40
156,10 157,130 158,60 159,180
160,90 161,140 162,50 163,30
164,10 165,40 166,410 167,90
168,390 169,70 170,140 171,40
172,40 173,130 174,30 175,80
176,20 177,30 178,60 179,50
180,60 181,691 182,140 183,260
184,50 185,20 186,10 187,30
188,10 189,60 190,10 191,50
192,20 193,1111 194,220 195,1051
196,220 197,390 198,70 199,50
200,10 201,350 202,40 203,460
204,40 205,210 206,20 207,60
208,10 209,40 210,10 211,30
212,10 213,20 214,10 215,230
216,280 217,741 218,260 219,430
220,90 221,80 222,20 223,70
224,20 225,60 226,10 227,40
229,180 230,20 231,200 232,60
233,110 234,30 235,30 236,20
237,70 238,20 239,70 240,10
241,20 242,10 249,30 250,20
251,771 252,1091 253,891 254,1091
255,400 256,380 257,140 258,60
259,90 260,10 261,40 263,10
267,10 268,10 271,10 272,10
273,20 274,10 275,20 277,10
282,10 283,10 284,10 285,10
287,7427 288,1061 289,9999 290,1381
291,5025 292,681 293,1181 294,160
295,120 296,20 302,1651 303,290
304,2492 305,350 306,1201 307,170
308,280 309,40 310,20
##END=
