##TITLE=Xanthurenic acid, 3TBDMS derivative
##JCAMP-DX=4.24
##DATA TYPE=MASS SPECTRUM
##ORIGIN=NIST Mass Spectrometry Data Center
##OWNER=NIST Mass Spectrometry Data Center
Collection (C) 2014 copyright by the U.S. Secretary of Commerce
on behalf of the United States of America. All rights reserved.
##$NIST MASS SPEC NO=333761
##MOLFORM=C28 H49 N O4 Si3
##MW=547
##$NIST SOURCE=MSDC
##XUNITS=M/Z
##YUNITS=RELATIVE INTENSITY
##XFACTOR=1
##YFACTOR=1
##FIRSTX=29
##LASTX=548
##FIRSTY=80
##MAXX=548
##MINX=29
##MAXY=9999
##MINY=10
##NPOINTS=229
##PEAK TABLE=(XY..XY)
29,80 39,20 41,210 42,10
43,10 45,90 46,10 47,10
55,20 56,50 57,641 58,70
59,260 60,20 61,10 71,10
73,3423 74,290 75,180 76,10
83,10 84,10 85,30 97,10
99,40 100,10 103,10 105,10
113,10 114,10 115,30 116,10
117,10 119,10 127,10 128,10
129,10 130,10 131,20 132,10
133,50 134,10 135,10 140,10
141,10 142,10 143,10 144,10
145,10 147,30 148,10 149,10
154,10 156,10 158,20 159,30
160,20 161,10 166,10 170,20
171,10 172,20 173,10 174,10
176,10 180,10 184,10 185,20
186,30 187,20 188,50 189,10
190,10 198,10 199,10 200,120
201,60 202,120 203,20 204,20
205,10 206,10 212,10 214,30
215,20 216,80 217,70 218,80
219,20 220,10 226,10 228,20
229,10 230,30 231,10 232,20
233,10 234,60 235,10 240,10
242,20 243,20 244,90 245,20
246,90 247,20 248,10 254,10
256,20 257,10 258,80 259,30
260,90 261,20 262,80 263,20
264,10 270,10 272,30 273,40
274,220 275,110 276,140 277,30
278,10 284,10 286,10 287,10
288,30 289,20 290,110 291,30
292,20 300,30 301,10 302,100
303,30 304,30 305,10 306,10
314,20 315,10 316,110 317,40
318,300 319,80 320,40 321,10
328,10 329,10 330,30 331,190
332,180 333,60 334,50 335,10
336,10 342,10 344,20 345,10
346,20 347,10 348,110 349,40
350,20 358,20 359,10 360,170
361,50 362,20 363,10 372,10
373,10 374,60 375,40 376,200
377,60 378,30 388,10 389,10
390,180 391,80 392,30 393,10
402,10 403,10 404,30 405,10
406,20 407,10 416,20 417,10
418,40 419,20 420,10 432,280
433,230 434,130 435,50 436,10
446,10 448,10 458,10 459,10
460,20 461,10 462,10 472,10
474,140 475,70 476,40 477,10
478,10 488,50 490,9999 491,4504
492,2052 493,540 494,130 495,20
516,10 530,10 532,320 533,150
534,70 535,20 546,40 547,20
548,10
##END=
