##TITLE=4-Phenylphenol, TBDMS derivative
##JCAMP-DX=4.24
##DATA TYPE=MASS SPECTRUM
##ORIGIN=NIST Mass Spectrometry Data Center
##OWNER=NIST Mass Spectrometry Data Center
Collection (C) 2014 copyright by the U.S. Secretary of Commerce
on behalf of the United States of America. All rights reserved.
##$NIST MASS SPEC NO=333404
##MOLFORM=C18 H24 O Si
##MW=284
##$NIST SOURCE=MSDC
##XUNITS=M/Z
##YUNITS=RELATIVE INTENSITY
##XFACTOR=1
##YFACTOR=1
##FIRSTX=27
##LASTX=287
##FIRSTY=30
##MAXX=287
##MINX=27
##MAXY=9999
##MINY=10
##NPOINTS=172
##PEAK TABLE=(XY..XY)
27,30 28,10 29,150 31,20
39,100 40,20 41,310 42,30
43,180 44,20 45,210 46,10
47,70 50,30 51,80 52,20
53,40 54,10 55,60 56,60
57,360 58,130 59,320 60,30
61,90 62,20 63,80 64,10
65,30 66,10 67,20 68,10
69,30 70,10 71,20 73,561
74,80 75,721 76,140 77,170
78,20 79,20 80,10 81,10
83,70 84,10 85,50 86,20
87,40 88,30 89,70 90,10
91,70 92,10 93,20 94,10
95,60 96,10 97,40 99,100
100,40 101,60 102,130 103,40
104,10 105,80 106,40 107,40
109,10 111,10 113,781 115,440
116,50 117,10 119,20 120,10
121,140 122,20 123,10 125,30
126,160 127,230 128,90 129,40
130,10 131,60 132,10 133,20
134,10 135,60 136,10 137,20
138,10 139,180 140,50 141,340
142,50 143,30 144,10 145,120
146,20 147,20 148,10 149,100
150,170 151,561 152,2232 153,791
154,370 155,100 156,10 157,30
158,10 159,80 160,10 161,30
162,10 163,20 164,40 165,621
166,180 167,340 168,70 169,220
170,60 171,160 172,30 173,20
178,30 179,50 180,20 181,200
182,50 183,170 184,50 185,40
186,10 187,10 191,10 193,40
194,20 195,100 196,70 197,240
198,50 199,40 200,10 205,10
207,20 208,20 209,60 211,4144
212,811 213,260 214,40 223,10
224,10 225,70 227,9999 228,3553
229,881 230,150 231,10 253,10
268,10 269,110 270,30 271,10
284,4134 285,1061 286,270 287,40
##END=
