##TITLE=dl-Homatropine, methyl ether
##JCAMP-DX=4.24
##DATA TYPE=MASS SPECTRUM
##ORIGIN=NIST Mass Spectrometry Data Center
##OWNER=NIST Mass Spectrometry Data Center
Collection (C) 2014 copyright by the U.S. Secretary of Commerce
on behalf of the United States of America. All rights reserved.
##$NIST MASS SPEC NO=333834
##MOLFORM=C17 H23 N O3
##MW=289
##$NIST SOURCE=MSDC
##XUNITS=M/Z
##YUNITS=RELATIVE INTENSITY
##XFACTOR=1
##YFACTOR=1
##FIRSTX=15
##LASTX=291
##FIRSTY=20
##MAXX=291
##MINX=15
##MAXY=9999
##MINY=10
##NPOINTS=81
##PEAK TABLE=(XY..XY)
15,20 27,60 28,70 29,70
30,60 31,10 38,10 39,150
40,30 41,340 42,921 43,100
44,190 45,10 50,50 51,200
52,50 53,100 54,110 55,260
56,160 57,160 58,50 62,20
63,60 64,20 65,150 66,30
67,761 68,220 69,50 70,130
71,20 75,10 76,10 77,1001
78,190 79,70 80,90 81,200
82,1241 83,911 84,90 89,150
90,130 91,681 92,60 93,130
94,1411 95,581 96,761 97,140
98,50 99,10 103,10 105,380
106,60 107,30 108,60 109,30
110,10 112,10 118,30 119,10
121,3123 122,370 123,190 124,9999
125,881 126,40 140,310 141,30
200,10 201,10 259,10 274,330
275,60 276,10 289,380 290,70
291,10
##END=
