##TITLE=2-Ethyl-1-butanol, methyl ether
##JCAMP-DX=4.24
##DATA TYPE=MASS SPECTRUM
##ORIGIN=NIST Mass Spectrometry Data Center
##OWNER=NIST Mass Spectrometry Data Center
Collection (C) 2014 copyright by the U.S. Secretary of Commerce
on behalf of the United States of America. All rights reserved.
##$NIST MASS SPEC NO=333925
##MOLFORM=C7 H16 O
##MW=116
##$NIST SOURCE=MSDC
##XUNITS=M/Z
##YUNITS=RELATIVE INTENSITY
##XFACTOR=1
##YFACTOR=1
##FIRSTX=15
##LASTX=116
##FIRSTY=130
##MAXX=116
##MINX=15
##MAXY=9999
##MINY=10
##NPOINTS=54
##PEAK TABLE=(XY..XY)
15,130 26,70 27,951 28,200
29,1471 30,50 31,170 33,130
37,10 38,50 39,1041 40,150
41,2382 42,1541 43,5505 44,220
45,9999 46,280 47,1211 48,30
49,10 50,60 51,110 52,40
53,360 54,190 55,3894 56,2182
57,210 58,60 59,120 62,10
63,10 65,30 66,10 67,70
68,30 69,1241 70,4464 71,1141
72,50 73,90 74,10 77,10
79,10 81,10 83,50 84,3483
85,310 86,20 87,20 99,10
115,20 116,20
##END=
