##TITLE=2-Pyrrol[tert-butyl(dimethyl)silyl]oxymorphopropan-1-ol
##JCAMP-DX=4.24
##DATA TYPE=MASS SPECTRUM
##ORIGIN=NIST Mass Spectrometry Data Center
##OWNER=NIST Mass Spectrometry Data Center
Collection (C) 2014 copyright by the U.S. Secretary of Commerce
on behalf of the United States of America. All rights reserved.
##$NIST MASS SPEC NO=333036
##MOLFORM=C9 H22 O2 Si
##MW=190
##$NIST SOURCE=MSDC
##XUNITS=M/Z
##YUNITS=RELATIVE INTENSITY
##XFACTOR=1
##YFACTOR=1
##FIRSTX=15
##LASTX=175
##FIRSTY=10
##MAXX=175
##MINX=15
##MAXY=9999
##MINY=10
##NPOINTS=75
##PEAK TABLE=(XY..XY)
15,10 26,10 27,70 28,30
29,210 30,10 31,270 38,10
39,140 40,20 41,330 42,60
43,390 44,70 45,721 46,50
47,450 48,20 49,10 51,20
53,30 54,10 55,70 56,40
57,270 58,450 59,821 60,140
61,300 62,20 63,20 67,20
69,20 70,10 71,40 72,70
73,3273 74,390 75,9999 76,781
77,621 78,30 79,10 83,20
85,130 86,20 87,280 88,40
89,40 93,10 97,10 99,140
100,50 101,150 102,150 103,470
104,50 105,20 113,10 115,661
116,80 117,190 118,20 119,60
120,10 131,30 133,2953 134,320
135,130 136,10 159,1181 160,160
161,50 173,10 175,10
##END=
