##TITLE=3-Phenylpropanoic anhydride
##JCAMP-DX=4.24
##DATA TYPE=MASS SPECTRUM
##ORIGIN=NIST Mass Spectrometry Data Center
##OWNER=NIST Mass Spectrometry Data Center
Collection (C) 2014 copyright by the U.S. Secretary of Commerce
on behalf of the United States of America. All rights reserved.
##$NIST MASS SPEC NO=333896
##MOLFORM=C18 H18 O3
##MW=282
##$NIST SOURCE=MSDC
##XUNITS=M/Z
##YUNITS=RELATIVE INTENSITY
##XFACTOR=1
##YFACTOR=1
##FIRSTX=26
##LASTX=282
##FIRSTY=10
##MAXX=282
##MINX=26
##MAXY=9999
##MINY=10
##NPOINTS=69
##PEAK TABLE=(XY..XY)
26,10 27,180 28,10 37,10
38,30 39,290 40,20 41,60
42,60 43,10 44,10 45,10
49,10 50,200 51,821 52,180
53,100 54,10 55,130 56,10
61,10 62,50 63,220 64,50
65,681 66,50 73,10 74,60
75,60 76,100 77,1641 78,791
79,1001 80,70 87,10 89,160
91,7206 92,581 93,20 98,10
101,20 102,140 103,1111 104,8117
105,9999 106,861 107,200 108,10
115,10 120,10 129,10 131,310
132,330 133,2322 134,240 135,20
147,10 148,10 149,10 150,110
151,10 165,10 167,10 178,10
179,20 193,10 254,30 255,10
282,10
##END=
