##TITLE=7,7-Dimethyl-(5Z,8Z)-eicosadienoic acid, methyl ester
##JCAMP-DX=4.24
##DATA TYPE=MASS SPECTRUM
##ORIGIN=NIST Mass Spectrometry Data Center
##OWNER=NIST Mass Spectrometry Data Center
Collection (C) 2014 copyright by the U.S. Secretary of Commerce
on behalf of the United States of America. All rights reserved.
##$NIST MASS SPEC NO=333537
##MOLFORM=C23 H42 O2
##MW=350
##$NIST SOURCE=MSDC
##XUNITS=M/Z
##YUNITS=RELATIVE INTENSITY
##XFACTOR=1
##YFACTOR=1
##FIRSTX=15
##LASTX=352
##FIRSTY=30
##MAXX=352
##MINX=15
##MAXY=9999
##MINY=10
##NPOINTS=235
##PEAK TABLE=(XY..XY)
15,30 27,220 28,50 29,751
30,20 31,10 33,10 39,380
41,3193 42,380 43,3613 44,110
45,70 50,10 51,60 52,50
53,681 54,310 55,4334 56,460
57,1852 58,90 59,911 60,40
61,20 63,20 64,10 65,400
66,230 67,3633 68,641 69,3403
70,390 71,761 72,50 73,110
74,500 75,60 77,1171 78,280
79,3133 80,711 81,4234 82,1682
83,1651 84,250 85,691 86,40
87,270 88,50 89,20 91,2262
92,460 93,5295 94,1321 95,9999
96,1952 97,1451 98,220 99,170
100,30 101,400 102,40 103,120
104,80 105,1501 106,430 107,5035
108,2252 109,4184 110,741 111,761
112,90 113,90 114,30 115,190
116,40 117,200 118,80 119,1301
120,390 121,7957 122,1661 123,1571
124,540 125,420 126,80 127,120
128,50 129,210 130,40 131,200
132,50 133,550 134,160 135,2642
136,621 137,1171 138,480 139,270
140,240 141,160 142,40 143,260
144,40 145,500 146,80 147,290
148,70 149,1521 150,320 151,380
152,180 153,180 154,130 155,180
156,220 157,450 158,50 159,270
160,50 161,150 163,3873 164,571
165,220 166,160 167,320 168,410
169,1601 170,260 171,60 172,10
173,70 174,10 175,70 176,20
177,430 178,100 179,180 180,130
181,500 182,410 183,120 184,20
185,20 187,30 188,10 189,20
190,10 191,120 192,30 193,120
194,150 195,2953 196,561 197,100
198,10 201,10 203,10 204,10
205,40 206,20 207,200 208,70
209,260 210,140 211,20 215,10
217,10 219,40 220,70 221,240
222,150 223,220 224,40 225,10
229,10 231,20 232,10 233,240
234,70 235,821 236,180 237,50
238,10 245,20 246,10 247,120
248,40 249,1521 250,310 251,40
252,10 257,110 258,20 259,20
261,500 262,140 263,100 264,20
265,10 274,10 275,320 276,170
277,40 278,10 285,60 286,20
289,30 290,20 291,10 293,10
294,40 295,10 300,10 301,190
302,50 303,591 304,130 305,20
307,330 308,70 309,10 317,10
318,30 319,120 320,30 321,40
322,10 335,981 336,240 337,30
350,991 351,250 352,40
##END=
