##TITLE=Flufenamic acid, methyl ester
##JCAMP-DX=4.24
##DATA TYPE=MASS SPECTRUM
##ORIGIN=NIST Mass Spectrometry Data Center
##OWNER=NIST Mass Spectrometry Data Center
Collection (C) 2014 copyright by the U.S. Secretary of Commerce
on behalf of the United States of America. All rights reserved.
##$NIST MASS SPEC NO=333177
##MOLFORM=C15 H12 F3 N O2
##MW=295
##$NIST SOURCE=MSDC
##XUNITS=M/Z
##YUNITS=RELATIVE INTENSITY
##XFACTOR=1
##YFACTOR=1
##FIRSTX=15
##LASTX=298
##FIRSTY=90
##MAXX=298
##MINX=15
##MAXY=9999
##MINY=10
##NPOINTS=193
##PEAK TABLE=(XY..XY)
15,90 27,20 29,30 30,10
31,20 33,10 37,10 38,70
39,230 40,20 41,20 45,20
50,260 51,270 52,110 53,50
54,10 55,10 56,10 57,80
59,170 61,20 62,110 63,470
64,480 65,190 66,20 67,10
69,260 70,30 73,10 74,110
75,350 76,250 77,290 78,40
79,20 80,10 81,50 83,140
85,20 86,20 87,40 88,90
89,120 90,110 91,160 92,1151
93,140 94,130 95,380 96,50
97,50 98,50 99,60 100,40
101,40 102,130 103,30 104,30
105,20 108,310 110,10 111,20
112,30 113,120 114,150 115,100
116,40 117,50 119,70 120,30
122,160 124,10 125,240 126,80
127,50 128,30 129,10 130,40
132,100 133,70 134,20 135,10
137,40 138,100 139,581 140,490
141,80 142,10 143,30 144,30
145,771 146,70 147,10 149,10
150,20 151,50 152,50 153,10
154,40 155,10 156,10 157,70
158,60 159,20 160,70 161,20
162,20 163,30 164,200 165,160
166,1531 167,1151 168,180 169,110
170,50 171,20 172,10 175,20
176,50 177,30 178,30 179,10
180,50 181,40 182,50 183,40
184,160 185,510 186,90 187,80
188,200 189,80 190,20 193,30
194,460 195,350 196,240 197,60
198,20 201,10 202,10 203,10
206,50 207,70 208,40 209,20
210,10 211,10 212,10 213,100
214,200 215,500 216,851 217,140
218,10 222,20 224,40 225,10
226,10 230,10 231,10 232,20
233,60 234,611 235,1862 236,490
237,60 238,10 241,10 242,40
243,821 244,290 245,40 246,10
248,10 250,10 251,10 256,20
261,50 263,9999 264,2422 265,260
266,20 276,400 277,70 278,20
279,20 295,4704 296,841 297,90
298,10
##END=
