##TITLE=(Trimethylsilyl)methyl hexanoate
##JCAMP-DX=4.24
##DATA TYPE=MASS SPECTRUM
##ORIGIN=NIST Mass Spectrometry Data Center
##OWNER=NIST Mass Spectrometry Data Center
Collection (C) 2014 copyright by the U.S. Secretary of Commerce
on behalf of the United States of America. All rights reserved.
##$NIST MASS SPEC NO=333735
##MOLFORM=C10 H22 O2 Si
##MW=202
##$NIST SOURCE=MSDC
##XUNITS=M/Z
##YUNITS=RELATIVE INTENSITY
##XFACTOR=1
##YFACTOR=1
##FIRSTX=15
##LASTX=203
##FIRSTY=20
##MAXX=203
##MINX=15
##MAXY=9999
##MINY=10
##NPOINTS=109
##PEAK TABLE=(XY..XY)
15,20 26,40 27,520 28,210
29,931 30,40 31,220 32,10
33,10 37,10 38,20 39,500
40,110 41,1491 42,791 43,4084
44,601 45,1541 46,110 47,180
48,10 49,10 50,20 51,30
52,10 53,190 55,4024 56,500
57,350 58,801 59,2072 60,250
61,1982 62,130 63,70 65,20
66,10 67,60 68,60 69,1271
70,340 71,1802 72,761 73,9999
74,1011 75,1581 76,100 77,70
79,10 80,50 81,110 82,20
83,90 84,10 85,60 86,70
87,320 88,480 89,2042 90,180
91,100 95,20 97,110 98,150
99,1551 100,120 101,420 102,60
103,1541 104,611 105,1862 106,190
107,70 111,10 113,30 114,10
115,230 116,581 117,220 118,40
119,10 127,10 129,811 130,621
131,1281 132,160 133,60 143,510
144,80 145,80 146,2142 147,250
148,90 157,280 159,7767 160,1281
161,370 162,40 171,50 173,1191
174,170 175,50 185,40 187,8428
188,1341 189,420 190,40 201,10
203,10
##END=
