##TITLE=Myricetin, 6TMS derivative
##JCAMP-DX=4.24
##DATA TYPE=MASS SPECTRUM
##ORIGIN=NIST Mass Spectrometry Data Center
##OWNER=NIST Mass Spectrometry Data Center
Collection (C) 2014 copyright by the U.S. Secretary of Commerce
on behalf of the United States of America. All rights reserved.
##$NIST MASS SPEC NO=333500
##MOLFORM=C33 H58 O8 Si6
##MW=750
##$NIST SOURCE=MSDC
##XUNITS=M/Z
##YUNITS=RELATIVE INTENSITY
##XFACTOR=1
##YFACTOR=1
##FIRSTX=15
##LASTX=752
##FIRSTY=40
##MAXX=752
##MINX=15
##MAXY=9999
##MINY=10
##NPOINTS=236
##PEAK TABLE=(XY..XY)
15,40 27,40 35,40 36,50
38,30 39,30 41,30 42,30
43,90 45,941 46,60 47,140
59,100 60,20 65,20 68,10
72,90 73,9999 74,781 75,1031
76,50 77,210 78,30 85,50
91,50 92,30 93,80 95,20
99,30 102,20 103,60 105,40
115,20 116,20 119,30 128,40
129,20 131,100 132,30 133,210
134,50 135,30 139,30 145,20
147,851 148,130 149,110 163,40
165,30 166,20 179,130 189,40
191,50 192,30 193,70 194,30
195,30 198,10 202,30 207,170
209,40 215,10 217,30 231,20
233,40 234,20 235,20 237,70
239,10 249,20 250,20 251,40
253,20 261,20 263,30 265,60
266,20 267,40 269,30 277,20
279,40 280,30 290,30 293,30
294,10 295,90 296,40 297,40
303,20 307,30 313,10 315,20
316,200 317,100 319,20 322,10
323,30 324,20 325,20 327,20
331,10 337,60 339,30 341,40
343,30 349,20 352,20 353,20
354,20 355,30 358,20 359,20
361,20 362,10 363,30 365,30
368,70 369,140 370,20 371,30
375,140 376,100 377,40 378,20
379,60 380,10 382,10 383,20
385,20 391,20 393,220 394,90
395,50 396,30 397,40 399,30
413,40 417,20 421,10 423,20
425,10 427,40 428,20 429,30
431,20 441,20 443,20 455,30
457,40 459,20 469,30 471,60
472,20 473,30 474,10 483,20
485,50 486,20 487,20 499,40
500,20 501,50 502,20 503,90
504,30 513,20 516,20 517,50
518,30 519,20 529,30 531,40
543,50 544,50 545,50 546,40
547,50 555,20 557,90 558,70
559,140 560,30 561,40 562,20
563,20 571,90 572,60 573,90
574,80 575,140 576,90 577,30
587,20 589,50 590,10 591,20
601,10 617,70 618,50 619,30
631,90 632,30 633,40 634,10
643,20 645,220 646,110 647,1431
648,841 649,470 650,150 651,70
653,10 659,40 660,40 661,110
662,90 677,60 678,40 705,40
706,30 719,60 720,40 721,20
733,110 734,20 735,4524 736,2853
737,1802 738,691 739,320 740,90
749,80 750,50 751,40 752,30
##END=
