##TITLE=13-Octadecenoic acid, (E)-, TMS derivative
##JCAMP-DX=4.24
##DATA TYPE=MASS SPECTRUM
##ORIGIN=NIST Mass Spectrometry Data Center
##OWNER=NIST Mass Spectrometry Data Center
Collection (C) 2014 copyright by the U.S. Secretary of Commerce
on behalf of the United States of America. All rights reserved.
##$NIST MASS SPEC NO=333617
##MOLFORM=C21 H42 O2 Si
##MW=354
##$NIST SOURCE=MSDC
##XUNITS=M/Z
##YUNITS=RELATIVE INTENSITY
##XFACTOR=1
##YFACTOR=1
##FIRSTX=15
##LASTX=357
##FIRSTY=10
##MAXX=357
##MINX=15
##MAXY=9999
##MINY=10
##NPOINTS=263
##PEAK TABLE=(XY..XY)
15,10 26,10 27,230 28,50
29,450 30,10 31,10 39,400
40,90 41,3003 42,661 43,1531
44,140 45,601 46,50 47,300
48,20 49,10 50,10 51,30
52,30 53,430 54,1161 55,8137
56,1261 57,841 58,210 59,270
60,110 61,611 62,40 63,30
65,150 66,120 67,2232 68,1111
69,2672 70,571 71,290 72,440
73,9999 74,1041 75,9388 76,701
77,540 78,60 79,571 80,290
81,2242 82,1601 83,1792 84,1461
85,360 86,120 87,100 88,80
89,350 90,50 91,250 92,90
93,430 94,300 95,2052 96,2512
97,1762 98,1511 99,400 100,50
101,130 102,30 103,50 104,10
105,260 106,100 107,320 108,240
109,1161 110,1081 111,761 112,380
113,110 114,20 115,90 116,941
117,7547 118,771 119,470 120,100
121,370 122,150 123,781 124,500
125,300 126,90 127,60 129,7787
130,1001 131,1431 132,2382 133,941
134,300 135,280 136,100 137,460
138,350 139,140 140,40 141,70
142,50 143,460 144,90 145,3253
146,440 147,290 148,130 149,150
150,60 151,290 152,340 153,100
154,20 155,190 156,70 157,200
158,80 159,240 160,50 161,100
162,50 163,70 164,60 165,180
166,250 167,80 168,50 169,180
170,80 171,490 172,160 173,180
174,70 175,70 176,20 177,40
178,30 179,100 180,520 181,110
182,20 183,180 184,40 185,801
186,190 187,190 188,110 189,50
190,10 191,20 192,10 193,90
194,80 195,30 196,10 197,50
198,20 199,681 200,140 201,240
202,40 203,40 204,10 205,10
206,10 207,110 208,60 209,30
210,10 211,50 212,10 213,180
214,40 215,70 216,20 217,20
218,10 220,120 221,190 222,711
223,140 224,20 225,30 226,10
227,180 228,40 229,60 230,20
231,10 235,150 236,140 237,20
239,30 240,10 241,180 242,40
243,60 244,20 245,10 246,40
247,10 249,30 250,10 253,30
254,10 255,130 256,30 257,100
258,40 259,10 263,10 264,641
265,140 266,10 267,40 268,10
269,90 270,20 271,60 272,70
273,20 281,40 282,10 283,80
284,20 285,20 286,40 287,10
295,170 296,40 297,50 298,10
299,30 300,10 309,70 310,20
311,90 312,30 313,20 321,10
323,40 324,10 325,30 326,10
337,20 339,6156 340,1682 341,450
342,70 343,10 353,20 354,490
355,150 356,50 357,10
##END=
