##TITLE=cis-10-Nonadecenoic acid, methyl ester
##JCAMP-DX=4.24
##DATA TYPE=MASS SPECTRUM
##ORIGIN=NIST Mass Spectrometry Data Center
##OWNER=NIST Mass Spectrometry Data Center
Collection (C) 2014 copyright by the U.S. Secretary of Commerce
on behalf of the United States of America. All rights reserved.
##$NIST MASS SPEC NO=333644
##MOLFORM=C20 H38 O2
##MW=310
##$NIST SOURCE=MSDC
##XUNITS=M/Z
##YUNITS=RELATIVE INTENSITY
##XFACTOR=1
##YFACTOR=1
##FIRSTX=15
##LASTX=312
##FIRSTY=70
##MAXX=312
##MINX=15
##MAXY=9999
##MINY=10
##NPOINTS=222
##PEAK TABLE=(XY..XY)
15,70 27,350 28,90 29,971
30,30 31,40 33,10 39,701
40,160 41,4714 42,911 43,3954
44,140 45,180 50,10 51,50
52,50 53,781 54,2142 55,9999
56,2242 57,3093 58,170 59,2062
60,70 61,30 62,10 63,10
65,270 66,210 67,3593 68,1952
69,6186 70,1722 71,1061 72,110
73,540 74,5375 75,771 76,50
77,260 78,90 79,961 80,510
81,3263 82,2212 83,5705 84,4104
85,1021 87,4224 88,390 89,30
90,10 91,280 92,80 93,540
94,561 95,2843 96,4654 97,5545
98,3883 99,550 100,110 101,771
102,90 103,20 104,10 105,150
106,70 107,430 108,400 109,1541
110,2342 111,2442 112,931 113,380
114,470 115,811 116,130 117,20
118,30 119,380 120,140 121,571
122,250 123,1682 124,1271 125,1421
126,300 127,410 128,550 129,550
130,160 131,20 132,20 133,340
134,340 135,540 136,180 137,1011
138,961 139,781 140,150 141,781
142,160 143,490 144,70 145,10
147,240 148,280 149,380 150,120
151,661 152,831 153,440 154,90
155,150 156,30 157,150 158,40
159,10 161,210 162,90 163,190
164,100 165,430 166,440 167,260
168,50 169,130 170,30 171,120
172,30 173,10 175,140 176,50
177,100 178,110 179,270 180,500
181,190 182,50 183,230 184,30
185,100 186,30 187,10 189,80
190,30 191,50 192,40 193,200
194,1171 195,260 196,60 197,160
198,20 199,70 200,30 201,10
203,40 204,10 205,30 206,20
207,220 208,210 209,70 210,20
211,30 212,10 213,100 214,60
215,10 217,20 218,10 219,20
220,20 221,240 222,170 223,80
224,20 225,20 227,100 228,60
229,10 231,20 232,10 234,400
235,440 236,1331 237,310 238,40
239,20 241,30 242,30 243,10
245,10 247,10 249,280 250,170
251,30 253,20 255,10 259,10
260,160 261,110 262,20 263,50
264,10 267,100 268,20 269,10
278,2622 279,1481 280,260 281,40
282,10 292,30 293,10 310,460
311,120 312,20
##END=
