##TITLE=5-Amino-1-pentanol, TMS derivative
##JCAMP-DX=4.24
##DATA TYPE=MASS SPECTRUM
##ORIGIN=NIST Mass Spectrometry Data Center
##OWNER=NIST Mass Spectrometry Data Center
Collection (C) 2014 copyright by the U.S. Secretary of Commerce
on behalf of the United States of America. All rights reserved.
##$NIST MASS SPEC NO=333017
##MOLFORM=C8 H21 N O Si
##MW=175
##$NIST SOURCE=MSDC
##XUNITS=M/Z
##YUNITS=RELATIVE INTENSITY
##XFACTOR=1
##YFACTOR=1
##FIRSTX=15
##LASTX=177
##FIRSTY=40
##MAXX=177
##MINX=15
##MAXY=9999
##MINY=10
##NPOINTS=117
##PEAK TABLE=(XY..XY)
15,40 17,10 18,80 26,20
27,200 28,540 29,390 30,7066
31,220 32,10 38,10 39,310
40,60 41,1411 42,611 43,2392
44,741 45,2352 46,200 47,1001
48,50 49,40 50,10 51,20
52,20 53,180 54,130 55,701
56,9999 57,1161 58,641 59,2622
60,510 61,1261 62,100 63,50
65,60 66,20 67,641 68,651
69,1101 70,260 71,200 72,1131
73,6656 74,4024 75,9098 76,981
77,350 78,20 80,20 81,10
82,160 83,70 84,2382 85,3093
86,1231 87,1641 88,460 89,561
90,270 91,200 92,130 93,20
94,10 95,10 96,10 97,90
98,60 99,310 100,150 101,701
102,571 103,1882 104,2402 105,270
106,90 110,10 111,30 112,20
113,420 114,120 115,1161 116,410
117,180 118,140 119,20 120,20
125,10 126,20 127,40 128,10
129,851 130,250 131,4664 132,611
133,200 134,10 140,30 142,1742
143,2903 144,490 145,180 146,20
147,10 155,10 156,20 158,550
159,70 160,2973 161,400 162,130
163,10 174,40 175,60 176,40
177,10
##END=
