##TITLE=2,6-Dichlorophenol, TBDMS derivative
##JCAMP-DX=4.24
##DATA TYPE=MASS SPECTRUM
##ORIGIN=NIST Mass Spectrometry Data Center
##OWNER=NIST Mass Spectrometry Data Center
Collection (C) 2014 copyright by the U.S. Secretary of Commerce
on behalf of the United States of America. All rights reserved.
##$NIST MASS SPEC NO=333357
##MOLFORM=C12 H18 Cl2 O Si
##MW=276
##$NIST SOURCE=MSDC
##XUNITS=M/Z
##YUNITS=RELATIVE INTENSITY
##XFACTOR=1
##YFACTOR=1
##FIRSTX=15
##LASTX=280
##FIRSTY=10
##MAXX=280
##MINX=15
##MAXY=9999
##MINY=10
##NPOINTS=180
##PEAK TABLE=(XY..XY)
15,10 26,10 27,90 28,20
29,300 30,10 31,20 37,10
38,20 39,260 40,40 41,601
42,120 43,240 44,30 45,190
46,10 47,30 49,10 50,40
51,110 52,20 53,110 54,20
55,100 56,50 57,460 58,120
59,230 60,30 61,40 62,100
63,1131 64,120 65,751 66,60
67,200 68,10 69,20 70,10
71,10 72,40 73,581 74,150
75,200 76,40 77,260 78,150
79,240 80,40 81,70 82,10
83,30 84,40 85,40 86,20
87,20 88,10 89,250 90,100
91,200 92,260 93,3613 94,320
95,1341 96,100 97,100 98,100
99,170 100,50 101,70 102,30
103,190 104,50 105,400 106,40
107,30 108,10 109,100 110,70
112,30 113,951 114,80 115,711
116,50 117,140 118,10 119,60
120,10 121,60 122,10 123,50
125,1892 126,260 127,661 128,90
129,40 130,10 131,10 133,80
134,20 135,60 136,10 137,20
138,10 139,50 140,30 141,40
142,20 143,10 144,10 145,10
146,10 147,410 148,550 149,180
150,40 151,10 152,10 153,20
154,10 155,260 156,30 157,100
158,10 159,20 160,10 161,60
162,30 163,50 164,20 165,30
166,10 167,20 168,80 169,270
170,70 171,100 172,20 173,10
175,20 177,10 181,140 183,4164
184,1041 185,1561 186,370 187,80
189,240 190,30 191,150 192,20
193,30 195,10 203,110 204,60
205,160 206,50 207,70 208,10
209,20 217,50 219,9999 220,1571
221,7106 222,1001 223,1391 224,170
225,50 245,10 261,90 262,20
263,60 264,10 265,10 276,50
277,10 278,30 279,10 280,10
##END=
