##TITLE=Syringol, TMS derivative
##JCAMP-DX=4.24
##DATA TYPE=MASS SPECTRUM
##ORIGIN=NIST Mass Spectrometry Data Center
##OWNER=NIST Mass Spectrometry Data Center
Collection (C) 2014 copyright by the U.S. Secretary of Commerce
on behalf of the United States of America. All rights reserved.
##$NIST MASS SPEC NO=333383
##MOLFORM=C11 H18 O3 Si
##MW=226
##$NIST SOURCE=MSDC
##XUNITS=M/Z
##YUNITS=RELATIVE INTENSITY
##XFACTOR=1
##YFACTOR=1
##FIRSTX=15
##LASTX=229
##FIRSTY=160
##MAXX=229
##MINX=15
##MAXY=9999
##MINY=10
##NPOINTS=137
##PEAK TABLE=(XY..XY)
15,160 26,10 27,30 28,20
29,70 30,10 31,20 37,10
38,30 39,230 40,10 41,20
42,30 43,270 44,100 45,651
46,40 47,40 50,70 51,240
52,60 53,160 54,30 55,120
56,20 57,60 58,110 59,671
60,60 61,80 62,30 63,80
64,50 65,170 66,60 67,80
68,30 69,100 70,30 71,50
73,1531 74,150 75,330 76,60
77,170 78,80 79,200 80,40
81,50 82,50 83,150 84,20
85,60 87,10 88,10 89,270
90,70 91,240 92,80 93,170
94,50 95,480 96,50 97,200
98,60 99,130 100,10 101,10
103,10 104,20 105,150 107,220
108,120 109,110 110,180 111,60
112,10 113,10 119,20 120,20
121,240 122,60 123,350 124,50
125,130 126,10 133,10 134,10
135,150 136,230 137,280 138,80
139,110 140,20 147,40 148,40
149,140 150,80 151,651 152,140
153,1902 154,250 155,80 156,10
161,20 162,10 163,20 164,20
165,210 166,621 167,360 168,80
169,20 177,10 178,10 179,230
180,150 181,1852 182,300 183,100
184,10 193,30 194,50 196,9999
197,2122 198,681 199,60 200,10
209,40 211,4234 212,711 213,220
214,20 226,3433 227,611 228,180
229,20
##END=
