##TITLE=(-)-Isolongifolol, TBDMS derivative
##JCAMP-DX=4.24
##DATA TYPE=MASS SPECTRUM
##ORIGIN=NIST Mass Spectrometry Data Center
##OWNER=NIST Mass Spectrometry Data Center
Collection (C) 2014 copyright by the U.S. Secretary of Commerce
on behalf of the United States of America. All rights reserved.
##$NIST MASS SPEC NO=333040
##MOLFORM=C21 H40 O Si
##MW=336
##$NIST SOURCE=MSDC
##XUNITS=M/Z
##YUNITS=RELATIVE INTENSITY
##XFACTOR=1
##YFACTOR=1
##FIRSTX=27
##LASTX=322
##FIRSTY=60
##MAXX=322
##MINX=27
##MAXY=9999
##MINY=10
##NPOINTS=195
##PEAK TABLE=(XY..XY)
27,60 29,240 30,10 31,20
38,10 39,150 40,40 41,1141
42,70 43,480 44,20 45,190
46,10 47,160 48,10 50,10
51,20 52,20 53,270 54,60
55,1161 56,220 57,641 58,200
59,581 60,80 61,160 62,10
63,10 65,150 66,60 67,971
68,110 69,961 70,70 71,70
73,2242 74,280 75,9999 76,771
77,811 78,100 79,871 80,130
81,1221 82,170 83,310 84,40
85,120 86,10 87,50 88,100
89,791 90,120 91,911 92,160
93,1091 94,180 95,1441 96,140
97,280 98,50 99,140 100,30
101,170 102,40 103,350 104,110
105,971 106,160 107,981 108,140
109,1391 110,140 111,841 112,90
113,200 114,40 115,1011 116,130
117,470 118,110 119,711 120,120
121,701 122,100 123,550 124,60
125,220 126,40 127,360 128,80
129,220 130,40 131,120 132,90
133,581 134,100 135,400 136,60
137,320 138,40 139,60 140,20
141,330 142,60 143,150 144,20
145,80 146,20 147,651 148,100
149,500 150,70 151,120 152,20
153,50 154,20 155,490 156,70
157,80 158,10 159,50 160,20
161,300 162,50 163,490 164,80
165,60 166,20 167,50 168,20
169,330 170,50 171,50 172,10
173,20 174,10 175,290 176,50
177,70 178,10 179,40 180,10
181,40 182,10 183,90 184,20
185,20 187,20 188,10 189,90
190,10 191,30 192,10 193,20
194,10 195,40 196,10 197,80
198,20 199,10 201,10 203,1912
204,320 205,120 206,20 207,20
209,40 210,10 211,10 219,20
221,20 223,30 224,10 233,10
235,30 236,10 237,20 247,10
249,20 250,10 251,20 259,10
261,290 262,70 263,30 264,10
277,10 279,3974 280,961 281,230
282,30 321,40 322,10
##END=
