##TITLE=3,3-Dimethyl-2-butanol, TBDMS derivative
##JCAMP-DX=4.24
##DATA TYPE=MASS SPECTRUM
##ORIGIN=NIST Mass Spectrometry Data Center
##OWNER=NIST Mass Spectrometry Data Center
Collection (C) 2014 copyright by the U.S. Secretary of Commerce
on behalf of the United States of America. All rights reserved.
##$NIST MASS SPEC NO=333318
##MOLFORM=C12 H28 O Si
##MW=216
##$NIST SOURCE=MSDC
##XUNITS=M/Z
##YUNITS=RELATIVE INTENSITY
##XFACTOR=1
##YFACTOR=1
##FIRSTX=15
##LASTX=216
##FIRSTY=10
##MAXX=216
##MINX=15
##MAXY=9999
##MINY=10
##NPOINTS=81
##PEAK TABLE=(XY..XY)
15,10 18,10 27,90 28,30
29,280 30,10 31,30 39,150
40,20 41,621 42,60 43,440
44,50 45,440 46,30 47,280
48,20 51,10 53,50 54,10
55,150 56,40 57,470 58,370
59,731 60,130 61,230 62,20
63,10 65,10 66,10 67,30
69,90 70,20 71,30 72,110
73,4244 74,510 75,9999 76,711
77,390 78,10 81,10 83,40
84,20 85,200 86,30 87,340
88,30 89,20 97,10 98,10
99,100 100,50 101,240 102,220
103,901 104,110 105,40 109,10
113,20 115,851 116,90 117,60
125,10 127,10 129,30 141,10
143,40 144,10 145,10 157,10
159,7257 160,981 161,300 162,30
201,420 202,70 203,20 215,20
216,20
##END=
