##TITLE=3-Hexen-1-ol, (E)-, TMS derivative
##JCAMP-DX=4.24
##DATA TYPE=MASS SPECTRUM
##ORIGIN=NIST Mass Spectrometry Data Center
##OWNER=NIST Mass Spectrometry Data Center
Collection (C) 2014 copyright by the U.S. Secretary of Commerce
on behalf of the United States of America. All rights reserved.
##$NIST MASS SPEC NO=333083
##MOLFORM=C9 H20 O Si
##MW=172
##$NIST SOURCE=MSDC
##XUNITS=M/Z
##YUNITS=RELATIVE INTENSITY
##XFACTOR=1
##YFACTOR=1
##FIRSTX=15
##LASTX=171
##FIRSTY=20
##MAXX=171
##MINX=15
##MAXY=9999
##MINY=10
##NPOINTS=93
##PEAK TABLE=(XY..XY)
15,20 26,10 27,180 28,60
29,190 30,10 31,30 38,20
39,360 40,60 41,651 42,90
43,390 44,150 45,781 46,60
47,330 48,20 49,10 50,30
51,60 52,30 53,230 54,90
55,561 56,50 57,220 58,400
59,641 60,110 61,360 62,30
63,30 64,20 65,60 66,30
67,300 68,90 69,80 70,60
71,110 73,9058 74,931 75,2993
76,220 77,140 79,70 80,10
81,90 82,2132 83,230 84,20
85,210 86,20 87,180 88,130
89,430 90,40 91,20 95,30
96,10 97,80 98,20 99,601
100,90 101,961 103,9999 104,1101
105,460 106,20 109,20 111,90
112,10 113,100 114,10 115,230
116,40 117,10 125,10 127,280
128,40 129,360 130,40 131,10
139,10 141,20 142,10 143,10
155,10 157,1191 158,170 159,60
171,20
##END=
