##TITLE=3-Phenoxybenzyl alcohol, TBDMS derivative
##JCAMP-DX=4.24
##DATA TYPE=MASS SPECTRUM
##ORIGIN=NIST Mass Spectrometry Data Center
##OWNER=NIST Mass Spectrometry Data Center
Collection (C) 2014 copyright by the U.S. Secretary of Commerce
on behalf of the United States of America. All rights reserved.
##$NIST MASS SPEC NO=333981
##MOLFORM=C19 H26 O2 Si
##MW=314
##$NIST SOURCE=MSDC
##XUNITS=M/Z
##YUNITS=RELATIVE INTENSITY
##XFACTOR=1
##YFACTOR=1
##FIRSTX=15
##LASTX=315
##FIRSTY=10
##MAXX=315
##MINX=15
##MAXY=9999
##MINY=10
##NPOINTS=183
##PEAK TABLE=(XY..XY)
15,10 27,60 28,20 29,210
30,10 31,20 38,20 39,240
40,40 41,460 42,30 43,120
44,20 45,260 46,20 47,140
48,10 49,10 50,100 51,510
52,90 53,60 54,10 55,140
56,120 57,571 58,130 59,711
60,80 61,90 62,40 63,210
64,110 65,170 66,30 67,30
68,10 69,20 70,10 71,10
73,631 74,120 75,861 76,150
77,1371 78,430 79,60 81,20
83,30 84,10 85,50 86,10
87,20 89,921 90,510 91,300
92,40 93,40 94,30 95,40
96,10 97,10 98,10 99,30
100,10 101,30 102,50 103,80
104,30 105,110 106,40 107,100
108,10 109,10 111,20 112,10
113,50 115,741 116,120 117,20
118,10 119,40 120,20 121,70
122,20 123,20 125,10 126,40
127,470 128,721 129,701 130,70
131,50 132,10 133,40 134,20
135,100 136,20 137,80 138,10
139,180 140,70 141,210 142,60
143,20 144,50 145,30 146,10
147,40 148,30 149,380 150,140
151,440 152,631 153,1161 154,641
155,540 156,70 157,40 161,40
162,30 163,170 164,581 165,1041
166,180 167,50 168,1071 169,420
170,70 171,10 177,10 178,20
179,170 180,80 181,1061 182,591
183,8428 184,1441 185,130 186,10
195,20 196,40 197,330 198,320
199,50 200,10 209,20 211,1411
212,280 213,90 214,10 221,10
223,50 224,20 225,30 227,7707
228,1792 229,480 230,60 231,10
237,20 238,20 239,130 240,30
241,270 242,60 243,20 253,10
255,70 257,9999 258,2903 259,791
260,100 261,10 269,60 270,20
281,10 299,200 300,50 301,10
313,10 314,30 315,10
##END=
