##TITLE=Hexacosanoic acid, TMS derivative
##JCAMP-DX=4.24
##DATA TYPE=MASS SPECTRUM
##ORIGIN=NIST Mass Spectrometry Data Center
##OWNER=NIST Mass Spectrometry Data Center
Collection (C) 2014 copyright by the U.S. Secretary of Commerce
on behalf of the United States of America. All rights reserved.
##$NIST MASS SPEC NO=333861
##MOLFORM=C29 H60 O2 Si
##MW=468
##$NIST SOURCE=MSDC
##XUNITS=M/Z
##YUNITS=RELATIVE INTENSITY
##XFACTOR=1
##YFACTOR=1
##FIRSTX=26
##LASTX=471
##FIRSTY=10
##MAXX=471
##MINX=26
##MAXY=9999
##MINY=10
##NPOINTS=261
##PEAK TABLE=(XY..XY)
26,10 27,120 29,470 30,10
31,10 39,150 40,40 41,1932
42,520 43,4944 44,210 45,390
46,30 47,160 48,10 49,10
51,10 52,10 53,120 54,250
55,3883 56,981 57,4784 58,350
59,240 60,60 61,330 62,20
63,10 65,20 66,20 67,631
68,240 69,1842 70,460 71,1551
72,360 73,8147 74,791 75,5705
76,400 77,290 78,20 79,150
80,50 81,671 82,210 83,1391
84,400 85,811 86,110 87,80
88,40 89,270 90,40 91,100
92,20 93,160 94,40 95,681
96,170 97,1141 98,581 99,250
100,40 101,100 102,20 103,40
104,10 105,150 106,20 107,120
108,20 109,310 110,70 111,530
112,190 113,90 114,30 115,100
116,641 117,9999 118,971 119,420
120,20 121,170 122,20 123,130
124,40 125,160 126,50 127,60
129,5155 130,671 131,1031 132,5975
133,1852 134,380 135,190 136,20
137,50 138,20 139,60 140,30
141,30 142,30 143,360 145,5315
146,681 147,240 148,20 149,70
150,10 151,20 152,10 153,40
154,60 155,50 156,10 157,90
158,20 159,340 160,50 161,20
163,30 165,10 166,10 167,30
168,20 169,20 170,10 171,290
172,50 173,100 174,100 175,20
176,10 177,10 181,10 182,10
183,10 185,460 186,60 187,340
188,130 189,30 190,10 191,10
195,10 196,10 197,10 199,100
200,20 201,841 202,140 203,40
205,10 209,10 210,10 213,80
214,20 215,60 216,10 223,10
224,10 225,10 227,120 228,20
229,40 230,10 237,10 241,130
242,20 243,90 244,20 245,10
251,10 255,100 256,20 257,90
258,20 259,10 266,10 269,100
270,20 271,30 272,10 279,10
280,10 283,100 284,20 285,30
286,10 293,10 297,90 298,20
299,30 300,10 307,10 311,80
312,20 313,40 314,10 322,10
323,10 325,60 326,20 327,30
328,10 335,10 339,50 340,10
341,20 342,10 350,10 353,50
354,20 355,20 356,10 367,40
368,10 369,70 370,20 371,10
377,10 378,10 379,10 381,20
382,10 383,60 384,20 385,10
395,20 396,10 397,20 398,10
409,290 410,90 411,60 412,20
413,10 423,30 424,10 425,250
426,80 427,30 428,10 437,10
439,40 440,20 451,30 453,4414
454,1581 455,450 456,80 457,10
467,30 468,1341 469,500 470,130
471,30
##END=
