##TITLE=1,3-Propanediol, TMS derivative
##JCAMP-DX=4.24
##DATA TYPE=MASS SPECTRUM
##ORIGIN=NIST Mass Spectrometry Data Center
##OWNER=NIST Mass Spectrometry Data Center
Collection (C) 2014 copyright by the U.S. Secretary of Commerce
on behalf of the United States of America. All rights reserved.
##$NIST MASS SPEC NO=333052
##MOLFORM=C6 H16 O2 Si
##MW=148
##$NIST SOURCE=MSDC
##XUNITS=M/Z
##YUNITS=RELATIVE INTENSITY
##XFACTOR=1
##YFACTOR=1
##FIRSTX=15
##LASTX=149
##FIRSTY=30
##MAXX=149
##MINX=15
##MAXY=9999
##MINY=10
##NPOINTS=71
##PEAK TABLE=(XY..XY)
15,30 19,10 26,10 27,80
28,40 29,160 30,30 31,350
39,60 40,10 41,110 42,70
43,400 44,130 45,981 46,70
47,400 48,20 49,10 53,40
54,10 55,80 56,20 57,220
58,230 59,530 60,130 61,581
62,40 63,30 66,10 69,10
70,20 71,50 72,160 73,2442
74,410 75,9999 76,831 77,540
78,20 79,10 85,120 86,10
87,290 88,50 89,60 90,40
91,60 92,10 99,60 100,10
101,130 102,80 103,811 105,4834
106,420 107,190 108,10 115,530
116,60 117,110 118,40 119,10
130,80 131,20 133,1391 134,150
135,60 147,10 149,10
##END=
