##TITLE=3,5-Dichlorophenol, TMS derivative
##JCAMP-DX=4.24
##DATA TYPE=MASS SPECTRUM
##ORIGIN=NIST Mass Spectrometry Data Center
##OWNER=NIST Mass Spectrometry Data Center
Collection (C) 2014 copyright by the U.S. Secretary of Commerce
on behalf of the United States of America. All rights reserved.
##$NIST MASS SPEC NO=333375
##MOLFORM=C9 H12 Cl2 O Si
##MW=234
##$NIST SOURCE=MSDC
##XUNITS=M/Z
##YUNITS=RELATIVE INTENSITY
##XFACTOR=1
##YFACTOR=1
##FIRSTX=15
##LASTX=240
##FIRSTY=40
##MAXX=240
##MINX=15
##MAXY=9999
##MINY=10
##NPOINTS=184
##PEAK TABLE=(XY..XY)
15,40 26,10 27,50 28,40
29,100 30,10 31,20 35,10
37,20 38,40 39,60 41,20
42,80 43,500 44,150 45,721
46,50 47,120 48,10 49,20
50,100 51,130 52,20 53,200
54,30 55,110 56,20 57,70
58,100 59,110 60,70 61,120
62,250 63,1401 64,90 65,330
66,60 67,110 68,10 69,20
70,30 71,40 72,100 73,2172
74,530 75,611 76,70 77,340
78,100 79,180 80,30 81,60
82,10 83,50 84,90 85,90
86,40 87,70 88,20 89,200
90,50 91,500 92,110 93,1722
94,160 95,721 97,180 98,110
99,190 100,50 101,80 102,40
103,160 104,20 105,110 106,20
107,40 108,30 109,721 110,490
112,100 113,1211 114,90 115,841
116,60 117,200 118,20 119,70
120,10 121,40 122,10 123,180
124,50 125,320 126,80 127,220
128,40 129,100 130,10 131,20
133,250 134,40 135,160 136,20
137,80 138,10 139,70 140,20
141,60 142,10 143,20 145,530
146,60 147,410 148,160 149,150
150,20 151,40 152,10 153,30
154,30 155,440 156,70 157,170
158,30 159,190 160,40 161,180
162,40 163,100 164,30 165,40
166,10 167,40 168,20 169,280
170,80 171,110 172,20 173,10
175,20 177,10 181,40 182,40
183,210 184,210 185,100 186,70
187,10 189,260 190,40 191,260
192,40 193,100 194,10 195,20
197,10 198,20 199,30 200,10
201,30 202,10 203,100 204,20
205,90 206,20 207,30 215,10
216,10 217,40 219,9999 220,1481
221,7066 222,961 223,1361 224,160
225,50 234,3053 235,470 236,2052
237,290 238,390 239,50 240,10
##END=
