##TITLE=Isoamyl alcohol, TBDMS derivative
##JCAMP-DX=4.24
##DATA TYPE=MASS SPECTRUM
##ORIGIN=NIST Mass Spectrometry Data Center
##OWNER=NIST Mass Spectrometry Data Center
Collection (C) 2014 copyright by the U.S. Secretary of Commerce
on behalf of the United States of America. All rights reserved.
##$NIST MASS SPEC NO=333096
##MOLFORM=C11 H26 O Si
##MW=202
##$NIST SOURCE=MSDC
##XUNITS=M/Z
##YUNITS=RELATIVE INTENSITY
##XFACTOR=1
##YFACTOR=1
##FIRSTX=15
##LASTX=203
##FIRSTY=10
##MAXX=203
##MINX=15
##MAXY=9999
##MINY=10
##NPOINTS=88
##PEAK TABLE=(XY..XY)
15,10 27,180 28,30 29,330
30,10 31,30 39,270 40,50
41,911 42,100 43,911 44,70
45,601 46,40 47,450 48,20
49,20 50,10 51,20 52,10
53,80 54,20 55,240 56,80
57,410 58,420 59,1151 60,200
61,390 62,30 63,10 65,10
67,30 69,2732 70,220 71,180
72,160 73,2122 74,330 75,6326
76,510 77,270 78,10 81,10
83,30 84,10 85,160 86,30
87,510 89,9008 90,961 91,420
92,10 95,10 97,40 98,10
99,180 100,40 101,410 102,250
103,230 104,30 105,10 111,30
113,50 114,10 115,450 116,50
117,30 127,10 129,230 130,40
131,170 132,20 133,10 143,100
145,9999 146,1862 147,611 148,40
159,10 171,10 187,150 188,20
189,10 201,10 202,90 203,20
##END=
