##TITLE=Pentacosanoic acid, trimethylsilyl ester
##JCAMP-DX=4.24
##DATA TYPE=MASS SPECTRUM
##ORIGIN=NIST Mass Spectrometry Data Center
##OWNER=NIST Mass Spectrometry Data Center
Collection (C) 2014 copyright by the U.S. Secretary of Commerce
on behalf of the United States of America. All rights reserved.
##$NIST MASS SPEC NO=333862
##MOLFORM=C28 H58 O2 Si
##MW=454
##$NIST SOURCE=MSDC
##XUNITS=M/Z
##YUNITS=RELATIVE INTENSITY
##XFACTOR=1
##YFACTOR=1
##FIRSTX=26
##LASTX=457
##FIRSTY=10
##MAXX=457
##MINX=26
##MAXY=9999
##MINY=10
##NPOINTS=251
##PEAK TABLE=(XY..XY)
26,10 27,120 29,480 30,10
31,10 39,150 40,20 41,1982
42,500 43,4784 44,200 45,390
46,30 47,160 48,10 49,10
51,10 52,10 53,130 54,260
55,3783 56,931 57,4344 58,340
59,250 60,60 61,350 62,20
63,10 65,20 66,20 67,621
68,220 69,1772 70,440 71,1361
72,360 73,8157 74,811 75,5795
76,410 77,280 78,10 79,140
80,40 81,631 82,200 83,1281
84,380 85,731 86,100 87,70
88,50 89,270 90,40 91,90
92,10 93,150 94,40 95,641
96,160 97,1041 98,561 99,250
100,30 101,100 102,20 103,40
105,140 106,20 107,120 108,20
109,310 110,70 111,490 112,190
113,80 114,20 115,110 116,621
117,9999 118,981 119,410 120,20
121,160 122,30 123,110 124,40
125,160 126,50 127,50 129,5195
130,671 131,1011 132,5965 133,1752
134,350 135,180 136,20 137,40
138,20 139,60 140,30 141,40
142,20 143,350 145,5145 146,661
147,230 148,20 149,60 150,10
151,20 152,10 153,40 154,60
155,40 156,10 157,100 158,20
159,360 160,60 161,20 163,30
164,10 165,10 166,10 167,20
168,20 169,20 171,290 172,50
173,80 174,100 175,20 177,10
179,10 181,10 182,10 183,10
185,430 186,70 187,340 188,100
189,20 191,10 195,10 196,10
197,10 199,90 200,20 201,821
202,140 203,50 205,10 209,10
211,10 213,80 214,20 215,50
216,10 217,10 223,10 224,10
227,120 228,20 229,40 230,20
241,130 242,30 243,80 244,20
245,10 255,100 256,20 257,90
258,20 259,10 265,10 269,110
270,20 271,30 272,10 279,10
283,100 284,20 285,30 286,10
297,90 298,20 299,40 300,10
308,10 311,70 312,20 313,40
314,10 321,10 325,50 326,10
327,30 328,10 335,10 339,60
340,20 341,20 342,10 345,10
353,50 354,10 355,70 356,30
357,10 363,10 364,10 365,10
367,20 368,10 369,60 370,20
371,10 381,30 382,10 383,20
384,10 395,310 396,100 397,60
398,20 409,40 410,10 411,280
412,90 413,20 414,10 423,10
424,10 425,50 426,20 427,10
437,30 439,4854 440,1712 441,470
442,80 443,10 453,30 454,1441
455,530 456,150 457,30
##END=
