##TITLE=(Trimethylsilyl)methyl nonanoate
##JCAMP-DX=4.24
##DATA TYPE=MASS SPECTRUM
##ORIGIN=NIST Mass Spectrometry Data Center
##OWNER=NIST Mass Spectrometry Data Center
Collection (C) 2014 copyright by the U.S. Secretary of Commerce
on behalf of the United States of America. All rights reserved.
##$NIST MASS SPEC NO=333725
##MOLFORM=C13 H28 O2 Si
##MW=244
##$NIST SOURCE=MSDC
##XUNITS=M/Z
##YUNITS=RELATIVE INTENSITY
##XFACTOR=1
##YFACTOR=1
##FIRSTX=15
##LASTX=245
##FIRSTY=10
##MAXX=245
##MINX=15
##MAXY=9999
##MINY=10
##NPOINTS=142
##PEAK TABLE=(XY..XY)
15,10 26,20 27,380 28,170
29,841 30,30 31,150 39,410
40,110 41,2132 42,641 43,2572
44,410 45,1141 46,80 47,120
48,10 50,10 51,20 52,20
53,190 54,100 55,4204 56,641
57,1982 58,661 59,2072 60,230
61,1271 62,80 63,50 65,30
66,20 67,310 68,150 69,1311
70,250 71,1321 72,581 73,7887
74,831 75,1421 76,100 77,90
78,10 79,70 80,20 81,470
82,80 83,360 84,210 85,130
86,120 87,370 88,360 89,1341
90,130 91,90 92,10 93,50
94,20 95,100 96,50 97,410
98,320 99,80 100,40 101,350
102,60 103,1631 104,671 105,1531
106,160 107,90 108,10 109,10
111,190 112,100 113,50 114,20
115,190 116,721 117,250 118,50
119,10 121,10 123,260 124,30
125,40 127,10 129,781 130,661
131,2012 132,240 133,100 134,10
139,40 141,1031 142,130 143,1321
144,210 145,120 146,3964 147,480
148,170 149,10 155,10 156,10
157,160 159,9999 160,1692 161,500
162,50 169,10 171,130 173,1141
174,180 175,60 185,60 186,10
187,100 188,30 189,10 199,70
200,10 201,290 202,60 203,20
213,90 214,20 215,230 216,40
217,10 227,50 229,8338 230,1621
231,470 232,50 233,10 243,10
244,10 245,10
##END=
