##TITLE=2,3,6-Trichlorophenol, TMS derivative
##JCAMP-DX=4.24
##DATA TYPE=MASS SPECTRUM
##ORIGIN=NIST Mass Spectrometry Data Center
##OWNER=NIST Mass Spectrometry Data Center
Collection (C) 2014 copyright by the U.S. Secretary of Commerce
on behalf of the United States of America. All rights reserved.
##$NIST MASS SPEC NO=333409
##MOLFORM=C9 H11 Cl3 O Si
##MW=268
##$NIST SOURCE=MSDC
##XUNITS=M/Z
##YUNITS=RELATIVE INTENSITY
##XFACTOR=1
##YFACTOR=1
##FIRSTX=14
##LASTX=275
##FIRSTY=10
##MAXX=275
##MINX=14
##MAXY=9999
##MINY=10
##NPOINTS=214
##PEAK TABLE=(XY..XY)
14,10 15,70 26,10 27,70
28,50 29,140 30,10 31,30
35,10 36,10 37,50 38,30
39,40 41,30 42,120 43,681
44,270 45,1021 46,70 47,70
48,10 49,30 50,110 51,250
52,30 53,250 54,40 55,150
56,30 57,130 58,100 59,110
60,80 61,240 62,591 63,1491
64,130 65,1461 66,120 67,380
68,20 69,20 70,70 71,90
72,290 73,3133 74,601 75,450
76,110 77,631 78,180 79,781
80,100 81,280 82,20 83,90
84,100 85,110 86,70 87,130
88,30 89,190 90,130 91,210
92,240 93,6916 94,591 95,2592
96,360 97,1481 98,190 99,601
100,70 101,130 102,80 103,200
104,130 105,300 106,60 107,330
108,170 109,350 110,80 111,220
113,1441 114,130 115,981 116,70
117,220 118,60 119,70 120,40
121,30 122,10 123,240 124,70
125,250 126,931 127,941 128,350
131,80 132,340 133,200 134,230
135,160 136,60 137,80 138,30
139,220 140,40 141,90 142,20
143,70 144,50 145,70 146,40
147,200 148,50 149,60 150,10
151,30 152,10 153,60 154,20
155,90 156,10 157,70 159,1862
160,330 161,1171 162,200 163,220
164,40 165,20 167,370 168,50
169,370 170,30 171,120 172,10
173,40 174,20 175,70 176,20
177,40 178,10 179,20 180,10
181,470 182,430 183,731 184,220
185,190 186,30 187,20 188,10
189,190 190,30 191,120 192,20
193,50 194,10 195,160 196,30
197,160 198,50 199,60 200,20
201,20 202,20 203,180 204,40
205,120 206,20 207,20 209,10
211,10 215,70 217,1782 218,1001
219,1311 220,681 221,290 222,120
223,110 224,20 225,90 226,10
227,30 229,10 232,10 237,30
238,10 239,30 240,10 241,20
251,30 253,9999 254,1441 255,9879
256,1401 257,3543 258,470 259,460
260,50 261,10 268,2052 269,320
270,2082 271,310 272,721 273,100
274,90 275,10
##END=
