##TITLE=(R)-(+)-Citronellic acid, 4,4-dimethyloxazoline (dmox) derivative
##JCAMP-DX=4.24
##DATA TYPE=MASS SPECTRUM
##ORIGIN=NIST Mass Spectrometry Data Center
##OWNER=NIST Mass Spectrometry Data Center
Collection (C) 2014 copyright by the U.S. Secretary of Commerce
on behalf of the United States of America. All rights reserved.
##$NIST MASS SPEC NO=333589
##MOLFORM=C14 H25 N O
##MW=223
##$NIST SOURCE=MSDC
##XUNITS=M/Z
##YUNITS=RELATIVE INTENSITY
##XFACTOR=1
##YFACTOR=1
##FIRSTX=15
##LASTX=225
##FIRSTY=10
##MAXX=225
##MINX=15
##MAXY=9999
##MINY=10
##NPOINTS=130
##PEAK TABLE=(XY..XY)
15,10 26,10 27,240 28,90
29,370 30,40 31,20 38,10
39,691 40,190 41,2863 42,831
43,430 44,90 45,30 46,10
50,20 51,80 52,60 53,550
54,370 55,1852 56,370 57,330
58,150 59,20 60,20 63,20
64,10 65,140 66,110 67,741
68,861 69,1712 70,360 71,130
72,801 73,190 74,10 77,160
78,30 79,220 80,90 81,360
82,561 83,240 84,260 85,20
86,160 87,10 91,140 92,30
93,170 94,320 95,400 96,270
97,561 98,1672 99,110 100,100
101,10 103,10 104,20 105,40
106,20 107,100 108,270 109,611
110,280 111,90 112,160 113,3773
114,390 115,30 117,10 118,10
119,40 120,20 121,60 122,100
123,70 124,170 126,9689 127,1031
128,60 133,10 134,40 135,30
136,210 137,100 138,90 140,9999
141,3663 142,320 143,20 148,40
149,10 150,140 151,50 152,220
153,190 154,641 155,80 156,10
162,10 163,10 164,50 165,10
166,340 167,180 168,90 169,10
176,10 178,200 179,30 180,450
181,260 182,40 190,10 192,40
194,200 195,30 206,10 208,861
209,130 210,10 222,70 223,801
224,170 225,20
##END=
