##TITLE=10,12-Tricosadiynoic acid, methyl ester
##JCAMP-DX=4.24
##DATA TYPE=MASS SPECTRUM
##ORIGIN=NIST Mass Spectrometry Data Center
##OWNER=NIST Mass Spectrometry Data Center
Collection (C) 2014 copyright by the U.S. Secretary of Commerce
on behalf of the United States of America. All rights reserved.
##$NIST MASS SPEC NO=333594
##MOLFORM=C24 H40 O2
##MW=360
##$NIST SOURCE=MSDC
##XUNITS=M/Z
##YUNITS=RELATIVE INTENSITY
##XFACTOR=1
##YFACTOR=1
##FIRSTX=15
##LASTX=360
##FIRSTY=60
##MAXX=360
##MINX=15
##MAXY=9999
##MINY=10
##NPOINTS=237
##PEAK TABLE=(XY..XY)
15,60 26,20 27,310 28,50
29,811 30,20 31,30 33,10
38,10 39,520 40,100 41,3233
42,400 43,3053 44,100 45,160
50,130 51,420 52,130 53,571
54,330 55,5195 56,440 57,1431
58,80 59,1692 60,50 61,20
62,40 63,370 64,170 65,1121
66,430 67,4324 68,490 69,2022
70,180 71,561 72,50 73,320
74,1261 75,210 76,510 77,2352
78,2202 79,5265 80,2993 81,4004
82,1191 83,1241 84,180 85,470
86,40 87,1151 88,160 89,440
91,9999 92,4214 93,4474 94,1862
95,2682 96,661 97,621 98,120
99,110 100,30 101,260 102,170
103,1001 104,831 105,6446 106,3673
107,2612 108,1021 109,1001 110,250
111,170 112,40 113,60 114,20
115,1231 116,530 117,2923 118,1001
119,8458 120,2943 121,2202 122,540
123,480 124,130 125,100 126,20
127,150 128,390 129,751 130,360
131,2552 132,721 133,5315 134,1862
135,1081 136,480 137,280 138,310
139,90 140,20 141,190 142,100
143,380 144,180 145,1742 146,510
147,2262 148,601 149,621 150,591
151,210 152,110 153,70 154,40
155,120 156,40 157,270 158,100
159,1081 160,440 161,1171 162,270
163,280 164,120 165,60 166,40
167,40 168,40 169,210 170,40
171,150 172,50 173,500 174,230
175,561 176,140 177,120 178,70
179,70 180,40 181,40 182,30
183,140 184,30 185,100 186,30
187,490 188,110 189,420 190,130
191,90 192,40 193,100 194,40
195,20 197,50 198,10 199,30
200,10 201,190 202,60 203,230
204,470 205,180 206,50 207,50
208,20 209,10 211,30 212,10
213,10 215,70 216,30 217,100
218,80 219,150 220,50 221,20
222,10 225,20 226,10 227,10
229,30 230,10 231,70 232,40
233,90 234,90 235,20 239,10
243,30 244,30 245,90 246,30
247,50 248,140 249,30 257,40
258,10 259,60 260,10 261,40
262,20 263,10 271,40 272,10
273,30 274,10 275,50 276,10
277,10 285,20 286,10 287,20
289,50 290,20 291,10 299,10
300,10 301,10 303,40 304,10
311,10 317,20 318,10 319,10
329,340 330,90 331,20 332,10
360,20
##END=
