##TITLE=9-Decenoic acid, TMS derivative
##JCAMP-DX=4.24
##DATA TYPE=MASS SPECTRUM
##ORIGIN=NIST Mass Spectrometry Data Center
##OWNER=NIST Mass Spectrometry Data Center
Collection (C) 2014 copyright by the U.S. Secretary of Commerce
on behalf of the United States of America. All rights reserved.
##$NIST MASS SPEC NO=333582
##MOLFORM=C13 H26 O2 Si
##MW=242
##$NIST SOURCE=MSDC
##XUNITS=M/Z
##YUNITS=RELATIVE INTENSITY
##XFACTOR=1
##YFACTOR=1
##FIRSTX=15
##LASTX=244
##FIRSTY=10
##MAXX=244
##MINX=15
##MAXY=9999
##MINY=10
##NPOINTS=166
##PEAK TABLE=(XY..XY)
15,10 26,20 27,290 28,130
29,450 30,10 31,20 37,10
39,901 40,160 41,2302 42,490
43,571 44,190 45,1161 46,90
47,681 48,30 49,20 50,20
51,70 52,40 53,440 54,480
55,3083 56,350 57,190 58,290
59,410 60,140 61,811 62,60
63,40 64,10 65,80 66,60
67,901 68,280 69,741 70,140
71,90 72,581 73,9418 74,1221
75,9999 76,811 77,571 78,70
79,440 80,150 81,661 82,320
83,701 84,1061 85,240 86,180
87,110 88,120 89,210 90,50
91,200 92,80 93,641 94,180
95,340 96,911 97,360 98,370
99,260 100,40 101,250 102,40
103,60 105,320 106,80 107,220
108,530 109,470 110,1091 111,320
112,30 113,50 114,20 115,110
116,991 117,9068 118,971 119,510
120,30 121,30 123,520 124,410
125,70 126,10 127,50 129,5145
130,741 131,2292 132,1892 133,410
134,300 135,120 136,10 137,120
138,10 139,20 141,50 142,50
143,240 144,70 145,1952 146,290
147,100 148,10 149,10 151,50
152,931 153,140 154,20 155,270
156,90 157,140 158,50 159,210
160,110 161,20 165,10 167,50
168,30 169,90 170,30 171,200
172,50 173,120 174,90 175,20
181,20 182,10 183,150 184,30
185,380 186,100 187,100 188,20
189,10 197,40 198,30 199,320
200,120 201,120 202,20 203,10
209,80 210,10 211,50 212,10
213,70 214,20 227,7537 228,1441
229,290 230,20 241,20 242,60
243,40 244,10
##END=
