##TITLE=cis-13,16-Docasadienoic acid, methyl ester
##JCAMP-DX=4.24
##DATA TYPE=MASS SPECTRUM
##ORIGIN=NIST Mass Spectrometry Data Center
##OWNER=NIST Mass Spectrometry Data Center
Collection (C) 2014 copyright by the U.S. Secretary of Commerce
on behalf of the United States of America. All rights reserved.
##$NIST MASS SPEC NO=333603
##MOLFORM=C23 H42 O2
##MW=350
##$NIST SOURCE=MSDC
##XUNITS=M/Z
##YUNITS=RELATIVE INTENSITY
##XFACTOR=1
##YFACTOR=1
##FIRSTX=15
##LASTX=352
##FIRSTY=100
##MAXX=352
##MINX=15
##MAXY=9999
##MINY=10
##NPOINTS=239
##PEAK TABLE=(XY..XY)
15,100 26,20 27,350 28,100
29,971 30,30 31,50 33,10
39,611 40,130 41,4194 42,540
43,2712 44,110 45,180 50,10
51,70 52,70 53,861 54,3603
55,7697 56,661 57,1041 58,70
59,1551 60,50 61,20 63,20
65,561 66,691 67,9999 68,4584
69,4134 70,370 71,350 72,30
73,290 74,2142 75,180 77,1001
78,330 79,3663 80,2252 81,9579
82,6736 83,2853 84,420 85,310
87,1121 88,120 89,20 91,911
92,180 93,1281 94,1101 95,7777
96,6546 97,2412 98,380 99,180
100,30 101,230 102,20 103,30
104,40 105,220 106,100 107,671
108,601 109,3873 110,3423 111,1091
112,140 113,90 114,50 115,270
116,30 117,50 118,30 119,180
120,100 121,831 122,510 123,1972
124,1812 125,661 126,80 127,80
128,70 129,270 130,30 131,100
132,40 133,200 134,90 135,771
136,631 137,1081 138,1001 139,390
140,100 141,120 142,30 143,220
144,30 145,70 146,40 147,150
148,60 149,540 150,741 151,621
152,540 153,240 154,120 155,60
156,10 157,130 158,20 159,60
160,30 161,100 162,40 163,320
164,470 165,360 166,290 167,170
168,110 169,40 170,10 171,100
172,20 173,100 174,40 175,70
176,20 177,200 178,330 179,210
180,180 181,130 182,60 183,20
185,80 186,10 187,80 188,30
189,60 190,20 191,130 192,200
193,130 194,110 195,110 196,50
197,20 199,50 200,10 201,40
202,20 203,30 204,10 205,90
206,170 207,90 208,70 209,100
210,60 211,20 213,30 214,10
215,30 216,10 217,10 219,80
220,170 221,80 222,50 223,70
224,50 225,10 227,20 229,20
230,10 231,10 233,80 234,150
235,60 236,30 237,50 238,40
239,10 241,10 243,10 247,80
248,80 249,30 250,20 251,40
252,50 253,10 255,10 261,70
262,50 263,20 264,10 265,30
266,40 267,10 269,10 274,10
275,40 276,130 277,30 278,10
279,30 280,30 283,10 289,30
290,60 291,10 293,30 294,20
300,10 301,20 302,10 303,10
307,20 308,10 318,721 319,1031
320,230 321,50 322,10 335,10
350,1251 351,320 352,40
##END=
