##TITLE=.beta.-Citronellol, methyl ether
##JCAMP-DX=4.24
##DATA TYPE=MASS SPECTRUM
##ORIGIN=NIST Mass Spectrometry Data Center
##OWNER=NIST Mass Spectrometry Data Center
Collection (C) 2014 copyright by the U.S. Secretary of Commerce
on behalf of the United States of America. All rights reserved.
##$NIST MASS SPEC NO=333814
##MOLFORM=C11 H22 O
##MW=170
##$NIST SOURCE=MSDC
##XUNITS=M/Z
##YUNITS=RELATIVE INTENSITY
##XFACTOR=1
##YFACTOR=1
##FIRSTX=15
##LASTX=171
##FIRSTY=120
##MAXX=171
##MINX=15
##MAXY=9999
##MINY=10
##NPOINTS=93
##PEAK TABLE=(XY..XY)
15,120 26,30 27,671 28,180
29,1011 30,30 31,110 33,60
37,10 38,50 39,1631 40,390
41,6546 42,681 43,1001 45,6826
46,150 47,20 50,80 51,270
52,150 53,1501 54,540 55,4204
56,1281 57,841 58,550 59,290
60,20 62,20 63,70 64,20
65,400 66,210 67,8077 68,2202
69,6886 70,1071 71,520 72,50
73,40 74,10 75,10 77,360
78,70 79,671 80,981 81,9999
82,6416 83,1221 85,8358 86,490
87,60 89,20 91,240 92,30
93,340 94,561 95,8688 96,1591
97,170 98,40 99,130 100,30
101,60 102,10 103,10 105,40
106,10 107,110 108,50 109,3123
110,711 111,80 112,10 113,50
114,10 115,10 117,10 119,10
121,70 123,6536 124,661 125,40
127,30 128,10 134,10 138,3303
139,360 140,20 155,20 170,300
171,40
##END=
