##TITLE=2-Propylphenol, TBDMS derivative
##JCAMP-DX=4.24
##DATA TYPE=MASS SPECTRUM
##ORIGIN=NIST Mass Spectrometry Data Center
##OWNER=NIST Mass Spectrometry Data Center
Collection (C) 2014 copyright by the U.S. Secretary of Commerce
on behalf of the United States of America. All rights reserved.
##$NIST MASS SPEC NO=333486
##MOLFORM=C15 H26 O Si
##MW=250
##$NIST SOURCE=MSDC
##XUNITS=M/Z
##YUNITS=RELATIVE INTENSITY
##XFACTOR=1
##YFACTOR=1
##FIRSTX=15
##LASTX=253
##FIRSTY=10
##MAXX=253
##MINX=15
##MAXY=9999
##MINY=10
##NPOINTS=146
##PEAK TABLE=(XY..XY)
15,10 26,10 27,120 28,20
29,330 30,10 31,60 38,10
39,230 40,30 41,621 42,70
43,330 44,40 45,410 46,30
47,120 48,10 50,30 51,140
52,40 53,90 54,10 55,100
56,60 57,611 58,160 59,1852
60,140 61,180 62,30 63,110
64,30 65,230 66,30 67,70
68,50 69,50 70,10 71,30
73,1822 74,230 75,791 76,90
77,510 78,160 79,170 80,20
81,60 82,180 83,70 84,10
85,100 86,10 87,40 88,20
89,290 90,180 91,1962 92,160
93,40 94,10 95,130 96,20
97,30 98,10 99,50 100,10
101,40 102,70 103,250 104,80
105,310 106,40 107,150 108,20
109,60 110,10 111,10 113,10
115,601 116,130 117,170 118,30
119,100 120,30 121,270 122,30
123,110 124,10 125,10 127,10
128,20 129,20 130,10 131,100
132,20 133,260 134,90 135,2022
136,270 137,410 138,50 139,10
143,10 145,90 146,20 147,450
148,220 149,2172 150,330 151,2012
152,280 153,80 154,10 159,10
161,861 163,9999 164,1651 165,2422
166,340 167,90 168,10 173,10
175,250 176,50 177,591 178,100
179,40 180,10 189,50 191,1912
192,390 193,8077 194,1802 195,470
196,60 207,10 221,10 235,180
236,30 237,10 250,2582 251,571
252,150 253,20
##END=
