##TITLE=13-Octadecenoic acid, (Z)-, TMS derivative
##JCAMP-DX=4.24
##DATA TYPE=MASS SPECTRUM
##ORIGIN=NIST Mass Spectrometry Data Center
##OWNER=NIST Mass Spectrometry Data Center
Collection (C) 2014 copyright by the U.S. Secretary of Commerce
on behalf of the United States of America. All rights reserved.
##$NIST MASS SPEC NO=333588
##MOLFORM=C21 H42 O2 Si
##MW=354
##$NIST SOURCE=MSDC
##XUNITS=M/Z
##YUNITS=RELATIVE INTENSITY
##XFACTOR=1
##YFACTOR=1
##FIRSTX=15
##LASTX=357
##FIRSTY=10
##MAXX=357
##MINX=15
##MAXY=9999
##MINY=10
##NPOINTS=268
##PEAK TABLE=(XY..XY)
15,10 26,10 27,220 28,50
29,440 30,10 31,10 39,420
40,100 41,3033 42,701 43,1541
44,140 45,611 46,50 47,300
48,20 49,10 50,10 51,30
52,30 53,440 54,1121 55,7367
56,1281 57,791 58,210 59,270
60,110 61,591 62,40 63,30
65,150 66,120 67,2162 68,1071
69,2652 70,581 71,290 72,460
73,9999 74,1101 75,9378 76,711
77,550 78,70 79,571 80,290
81,2212 82,1591 83,1792 84,1411
85,360 86,120 87,90 88,70
89,380 90,50 91,250 92,90
93,430 94,290 95,2072 96,2502
97,1722 98,1481 99,410 100,50
101,150 102,30 103,60 104,10
105,280 106,100 107,320 108,230
109,1191 110,1081 111,771 112,380
113,120 114,30 115,100 116,991
117,7947 118,821 119,510 120,100
121,380 122,160 123,801 124,530
125,310 126,100 127,60 129,8217
130,1041 131,1551 132,2512 133,991
134,340 135,310 136,100 137,490
138,380 139,160 140,40 141,70
142,60 143,470 144,90 145,3453
146,470 147,290 148,140 149,160
150,70 151,340 152,360 153,100
154,30 155,200 156,80 157,210
158,80 159,270 160,50 161,110
162,60 163,70 164,70 165,190
166,260 167,90 168,50 169,190
170,90 171,540 172,170 173,190
174,70 175,80 176,30 177,40
178,30 179,110 180,561 181,130
182,30 183,180 184,50 185,871
186,200 187,220 188,130 189,60
190,20 191,20 192,10 193,110
194,90 195,30 196,10 197,60
198,10 199,771 200,150 201,270
202,60 203,40 204,10 205,10
206,10 207,130 208,80 209,40
210,10 211,50 212,10 213,200
214,40 215,80 216,20 217,20
218,10 220,150 221,240 222,881
223,170 224,20 225,30 226,10
227,220 228,40 229,70 230,20
231,10 233,10 235,170 236,180
237,30 238,10 239,30 240,10
241,240 242,50 243,80 244,20
245,10 246,50 247,10 249,30
250,10 253,40 254,10 255,170
256,40 257,130 258,50 259,10
263,20 264,821 265,180 266,20
267,50 268,10 269,130 270,30
271,90 272,90 273,20 274,10
281,60 282,10 283,90 284,20
285,30 286,50 287,10 295,220
296,50 297,60 298,20 299,50
300,10 309,100 310,30 311,140
312,30 313,30 314,10 321,10
323,60 324,20 325,30 326,10
336,10 337,20 339,8808 340,2402
341,641 342,100 343,10 353,20
354,701 355,220 356,60 357,10
##END=
