##TITLE=1-Octadecanol, methyl ether
##JCAMP-DX=4.24
##DATA TYPE=MASS SPECTRUM
##ORIGIN=NIST Mass Spectrometry Data Center
##OWNER=NIST Mass Spectrometry Data Center
Collection (C) 2014 copyright by the U.S. Secretary of Commerce
on behalf of the United States of America. All rights reserved.
##$NIST MASS SPEC NO=333927
##MOLFORM=C19 H40 O
##MW=284
##$NIST SOURCE=MSDC
##XUNITS=M/Z
##YUNITS=RELATIVE INTENSITY
##XFACTOR=1
##YFACTOR=1
##FIRSTX=15
##LASTX=283
##FIRSTY=40
##MAXX=283
##MINX=15
##MAXY=9999
##MINY=10
##NPOINTS=118
##PEAK TABLE=(XY..XY)
15,40 26,20 27,370 28,110
29,1271 30,30 31,50 33,110
39,500 40,130 41,4674 42,1121
43,5835 45,9268 46,220 47,80
50,10 51,20 52,20 53,370
54,841 55,7056 56,3573 57,6566
58,510 59,100 60,60 65,80
66,140 67,1501 68,4004 69,7006
70,3843 71,3793 72,220 73,20
77,60 78,10 79,150 80,70
81,971 82,5715 83,9999 84,3183
85,2322 86,160 87,350 88,20
91,30 93,30 94,30 95,490
96,1972 97,8688 98,2212 99,591
100,40 101,60 107,10 108,10
109,200 110,891 111,4924 112,1571
113,360 114,30 115,10 122,10
123,120 124,581 125,2512 126,1001
127,220 128,20 136,10 137,70
138,360 139,871 140,651 141,120
142,10 151,20 152,230 153,410
154,430 155,80 156,10 165,10
166,150 167,230 168,320 169,80
170,10 180,100 181,130 182,210
183,90 184,10 194,60 195,80
196,200 197,30 208,30 209,40
210,50 211,10 222,20 223,30
224,510 225,90 226,10 241,50
242,10 250,10 252,1001 253,210
254,20 283,10
##END=
