##TITLE=cis-5,8,11-Eicosatrienoic acid, methyl ester
##JCAMP-DX=4.24
##DATA TYPE=MASS SPECTRUM
##ORIGIN=NIST Mass Spectrometry Data Center
##OWNER=NIST Mass Spectrometry Data Center
Collection (C) 2014 copyright by the U.S. Secretary of Commerce
on behalf of the United States of America. All rights reserved.
##$NIST MASS SPEC NO=333533
##MOLFORM=C21 H36 O2
##MW=320
##$NIST SOURCE=MSDC
##XUNITS=M/Z
##YUNITS=RELATIVE INTENSITY
##XFACTOR=1
##YFACTOR=1
##FIRSTX=15
##LASTX=321
##FIRSTY=110
##MAXX=321
##MINX=15
##MAXY=9999
##MINY=10
##NPOINTS=220
##PEAK TABLE=(XY..XY)
15,110 26,30 27,540 28,100
29,1301 30,30 31,50 33,10
37,10 38,30 39,1021 40,190
41,5805 42,550 43,4004 44,120
45,170 46,10 50,40 51,210
52,190 53,1351 54,1722 55,6075
56,661 57,2692 58,160 59,1591
60,70 61,50 62,10 63,50
64,30 65,1321 66,1561 67,9088
68,1221 69,2002 70,290 71,1161
72,80 73,220 74,1972 75,150
77,3383 78,2122 79,9999 80,7557
81,5715 82,1922 83,1531 84,420
85,1121 86,60 87,1802 88,591
89,70 91,6736 92,1882 93,6976
94,3914 95,3623 96,1401 97,1161
98,270 99,290 100,30 101,280
102,130 103,310 104,851 105,2762
106,5295 107,2983 108,1031 109,2112
110,601 111,290 112,30 113,70
114,30 115,430 116,290 117,1241
118,370 119,1692 120,1692 121,2022
122,661 123,1001 124,390 125,90
126,40 127,150 128,90 129,300
130,540 131,581 132,190 133,1501
134,681 135,1982 136,771 137,621
138,370 139,80 140,180 141,400
142,70 143,160 144,140 145,260
146,80 147,1401 148,771 149,721
150,310 151,150 152,150 153,60
154,140 155,50 156,20 157,280
158,90 159,130 160,180 161,2202
162,470 163,250 164,150 165,140
166,140 167,130 168,120 169,40
170,10 171,170 172,20 173,60
174,20 175,571 176,140 177,120
178,180 179,200 180,1141 181,230
182,50 183,10 185,50 186,10
187,30 188,10 189,210 190,60
191,140 192,711 193,270 194,220
195,60 196,20 199,10 201,10
203,60 204,50 205,611 206,150
207,160 208,240 209,40 210,10
213,10 215,10 217,20 218,20
219,260 220,80 221,240 222,70
223,20 229,10 231,20 232,20
233,50 234,30 235,80 236,20
238,10 241,10 243,10 244,30
245,20 246,110 247,40 248,10
249,30 250,10 252,20 259,20
260,20 261,10 263,20 264,10
266,30 267,10 270,10 271,120
272,30 273,10 277,10 278,10
279,30 280,10 288,30 289,20
291,10 292,10 320,250 321,60
##END=
