##TITLE=1-Tridecanol, TMS derivative
##JCAMP-DX=4.24
##DATA TYPE=MASS SPECTRUM
##ORIGIN=NIST Mass Spectrometry Data Center
##OWNER=NIST Mass Spectrometry Data Center
Collection (C) 2014 copyright by the U.S. Secretary of Commerce
on behalf of the United States of America. All rights reserved.
##$NIST MASS SPEC NO=333026
##MOLFORM=C16 H36 O Si
##MW=272
##$NIST SOURCE=MSDC
##XUNITS=M/Z
##YUNITS=RELATIVE INTENSITY
##XFACTOR=1
##YFACTOR=1
##FIRSTX=26
##LASTX=272
##FIRSTY=10
##MAXX=272
##MINX=26
##MAXY=9999
##MINY=10
##NPOINTS=120
##PEAK TABLE=(XY..XY)
26,10 27,100 28,30 29,290
30,10 31,10 39,110 41,851
42,170 43,1041 44,80 45,260
46,20 47,150 48,10 53,70
54,90 55,911 56,200 57,791
58,150 59,360 60,60 61,470
62,30 63,20 65,10 66,10
67,190 68,110 69,1011 70,180
71,260 72,120 73,2292 74,260
75,4454 76,340 77,230 78,10
79,40 80,10 81,140 82,120
83,1241 84,150 85,260 86,30
87,160 88,80 89,1101 90,110
91,350 92,30 93,30 95,100
96,70 97,1151 98,130 99,240
100,30 101,621 102,80 103,2022
104,190 105,80 109,50 110,30
111,520 112,70 113,110 114,20
115,400 116,50 117,50 118,10
123,20 124,10 125,160 126,40
127,50 128,10 129,220 130,30
131,60 132,10 137,10 139,30
140,10 141,20 143,80 144,10
145,30 153,10 154,50 155,10
157,80 158,10 159,20 171,90
172,10 173,10 182,50 183,10
185,90 186,10 187,10 199,60
200,10 201,10 241,60 242,10
255,30 257,9999 258,2402 259,621
260,80 261,10 271,10 272,20
##END=
