##TITLE=9,12-Octadecadiynoic acid, tert-butyldimethylsilyl ester
##JCAMP-DX=4.24
##DATA TYPE=MASS SPECTRUM
##ORIGIN=NIST Mass Spectrometry Data Center
##OWNER=NIST Mass Spectrometry Data Center
Collection (C) 2014 copyright by the U.S. Secretary of Commerce
on behalf of the United States of America. All rights reserved.
##$NIST MASS SPEC NO=333565
##MOLFORM=C24 H42 O2 Si
##MW=390
##$NIST SOURCE=MSDC
##XUNITS=M/Z
##YUNITS=RELATIVE INTENSITY
##XFACTOR=1
##YFACTOR=1
##FIRSTX=26
##LASTX=390
##FIRSTY=10
##MAXX=390
##MINX=26
##MAXY=9999
##MINY=10
##NPOINTS=259
##PEAK TABLE=(XY..XY)
26,10 27,140 28,20 29,360
30,10 31,10 38,10 39,230
40,40 41,1021 42,100 43,450
44,20 45,220 46,20 47,250
48,10 49,10 50,30 51,90
52,80 53,210 54,60 55,1191
56,150 57,420 58,130 59,370
60,70 61,190 62,20 63,90
64,30 65,270 66,150 67,861
68,80 69,270 70,40 71,60
72,120 73,2712 74,360 75,9999
76,771 77,911 78,280 79,901
80,210 81,601 82,180 83,210
84,20 85,130 86,90 87,60
88,40 89,120 90,40 91,1882
92,601 93,871 94,150 95,490
96,50 97,100 98,40 99,220
100,40 101,120 102,50 103,280
104,120 105,1621 106,631 107,450
108,80 109,260 110,30 111,60
112,10 113,40 114,40 115,581
116,390 117,1071 118,190 119,1011
120,220 121,280 122,60 123,80
124,10 125,40 126,10 127,70
128,150 129,2182 130,310 131,1401
132,180 133,591 134,110 135,160
136,20 137,50 138,10 139,50
140,10 141,130 142,80 143,470
144,90 145,621 146,100 147,380
148,460 149,170 150,20 151,60
152,20 153,90 154,20 155,170
156,60 157,380 158,60 159,460
160,110 161,260 162,60 163,140
164,20 165,80 166,20 167,70
168,20 169,240 170,90 171,490
172,70 173,210 174,40 175,140
176,30 177,50 178,10 179,50
180,10 181,110 182,30 183,160
184,60 185,510 186,80 187,120
188,20 189,80 190,20 191,50
192,10 193,40 194,10 195,50
196,20 197,120 198,30 199,140
200,20 201,80 202,20 203,50
204,10 205,50 206,10 207,50
208,20 209,70 210,20 211,70
212,20 213,50 214,10 215,80
216,40 217,50 218,10 219,40
220,10 221,140 222,30 223,60
224,20 225,30 226,10 227,30
228,10 229,60 230,10 231,30
232,10 233,40 234,10 235,60
236,20 237,80 238,20 239,40
240,10 241,120 242,30 243,30
244,10 245,20 247,20 248,10
249,40 250,10 251,60 252,10
253,20 255,10 257,40 258,10
259,60 260,20 261,20 262,20
263,40 264,10 265,10 267,10
275,10 276,10 277,260 278,60
279,30 280,10 281,10 289,10
291,30 292,10 293,40 294,10
305,20 307,10 315,50 316,10
317,20 319,10 331,10 333,1251
334,330 335,80 336,10 347,10
375,30 376,10 390,10
##END=
