##TITLE=(R)-(+)-Citronellic acid, TBDMS derivative
##JCAMP-DX=4.24
##DATA TYPE=MASS SPECTRUM
##ORIGIN=NIST Mass Spectrometry Data Center
##OWNER=NIST Mass Spectrometry Data Center
Collection (C) 2014 copyright by the U.S. Secretary of Commerce
on behalf of the United States of America. All rights reserved.
##$NIST MASS SPEC NO=333592
##MOLFORM=C16 H32 O2 Si
##MW=284
##$NIST SOURCE=MSDC
##XUNITS=M/Z
##YUNITS=RELATIVE INTENSITY
##XFACTOR=1
##YFACTOR=1
##FIRSTX=15
##LASTX=286
##FIRSTY=10
##MAXX=286
##MINX=15
##MAXY=9999
##MINY=10
##NPOINTS=176
##PEAK TABLE=(XY..XY)
15,10 27,190 28,50 29,420
30,10 31,20 39,571 40,160
41,3303 42,300 43,611 44,60
45,591 46,50 47,641 48,30
49,20 50,20 51,60 52,40
53,480 54,110 55,1141 56,280
57,791 58,320 59,711 60,170
61,320 62,30 63,20 65,110
66,50 67,961 68,200 69,2883
70,280 71,70 72,581 73,3643
74,601 75,9809 76,821 77,621
78,50 79,380 80,60 81,651
82,510 83,230 84,30 85,210
86,100 87,70 88,180 89,50
90,10 91,180 92,100 93,2042
94,480 95,601 96,90 97,130
98,40 99,550 100,90 101,500
102,100 103,210 104,20 105,380
106,100 107,1621 108,210 109,4084
110,731 111,150 112,30 113,260
114,200 115,1551 116,1972 117,1331
118,220 119,360 120,50 121,60
122,10 123,120 124,20 125,80
126,10 127,170 128,40 129,931
130,120 131,160 132,20 133,210
134,50 135,1421 136,160 137,110
138,10 139,20 141,70 142,50
143,1201 144,210 145,2052 146,250
147,130 148,10 149,10 151,40
152,561 153,170 154,20 155,120
156,50 157,190 158,60 159,110
160,20 161,10 163,10 165,40
166,10 167,60 169,8798 170,1461
171,1141 172,150 173,40 175,10
179,10 181,10 183,120 184,80
185,400 186,70 187,40 188,10
191,10 193,10 195,10 197,20
198,20 199,40 200,10 201,50
202,10 209,1081 210,200 211,150
212,30 213,20 214,10 215,30
216,10 225,30 227,9999 228,2082
229,621 230,70 231,10 241,10
251,10 253,10 269,340 270,80
271,20 284,140 285,50 286,10
##END=
