##TITLE=2-Dodecen-1-ol, (E)-, TMS derivative
##JCAMP-DX=4.24
##DATA TYPE=MASS SPECTRUM
##ORIGIN=NIST Mass Spectrometry Data Center
##OWNER=NIST Mass Spectrometry Data Center
Collection (C) 2014 copyright by the U.S. Secretary of Commerce
on behalf of the United States of America. All rights reserved.
##$NIST MASS SPEC NO=333020
##MOLFORM=C15 H32 O Si
##MW=256
##$NIST SOURCE=MSDC
##XUNITS=M/Z
##YUNITS=RELATIVE INTENSITY
##XFACTOR=1
##YFACTOR=1
##FIRSTX=15
##LASTX=258
##FIRSTY=10
##MAXX=258
##MINX=15
##MAXY=9999
##MINY=10
##NPOINTS=146
##PEAK TABLE=(XY..XY)
15,10 26,10 27,210 28,60
29,460 30,10 31,10 39,300
40,60 41,1231 42,180 43,1091
44,100 45,520 46,40 47,270
48,10 49,10 50,10 51,20
52,20 53,190 54,360 55,651
56,100 57,340 58,80 59,350
60,70 61,360 62,20 63,20
64,20 65,70 66,80 67,581
68,310 69,260 70,60 71,110
73,5675 74,641 75,5785 76,440
77,270 78,20 79,140 80,60
81,480 82,681 83,260 84,40
85,150 86,20 87,70 88,40
89,200 90,20 91,420 92,40
93,60 94,30 95,490 96,490
97,200 98,60 99,360 100,50
101,921 102,100 103,290 104,30
105,10 107,20 108,20 109,350
110,270 111,160 112,30 113,480
114,90 115,540 116,320 117,70
118,10 121,10 122,10 123,170
124,140 125,60 126,10 127,220
129,9999 130,1421 131,480 132,30
135,10 137,80 138,150 139,40
140,10 141,150 142,110 143,2903
144,420 145,130 146,10 151,20
153,10 155,70 156,20 157,280
158,40 159,20 165,390 166,190
167,30 169,50 171,500 172,80
173,20 183,50 185,881 186,140
187,40 197,10 199,320 200,60
201,20 211,70 212,10 213,460
214,80 215,20 223,10 227,90
228,20 229,10 241,2032 242,430
243,110 244,10 255,40 256,581
257,130 258,30
##END=
