##TITLE=trans-13-Octadecenoic acid, methyl ester
##JCAMP-DX=4.24
##DATA TYPE=MASS SPECTRUM
##ORIGIN=NIST Mass Spectrometry Data Center
##OWNER=NIST Mass Spectrometry Data Center
Collection (C) 2014 copyright by the U.S. Secretary of Commerce
on behalf of the United States of America. All rights reserved.
##$NIST MASS SPEC NO=333613
##MOLFORM=C19 H36 O2
##MW=296
##$NIST SOURCE=MSDC
##XUNITS=M/Z
##YUNITS=RELATIVE INTENSITY
##XFACTOR=1
##YFACTOR=1
##FIRSTX=15
##LASTX=298
##FIRSTY=70
##MAXX=298
##MINX=15
##MAXY=9999
##MINY=10
##NPOINTS=199
##PEAK TABLE=(XY..XY)
15,70 26,10 27,300 28,90
29,631 30,20 31,40 33,10
38,10 39,561 40,120 41,3924
42,771 43,2522 44,100 45,150
50,10 51,40 52,40 53,561
54,1451 55,9999 56,1762 57,1451
58,100 59,1431 60,50 61,20
63,10 65,170 66,120 67,2042
68,1101 69,4314 70,1001 71,540
72,50 73,310 74,3533 75,490
76,40 77,130 78,50 79,470
80,230 81,1782 82,1281 83,3263
84,2302 85,561 87,2803 88,260
89,20 90,10 91,130 92,40
93,290 94,290 95,1531 96,2622
97,3153 98,2142 99,290 100,70
101,480 102,50 103,10 105,70
106,30 107,260 108,240 109,941
110,1391 111,1451 112,530 113,200
114,280 115,440 116,70 117,20
118,20 119,200 120,70 121,340
122,160 123,991 124,781 125,781
126,160 127,210 128,310 129,330
130,90 131,20 133,190 134,190
135,320 136,100 137,571 138,571
139,440 140,70 141,430 142,90
143,340 144,50 145,10 147,140
148,170 149,240 150,90 151,370
152,490 153,270 154,50 155,100
156,20 157,100 158,20 159,10
161,120 162,60 163,130 164,90
165,250 166,370 167,180 168,30
169,140 170,20 171,70 172,20
173,10 175,80 176,30 177,60
178,30 179,130 180,591 181,150
182,30 183,90 184,10 185,40
186,20 189,50 190,20 191,30
192,20 193,110 194,110 195,40
196,10 197,20 199,50 200,30
201,10 203,30 204,10 205,10
206,10 207,110 208,90 209,40
210,10 211,10 213,50 214,30
215,10 217,20 218,10 220,190
221,210 222,641 223,140 224,10
225,10 227,20 228,20 235,140
236,80 237,10 239,10 241,10
246,70 247,20 249,20 253,40
254,10 255,10 263,10 264,1041
265,781 266,140 267,20 278,10
296,230 297,50 298,10
##END=
