##TITLE=2-Butanol, TBDMS derivative
##JCAMP-DX=4.24
##DATA TYPE=MASS SPECTRUM
##ORIGIN=NIST Mass Spectrometry Data Center
##OWNER=NIST Mass Spectrometry Data Center
Collection (C) 2014 copyright by the U.S. Secretary of Commerce
on behalf of the United States of America. All rights reserved.
##$NIST MASS SPEC NO=333045
##MOLFORM=C10 H24 O Si
##MW=188
##$NIST SOURCE=MSDC
##XUNITS=M/Z
##YUNITS=RELATIVE INTENSITY
##XFACTOR=1
##YFACTOR=1
##FIRSTX=15
##LASTX=189
##FIRSTY=20
##MAXX=189
##MINX=15
##MAXY=9999
##MINY=10
##NPOINTS=83
##PEAK TABLE=(XY..XY)
15,20 26,10 27,150 28,40
29,420 30,10 31,40 39,220
40,30 41,561 42,70 43,380
44,70 45,761 46,50 47,530
48,30 49,20 50,10 51,30
52,10 53,60 54,10 55,130
56,70 57,480 58,460 59,961
60,220 61,440 62,30 63,20
65,10 67,20 69,30 70,10
71,50 72,80 73,3383 74,500
75,9999 76,1051 77,520 78,10
81,10 83,30 84,10 85,150
86,30 87,290 88,30 89,20
95,10 97,20 98,10 99,150
100,50 101,260 102,180 103,480
104,50 105,20 113,30 115,641
116,90 117,180 118,20 119,10
129,30 131,9108 132,1311 133,460
134,30 143,10 159,1141 160,160
161,50 173,340 174,50 175,20
187,50 188,120 189,20
##END=
