##TITLE=(Trimethylsilyl)methyl laurate
##JCAMP-DX=4.24
##DATA TYPE=MASS SPECTRUM
##ORIGIN=NIST Mass Spectrometry Data Center
##OWNER=NIST Mass Spectrometry Data Center
Collection (C) 2014 copyright by the U.S. Secretary of Commerce
on behalf of the United States of America. All rights reserved.
##$NIST MASS SPEC NO=333718
##MOLFORM=C16 H34 O2 Si
##MW=286
##$NIST SOURCE=MSDC
##XUNITS=M/Z
##YUNITS=RELATIVE INTENSITY
##XFACTOR=1
##YFACTOR=1
##FIRSTX=27
##LASTX=286
##FIRSTY=170
##MAXX=286
##MINX=27
##MAXY=9999
##MINY=10
##NPOINTS=165
##PEAK TABLE=(XY..XY)
27,170 28,70 29,470 30,20
31,70 39,230 41,1641 42,450
43,2202 44,260 45,641 46,50
47,60 51,10 52,10 53,140
54,160 55,3613 56,611 57,1672
58,440 59,1762 60,180 61,901
62,50 63,30 65,20 66,20
67,320 68,150 69,1271 70,260
71,621 72,380 73,5995 74,651
75,1191 76,90 77,80 78,10
79,110 80,30 81,340 82,90
83,611 84,280 85,440 86,130
87,420 88,250 89,881 90,80
91,80 92,10 93,80 94,20
95,561 96,80 97,530 98,350
99,110 100,30 101,240 102,50
103,1471 104,591 105,1231 106,130
107,140 108,10 109,380 110,50
111,200 112,120 113,60 114,20
115,150 116,631 117,230 118,40
119,10 121,80 122,10 123,110
124,20 125,70 126,40 127,20
129,621 130,721 131,2112 132,260
133,100 134,10 135,40 136,10
137,10 138,10 139,70 140,10
141,10 143,1441 144,230 145,100
146,4704 147,601 148,210 149,20
153,20 155,10 156,10 157,150
159,9999 160,1661 161,490 162,50
163,10 165,50 166,10 167,10
169,10 171,70 173,1001 174,160
175,50 176,10 181,10 183,751
184,110 185,70 186,10 187,60
188,20 189,10 199,60 200,10
201,140 202,40 203,10 213,30
214,10 215,200 216,40 217,10
227,30 228,10 229,100 230,20
231,10 241,40 242,10 243,150
244,30 245,10 255,120 256,30
257,70 258,10 269,50 271,5815
272,1201 273,330 274,40 285,10
286,10
##END=
