##TITLE=cis-9-Hexadecenoic acid, picolinyl ester
##JCAMP-DX=4.24
##DATA TYPE=MASS SPECTRUM
##ORIGIN=NIST Mass Spectrometry Data Center
##OWNER=NIST Mass Spectrometry Data Center
Collection (C) 2014 copyright by the U.S. Secretary of Commerce
on behalf of the United States of America. All rights reserved.
##$NIST MASS SPEC NO=333196
##MOLFORM=C22 H35 N O2
##MW=345
##$NIST SOURCE=MSDC
##XUNITS=M/Z
##YUNITS=RELATIVE INTENSITY
##XFACTOR=1
##YFACTOR=1
##FIRSTX=26
##LASTX=348
##FIRSTY=10
##MAXX=348
##MINX=26
##MAXY=9999
##MINY=10
##NPOINTS=213
##PEAK TABLE=(XY..XY)
26,10 27,190 28,60 29,480
30,10 31,10 37,10 38,40
39,831 40,100 41,2352 42,500
43,1461 44,40 45,20 50,40
51,160 52,110 53,480 54,931
55,3823 56,651 57,480 58,30
59,20 60,20 61,10 62,20
63,170 64,250 65,1802 66,210
67,1201 68,330 69,1631 70,250
71,180 72,10 73,30 76,10
77,130 78,190 79,450 80,390
81,781 82,170 83,741 84,120
85,110 86,10 87,20 89,10
90,20 91,540 92,9999 93,4514
94,470 95,480 96,100 97,400
98,100 99,50 101,20 103,10
104,10 105,70 106,200 107,150
108,6606 109,2772 110,781 111,200
112,30 113,40 115,20 116,10
117,50 118,90 119,90 120,100
121,130 122,30 123,140 124,30
125,60 126,10 127,30 128,10
129,20 130,50 131,40 132,60
133,200 134,120 135,100 136,40
137,80 138,20 139,30 140,10
141,20 143,10 144,40 145,30
146,70 147,120 148,230 149,70
151,1922 152,240 153,40 154,10
155,10 157,10 158,20 159,10
160,40 161,50 162,50 164,5995
165,781 166,80 167,10 169,10
172,20 173,10 174,30 175,20
176,30 177,50 178,1041 179,200
180,20 181,10 183,10 186,10
187,10 188,30 189,10 190,90
191,50 192,280 193,100 194,20
200,10 201,10 202,40 203,20
204,160 205,40 206,641 207,180
208,20 214,10 215,10 216,30
217,70 218,130 219,40 220,811
221,190 222,20 228,10 230,20
231,20 232,150 233,50 234,230
235,60 236,10 237,20 238,10
242,10 244,10 246,130 247,130
248,90 249,20 256,70 257,20
258,10 260,420 261,170 262,40
263,10 270,90 271,20 272,10
274,1772 275,460 276,70 277,10
284,10 286,10 288,2002 289,460
290,70 291,10 300,10 302,460
303,120 304,30 316,370 317,110
318,20 326,10 330,140 331,30
344,380 345,1501 346,380 347,50
348,10
##END=
