##TITLE=L-(+)-Lactic acid, 2TBDMS derivative
##JCAMP-DX=4.24
##DATA TYPE=MASS SPECTRUM
##ORIGIN=NIST Mass Spectrometry Data Center
##OWNER=NIST Mass Spectrometry Data Center
Collection (C) 2014 copyright by the U.S. Secretary of Commerce
on behalf of the United States of America. All rights reserved.
##$NIST MASS SPEC NO=333994
##MOLFORM=C15 H34 O3 Si2
##MW=318
##$NIST SOURCE=MSDC
##XUNITS=M/Z
##YUNITS=RELATIVE INTENSITY
##XFACTOR=1
##YFACTOR=1
##FIRSTX=15
##LASTX=317
##FIRSTY=10
##MAXX=317
##MINX=15
##MAXY=9999
##MINY=10
##NPOINTS=141
##PEAK TABLE=(XY..XY)
15,10 26,10 27,100 28,90
29,490 30,10 31,60 39,210
41,1041 42,100 43,530 44,110
45,841 46,60 47,330 48,20
49,10 50,10 51,20 52,60
53,60 55,410 56,390 57,1712
58,731 59,1431 60,190 61,280
62,20 63,10 66,350 67,60
68,10 69,60 70,40 71,100
73,8137 74,891 75,2052 76,140
77,90 81,10 83,60 84,20
85,250 86,150 87,310 88,320
89,70 91,10 94,20 95,10
97,40 98,10 99,190 100,90
101,280 102,280 103,761 104,90
105,100 106,10 107,10 113,40
115,1221 116,190 117,1061 118,160
119,300 120,40 121,20 127,10
129,140 130,120 131,450 132,110
133,3813 134,561 135,350 136,30
137,10 143,70 144,10 145,50
147,9999 148,2482 149,1892 150,220
151,100 152,10 157,50 159,1732
160,260 161,130 162,20 163,10
171,10 173,70 174,20 175,110
176,40 177,60 178,10 185,10
187,10 189,6426 190,1301 191,601
192,70 193,10 203,110 204,60
205,280 206,50 207,30 215,20
217,20 231,450 233,5415 234,1201
235,510 236,70 237,10 245,160
246,40 247,100 248,20 249,10
259,10 261,8728 262,2402 263,1031
264,150 265,30 275,90 276,20
277,10 303,230 304,60 305,20
317,10
##END=
