##TITLE=(Trimethylsilyl)methyl pentanoate
##JCAMP-DX=4.24
##DATA TYPE=MASS SPECTRUM
##ORIGIN=NIST Mass Spectrometry Data Center
##OWNER=NIST Mass Spectrometry Data Center
Collection (C) 2014 copyright by the U.S. Secretary of Commerce
on behalf of the United States of America. All rights reserved.
##$NIST MASS SPEC NO=333737
##MOLFORM=C9 H20 O2 Si
##MW=188
##$NIST SOURCE=MSDC
##XUNITS=M/Z
##YUNITS=RELATIVE INTENSITY
##XFACTOR=1
##YFACTOR=1
##FIRSTX=26
##LASTX=187
##FIRSTY=40
##MAXX=187
##MINX=26
##MAXY=9999
##MINY=10
##NPOINTS=86
##PEAK TABLE=(XY..XY)
26,40 27,290 28,200 29,881
30,40 31,190 32,10 38,10
39,210 40,30 41,911 42,240
43,631 44,470 45,1391 46,100
47,180 48,10 49,10 50,20
51,20 52,10 53,100 55,3353
56,490 57,3073 58,841 59,1371
60,220 61,2202 62,140 63,70
64,10 66,10 69,340 70,50
71,100 72,641 73,9999 75,1221
76,70 77,60 83,60 84,290
85,1802 86,140 88,120 89,2152
90,180 91,90 99,40 101,220
102,40 103,1301 104,510 105,851
106,80 107,30 113,20 114,10
116,540 117,180 118,30 119,10
129,170 130,170 131,851 132,110
133,50 143,651 144,130 145,60
146,1621 147,190 148,70 157,70
159,6436 160,921 161,290 162,20
171,30 173,7116 174,1041 175,340
176,30 187,10
##END=
