##TITLE=Isobutyl methyl carbonate
##JCAMP-DX=4.24
##DATA TYPE=MASS SPECTRUM
##ORIGIN=NIST Mass Spectrometry Data Center
##OWNER=NIST Mass Spectrometry Data Center
Collection (C) 2014 copyright by the U.S. Secretary of Commerce
on behalf of the United States of America. All rights reserved.
##$NIST MASS SPEC NO=333939
##MOLFORM=C6 H12 O3
##MW=132
##$NIST SOURCE=MSDC
##XUNITS=M/Z
##YUNITS=RELATIVE INTENSITY
##XFACTOR=1
##YFACTOR=1
##FIRSTX=14
##LASTX=131
##FIRSTY=20
##MAXX=131
##MINX=14
##MAXY=9999
##MINY=10
##NPOINTS=58
##PEAK TABLE=(XY..XY)
14,20 15,540 16,10 26,110
27,1101 28,330 29,2052 30,240
31,1181 32,30 33,340 37,50
38,150 39,1852 40,360 41,5355
42,901 43,2652 44,210 45,4884
46,110 47,180 49,10 50,60
51,70 52,30 53,170 54,60
55,1371 56,9999 57,3673 58,230
59,3823 60,581 61,310 62,230
63,10 69,10 70,10 71,140
72,70 73,2582 74,140 75,60
76,80 77,3503 78,80 79,20
87,170 88,10 89,70 90,3173
91,911 92,50 93,10 103,10
117,50 131,20
##END=
