##TITLE=17-Octadecynoic acid, methyl ester
##JCAMP-DX=4.24
##DATA TYPE=MASS SPECTRUM
##ORIGIN=NIST Mass Spectrometry Data Center
##OWNER=NIST Mass Spectrometry Data Center
Collection (C) 2014 copyright by the U.S. Secretary of Commerce
on behalf of the United States of America. All rights reserved.
##$NIST MASS SPEC NO=333540
##MOLFORM=C19 H34 O2
##MW=294
##$NIST SOURCE=MSDC
##XUNITS=M/Z
##YUNITS=RELATIVE INTENSITY
##XFACTOR=1
##YFACTOR=1
##FIRSTX=15
##LASTX=294
##FIRSTY=70
##MAXX=294
##MINX=15
##MAXY=9999
##MINY=10
##NPOINTS=206
##PEAK TABLE=(XY..XY)
15,70 26,20 27,320 28,100
29,741 30,20 31,50 33,10
37,10 38,30 39,881 40,300
41,4234 42,711 43,3213 44,120
45,220 46,10 50,40 51,140
52,130 53,1221 54,1762 55,8608
56,921 57,1621 58,130 59,2292
60,80 61,30 62,10 63,30
64,10 65,440 66,370 67,5225
68,2592 69,4094 70,440 71,490
72,110 73,520 74,9999 75,1491
76,90 77,430 78,130 79,1561
80,1111 81,7867 82,4374 83,3203
84,881 85,450 87,5285 88,540
89,50 90,10 91,320 92,90
93,891 94,1151 95,5195 96,4124
97,2793 98,781 99,210 100,120
101,581 102,60 103,20 104,60
105,120 106,60 107,631 108,561
109,2442 110,1241 111,1591 112,340
113,330 114,350 115,400 116,70
117,40 118,20 119,150 120,70
121,741 122,390 123,1061 124,480
125,731 126,190 127,230 128,140
129,390 130,60 131,60 132,20
133,150 134,70 135,641 136,380
137,480 138,290 139,290 140,120
141,150 142,50 143,350 144,40
145,50 146,20 147,90 148,50
149,571 150,330 151,240 152,130
153,190 154,70 155,70 156,10
157,60 158,10 159,40 160,10
161,50 162,30 163,300 164,180
165,120 166,60 167,170 168,40
169,30 170,10 171,40 172,10
173,50 174,20 175,30 176,10
177,110 178,110 179,60 180,50
181,100 182,30 183,10 185,40
186,10 187,40 188,10 189,20
191,60 192,40 193,30 194,10
195,40 196,10 197,10 199,20
200,10 201,20 202,10 203,10
204,10 205,50 206,40 207,20
208,10 209,20 210,10 211,10
213,10 215,20 218,10 219,30
220,110 221,30 222,20 223,50
224,10 233,20 234,70 235,20
236,10 237,100 238,20 245,20
246,10 247,10 251,70 252,20
253,10 255,10 261,10 262,50
263,180 264,40 265,40 266,10
279,20 294,10
##END=
