##TITLE=2-Hexanol, methyl ether
##JCAMP-DX=4.24
##DATA TYPE=MASS SPECTRUM
##ORIGIN=NIST Mass Spectrometry Data Center
##OWNER=NIST Mass Spectrometry Data Center
Collection (C) 2014 copyright by the U.S. Secretary of Commerce
on behalf of the United States of America. All rights reserved.
##$NIST MASS SPEC NO=333920
##MOLFORM=C7 H16 O
##MW=116
##$NIST SOURCE=MSDC
##XUNITS=M/Z
##YUNITS=RELATIVE INTENSITY
##XFACTOR=1
##YFACTOR=1
##FIRSTX=15
##LASTX=116
##FIRSTY=60
##MAXX=116
##MINX=15
##MAXY=9999
##MINY=10
##NPOINTS=47
##PEAK TABLE=(XY..XY)
15,60 26,30 27,360 28,110
29,711 30,20 31,510 33,50
37,10 38,20 39,410 40,60
41,881 42,280 43,941 44,30
45,821 46,20 50,20 51,40
52,10 53,90 54,30 55,370
56,170 57,120 58,360 59,9999
60,340 61,20 63,10 65,10
67,30 69,621 70,30 71,70
72,30 73,30 83,20 84,100
85,90 86,10 87,10 101,460
102,30 115,30 116,40
##END=
