##TITLE=3-Chlorophenol, TBDMS derivative
##JCAMP-DX=4.24
##DATA TYPE=MASS SPECTRUM
##ORIGIN=NIST Mass Spectrometry Data Center
##OWNER=NIST Mass Spectrometry Data Center
Collection (C) 2014 copyright by the U.S. Secretary of Commerce
on behalf of the United States of America. All rights reserved.
##$NIST MASS SPEC NO=333378
##MOLFORM=C12 H19 Cl O Si
##MW=242
##$NIST SOURCE=MSDC
##XUNITS=M/Z
##YUNITS=RELATIVE INTENSITY
##XFACTOR=1
##YFACTOR=1
##FIRSTX=15
##LASTX=246
##FIRSTY=10
##MAXX=246
##MINX=15
##MAXY=9999
##MINY=10
##NPOINTS=148
##PEAK TABLE=(XY..XY)
15,10 27,50 28,20 29,200
30,10 31,20 38,20 39,170
40,20 41,370 42,70 43,240
44,30 45,220 46,20 47,90
50,90 51,80 52,10 53,70
54,10 55,80 56,40 57,330
58,120 59,230 60,40 61,60
62,30 63,250 64,50 65,180
66,30 67,70 68,10 69,30
70,10 71,10 72,10 73,500
74,110 75,701 76,120 77,160
78,50 79,741 80,50 81,220
82,20 83,30 84,10 85,70
86,10 87,20 88,10 89,140
90,50 91,330 93,1151 94,100
95,510 96,40 97,50 98,10
99,90 100,10 101,30 102,10
103,140 104,20 105,160 106,20
107,40 108,10 109,10 110,10
111,520 112,100 113,180 114,30
115,110 116,20 117,170 118,20
119,80 120,30 121,230 122,30
123,30 124,10 125,150 126,20
127,70 128,20 129,150 130,20
131,100 132,10 133,30 134,10
135,310 136,40 137,20 139,10
141,20 142,10 143,20 145,10
147,60 148,40 149,450 150,160
151,70 152,10 153,10 155,420
156,60 157,270 158,30 159,50
160,10 161,10 167,10 169,140
170,30 171,320 172,40 173,100
174,10 181,10 182,10 183,30
185,9999 186,2162 187,3984 188,761
189,180 190,20 207,10 211,10
227,60 228,10 229,20 242,981
243,180 244,370 245,60 246,20
##END=
