##TITLE=(S)-(-)-Citronellic acid, 4,4-dimethyloxazoline (dmox) derivative
##JCAMP-DX=4.24
##DATA TYPE=MASS SPECTRUM
##ORIGIN=NIST Mass Spectrometry Data Center
##OWNER=NIST Mass Spectrometry Data Center
Collection (C) 2014 copyright by the U.S. Secretary of Commerce
on behalf of the United States of America. All rights reserved.
##$NIST MASS SPEC NO=333552
##MOLFORM=C14 H25 N O
##MW=223
##$NIST SOURCE=MSDC
##XUNITS=M/Z
##YUNITS=RELATIVE INTENSITY
##XFACTOR=1
##YFACTOR=1
##FIRSTX=15
##LASTX=225
##FIRSTY=10
##MAXX=225
##MINX=15
##MAXY=9999
##MINY=10
##NPOINTS=129
##PEAK TABLE=(XY..XY)
15,10 26,10 27,200 28,70
29,320 30,30 31,10 38,20
39,581 40,160 41,2512 42,731
43,390 44,80 45,30 46,10
50,20 51,70 52,50 53,490
54,330 55,1672 56,340 57,300
58,140 59,20 60,20 63,10
64,10 65,130 66,90 67,651
68,771 69,1531 70,320 71,120
72,701 73,170 74,10 77,140
78,30 79,200 80,80 81,320
82,490 83,220 84,230 85,20
86,150 87,10 91,120 92,20
93,160 94,290 95,370 96,240
97,490 98,1551 99,100 100,90
101,10 103,10 104,20 105,40
106,20 107,100 108,260 109,571
110,270 111,90 112,150 113,3573
114,350 115,30 117,10 119,30
120,20 121,60 122,90 123,70
124,160 126,9549 127,951 128,60
133,10 134,40 135,30 136,200
137,90 138,90 140,9999 141,3493
142,290 143,20 148,30 149,10
150,140 151,50 152,220 153,190
154,621 155,70 156,10 162,10
163,10 164,50 165,10 166,330
167,180 168,90 169,10 176,10
178,200 179,30 180,450 181,250
182,40 190,10 192,40 194,190
195,30 206,10 208,841 209,120
210,10 222,70 223,761 224,150
225,20
##END=
