##TITLE=1-Docosanol, methyl ether
##JCAMP-DX=4.24
##DATA TYPE=MASS SPECTRUM
##ORIGIN=NIST Mass Spectrometry Data Center
##OWNER=NIST Mass Spectrometry Data Center
Collection (C) 2014 copyright by the U.S. Secretary of Commerce
on behalf of the United States of America. All rights reserved.
##$NIST MASS SPEC NO=333919
##MOLFORM=C23 H48 O
##MW=340
##$NIST SOURCE=MSDC
##XUNITS=M/Z
##YUNITS=RELATIVE INTENSITY
##XFACTOR=1
##YFACTOR=1
##FIRSTX=15
##LASTX=340
##FIRSTY=30
##MAXX=340
##MINX=15
##MAXY=9999
##MINY=10
##NPOINTS=138
##PEAK TABLE=(XY..XY)
15,30 26,20 27,330 28,80
29,1341 30,40 31,60 33,160
39,450 40,110 41,5265 42,1351
43,8688 44,320 45,9699 46,220
47,90 50,10 51,20 52,10
53,330 54,981 55,8598 56,3914
57,9579 58,641 59,110 60,60
65,70 66,140 67,1541 68,4284
69,7196 70,3273 71,4654 72,250
73,20 74,10 77,40 78,10
79,170 80,90 81,1081 82,6075
83,9999 84,2632 85,2903 86,200
87,330 88,10 91,20 92,10
93,40 94,40 95,651 96,2152
97,8918 98,1872 99,781 100,60
101,60 102,10 107,10 108,20
109,280 110,851 111,4934 112,1271
113,450 114,40 115,10 122,30
123,210 124,601 125,2662 126,851
127,300 128,30 136,20 137,120
138,410 139,991 140,520 141,190
142,20 151,30 152,250 153,530
154,370 155,120 156,10 165,20
166,180 167,310 168,270 169,70
170,10 179,10 180,130 181,170
182,170 183,50 194,100 195,110
196,140 197,40 208,80 209,70
210,100 211,20 222,60 223,50
224,90 225,30 236,50 237,40
238,80 239,60 240,10 250,40
251,40 252,70 253,10 264,20
265,20 266,20 278,10 279,20
280,270 281,70 282,10 297,50
298,10 308,611 309,150 310,20
339,10 340,10
##END=
