##TITLE=2,3,5-Trichlorophenol, TMS derivative
##JCAMP-DX=4.24
##DATA TYPE=MASS SPECTRUM
##ORIGIN=NIST Mass Spectrometry Data Center
##OWNER=NIST Mass Spectrometry Data Center
Collection (C) 2014 copyright by the U.S. Secretary of Commerce
on behalf of the United States of America. All rights reserved.
##$NIST MASS SPEC NO=333437
##MOLFORM=C9 H11 Cl3 O Si
##MW=268
##$NIST SOURCE=MSDC
##XUNITS=M/Z
##YUNITS=RELATIVE INTENSITY
##XFACTOR=1
##YFACTOR=1
##FIRSTX=15
##LASTX=275
##FIRSTY=40
##MAXX=275
##MINX=15
##MAXY=9999
##MINY=10
##NPOINTS=212
##PEAK TABLE=(XY..XY)
15,40 26,10 27,50 28,50
29,130 30,10 31,30 35,10
36,10 37,30 38,30 39,40
41,20 42,90 43,581 44,220
45,921 46,70 47,70 48,10
49,20 50,80 51,180 52,20
53,150 54,30 55,120 56,30
57,100 58,100 59,90 60,70
61,190 62,480 63,1151 64,90
65,1101 66,90 67,280 68,20
69,20 70,60 71,60 72,190
73,2923 74,510 75,340 76,80
77,340 78,110 79,631 80,80
81,220 82,20 83,60 84,90
85,70 86,50 87,110 88,30
89,120 90,110 91,100 93,9999
94,831 95,3733 96,390 97,1161
98,120 99,380 100,40 101,50
102,30 103,90 104,20 105,70
106,20 107,220 108,140 109,300
110,70 111,160 113,330 115,200
116,20 117,60 118,20 119,40
120,20 121,30 122,10 123,200
124,40 125,200 126,540 127,520
128,190 131,60 132,140 133,140
134,100 135,110 136,40 137,50
138,20 139,60 140,20 141,30
142,10 143,90 144,60 145,90
146,50 147,90 148,40 149,60
150,10 151,30 152,10 153,30
154,10 155,40 156,10 157,50
158,20 159,220 160,150 161,170
162,90 163,50 164,20 165,10
167,240 168,30 169,230 170,20
171,80 172,10 173,30 174,10
175,40 176,10 177,20 179,20
180,10 181,110 182,70 183,130
184,40 185,40 186,10 187,10
188,10 189,80 190,10 191,50
192,10 193,40 194,10 195,100
196,20 197,80 198,50 199,30
200,10 201,30 202,20 203,80
204,20 205,50 206,10 207,10
215,30 216,20 217,140 218,80
219,100 220,40 221,20 222,10
223,50 224,10 225,50 226,20
227,20 228,10 229,10 232,10
233,10 234,10 237,10 239,10
241,10 250,10 251,20 253,5615
254,791 255,5535 256,781 257,1952
258,260 259,250 260,30 261,10
268,1201 269,180 270,1251 271,180
272,430 273,60 274,60 275,10
##END=
