##TITLE=L-Leucine, TMS derivative
##JCAMP-DX=4.24
##DATA TYPE=MASS SPECTRUM
##ORIGIN=NIST Mass Spectrometry Data Center
##OWNER=NIST Mass Spectrometry Data Center
Collection (C) 2014 copyright by the U.S. Secretary of Commerce
on behalf of the United States of America. All rights reserved.
##$NIST MASS SPEC NO=333250
##MOLFORM=C9 H21 N O2 Si
##MW=203
##$NIST SOURCE=MSDC
##XUNITS=M/Z
##YUNITS=RELATIVE INTENSITY
##XFACTOR=1
##YFACTOR=1
##FIRSTX=15
##LASTX=204
##FIRSTY=20
##MAXX=204
##MINX=15
##MAXY=9999
##MINY=10
##NPOINTS=108
##PEAK TABLE=(XY..XY)
15,20 18,30 26,10 27,160
28,180 29,200 30,1631 31,40
38,10 39,150 40,20 41,581
42,310 43,1081 44,2232 45,821
46,70 47,350 48,20 49,10
51,10 52,10 53,60 54,40
55,120 56,170 57,240 58,140
59,210 60,100 61,300 62,20
63,10 65,20 67,40 68,40
69,120 70,370 71,40 72,60
73,1852 74,621 75,2152 76,210
77,90 79,10 81,20 82,10
83,10 84,80 86,9999 87,941
88,60 89,30 91,60 92,20
93,10 95,10 96,70 97,20
98,10 99,40 100,70 101,20
102,100 103,500 104,130 105,60
106,10 111,10 112,10 113,10
114,20 115,20 116,20 117,70
118,50 119,10 125,20 126,10
127,30 128,130 129,260 130,300
131,130 132,50 133,10 142,170
143,50 144,60 146,711 147,90
148,30 152,10 153,10 155,10
158,10 160,50 161,10 170,360
171,210 172,40 173,10 188,701
189,100 190,30 203,10 204,20
##END=
