##TITLE=Citronellic acid, TBDMS derivative
##JCAMP-DX=4.24
##DATA TYPE=MASS SPECTRUM
##ORIGIN=NIST Mass Spectrometry Data Center
##OWNER=NIST Mass Spectrometry Data Center
Collection (C) 2014 copyright by the U.S. Secretary of Commerce
on behalf of the United States of America. All rights reserved.
##$NIST MASS SPEC NO=333630
##MOLFORM=C16 H32 O2 Si
##MW=284
##$NIST SOURCE=MSDC
##XUNITS=M/Z
##YUNITS=RELATIVE INTENSITY
##XFACTOR=1
##YFACTOR=1
##FIRSTX=15
##LASTX=286
##FIRSTY=10
##MAXX=286
##MINX=15
##MAXY=9999
##MINY=10
##NPOINTS=176
##PEAK TABLE=(XY..XY)
15,10 27,170 28,50 29,380
30,10 31,20 39,520 40,150
41,2943 42,270 43,550 44,50
45,540 46,40 47,571 48,30
49,20 50,20 51,60 52,30
53,440 54,110 55,1041 56,260
57,721 58,290 59,641 60,160
61,300 62,20 63,20 65,100
66,50 67,871 68,190 69,2622
70,260 71,60 72,530 73,3293
74,550 75,8818 76,741 77,561
78,50 79,350 80,50 81,591
82,470 83,210 84,30 85,200
86,90 87,60 88,170 89,50
90,10 91,170 92,90 93,1852
94,440 95,550 96,80 97,110
98,40 99,510 100,90 101,470
102,90 103,190 104,20 105,350
106,90 107,1451 108,200 109,3623
110,661 111,140 112,20 113,240
114,180 115,1381 116,1812 117,1201
118,200 119,330 120,50 121,50
122,10 123,110 124,20 125,70
126,10 127,160 128,40 129,861
130,110 131,150 132,20 133,180
134,50 135,1311 136,150 137,100
138,10 139,20 141,60 142,50
143,1081 144,190 145,1852 146,220
147,130 148,10 149,10 151,40
152,520 153,150 154,20 155,110
156,50 157,180 158,60 159,100
160,10 161,10 163,10 165,40
166,10 167,60 169,8057 170,1341
171,1061 172,130 173,40 175,10
179,10 181,10 183,120 184,70
185,370 186,70 187,40 188,10
191,10 193,10 195,10 197,20
198,20 199,40 200,10 201,50
202,10 209,1061 210,190 211,150
212,30 213,20 215,30 216,10
225,30 227,9999 228,2072 229,601
230,70 231,10 241,10 251,10
253,10 269,360 270,80 271,20
283,10 284,150 285,50 286,10
##END=
