##TITLE=Geraniol, TMS derivative
##JCAMP-DX=4.24
##DATA TYPE=MASS SPECTRUM
##ORIGIN=NIST Mass Spectrometry Data Center
##OWNER=NIST Mass Spectrometry Data Center
Collection (C) 2014 copyright by the U.S. Secretary of Commerce
on behalf of the United States of America. All rights reserved.
##$NIST MASS SPEC NO=333013
##MOLFORM=C13 H26 O Si
##MW=226
##$NIST SOURCE=MSDC
##XUNITS=M/Z
##YUNITS=RELATIVE INTENSITY
##XFACTOR=1
##YFACTOR=1
##FIRSTX=15
##LASTX=228
##FIRSTY=20
##MAXX=228
##MINX=15
##MAXY=9999
##MINY=10
##NPOINTS=144
##PEAK TABLE=(XY..XY)
15,20 26,10 27,240 28,40
29,210 30,10 31,30 39,591
40,190 41,3103 42,200 43,450
44,130 45,1031 46,80 47,530
48,30 49,20 50,30 51,120
52,70 53,811 54,100 55,410
56,70 57,120 58,120 59,410
60,110 61,450 62,40 63,50
64,10 65,190 66,90 67,1101
68,1091 69,4404 70,290 71,60
73,9999 74,1071 75,6556 76,500
77,561 78,80 79,460 80,871
81,651 82,170 83,130 84,40
85,90 86,20 87,60 88,30
89,70 90,10 91,420 92,621
93,2943 94,611 95,671 96,70
97,70 98,20 99,120 100,20
101,210 102,30 103,701 104,70
105,210 106,50 107,981 108,300
109,230 110,110 111,90 112,20
113,240 114,30 115,320 116,60
117,80 118,10 119,70 121,4854
122,631 123,1722 124,160 125,90
127,771 128,100 129,390 130,70
131,961 132,110 133,40 135,500
136,1491 137,220 138,20 139,20
141,490 142,120 143,3873 144,1311
145,350 146,50 147,10 149,10
151,20 153,20 155,591 156,1641
157,1411 158,240 159,60 160,10
165,10 167,10 169,1291 170,280
171,180 172,20 173,10 181,10
183,681 184,150 185,40 186,10
191,10 193,80 194,10 195,10
197,10 211,691 212,130 213,40
225,50 226,460 227,90 228,20
##END=
