##TITLE=Butyric Acid, TBDMS derivative
##JCAMP-DX=4.24
##DATA TYPE=MASS SPECTRUM
##ORIGIN=NIST Mass Spectrometry Data Center
##OWNER=NIST Mass Spectrometry Data Center
Collection (C) 2014 copyright by the U.S. Secretary of Commerce
on behalf of the United States of America. All rights reserved.
##$NIST MASS SPEC NO=333136
##MOLFORM=C10 H22 O2 Si
##MW=202
##$NIST SOURCE=MSDC
##XUNITS=M/Z
##YUNITS=RELATIVE INTENSITY
##XFACTOR=1
##YFACTOR=1
##FIRSTX=15
##LASTX=189
##FIRSTY=10
##MAXX=189
##MINX=15
##MAXY=9999
##MINY=10
##NPOINTS=79
##PEAK TABLE=(XY..XY)
15,10 26,10 27,160 28,30
29,200 30,10 31,20 38,10
39,220 40,40 41,591 42,120
43,520 44,40 45,520 46,40
47,440 48,20 49,20 50,10
51,10 53,30 54,10 55,120
56,70 57,340 58,230 59,340
60,150 61,240 62,20 63,10
67,10 68,10 69,60 70,20
71,220 72,100 73,1221 74,320
75,8127 76,731 77,370 78,10
83,20 84,10 85,60 86,20
87,60 88,40 89,20 97,10
98,10 99,100 100,20 101,140
102,40 103,20 111,10 114,10
115,621 116,210 117,80 118,10
127,10 129,120 130,40 131,20
133,10 143,20 145,9999 146,1672
147,611 148,40 159,10 171,20
187,230 188,40 189,10
##END=
