##TITLE=Citramalic acid, 3TBDMS derivative
##JCAMP-DX=4.24
##DATA TYPE=MASS SPECTRUM
##ORIGIN=NIST Mass Spectrometry Data Center
##OWNER=NIST Mass Spectrometry Data Center
Collection (C) 2014 copyright by the U.S. Secretary of Commerce
on behalf of the United States of America. All rights reserved.
##$NIST MASS SPEC NO=333173
##MOLFORM=C23 H50 O5 Si3
##MW=490
##$NIST SOURCE=MSDC
##XUNITS=M/Z
##YUNITS=RELATIVE INTENSITY
##XFACTOR=1
##YFACTOR=1
##FIRSTX=27
##LASTX=479
##FIRSTY=10
##MAXX=479
##MINX=27
##MAXY=9999
##MINY=10
##NPOINTS=237
##PEAK TABLE=(XY..XY)
27,10 28,10 29,120 31,10
39,60 40,20 41,480 42,30
43,190 44,20 45,240 46,20
47,90 53,20 55,60 56,100
57,550 58,210 59,530 60,60
61,60 66,10 67,40 68,20
69,490 70,30 71,20 73,8868
74,811 75,1471 76,100 77,60
81,10 83,50 84,30 85,170
86,30 87,20 88,10 89,10
95,10 96,10 97,40 98,20
99,250 100,70 101,60 102,20
103,80 104,10 105,20 109,10
111,10 113,40 115,2232 116,290
117,290 118,30 119,100 120,10
121,10 124,20 125,10 127,20
128,10 129,30 130,10 131,190
132,60 133,1381 134,200 135,160
136,20 137,10 141,20 142,30
143,500 144,70 145,270 147,5085
148,811 149,1181 150,160 151,130
152,10 153,10 155,10 157,200
158,30 159,140 160,30 161,20
162,10 163,10 169,30 170,10
171,30 172,10 173,210 174,40
175,170 176,40 177,60 178,10
179,10 183,10 185,80 186,10
187,70 189,1141 190,210 191,240
192,40 193,40 194,10 199,110
200,20 201,90 202,20 203,60
204,20 205,40 206,10 207,320
208,70 209,40 210,10 211,10
215,10 217,621 218,120 219,110
220,20 221,160 222,40 223,30
224,10 227,400 228,70 229,20
231,591 232,130 233,130 234,20
235,10 243,10 244,10 245,20
246,10 247,10 249,10 257,160
258,50 259,520 260,220 261,380
262,80 263,60 264,10 265,10
271,10 273,1291 274,310 275,150
276,30 277,10 287,140 288,40
289,30 290,10 291,10 299,30
301,4524 302,1121 303,550 304,100
305,30 306,10 315,260 317,2362
318,631 319,260 320,50 321,10
329,10 331,3733 332,1041 333,440
334,110 335,20 336,10 343,350
344,100 345,40 346,10 347,30
348,10 349,10 357,10 361,130
362,50 363,50 364,20 365,10
375,20 376,10 377,10 389,300
390,100 391,150 392,40 393,20
405,1531 406,540 407,250 408,60
409,10 417,230 418,80 419,40
420,10 431,70 433,9999 434,3733
435,1782 436,430 437,100 438,20
447,30 448,10 459,20 460,10
475,510 476,210 477,90 478,20
479,10
##END=
