##TITLE=2-Methyl-6-tert-butylphenol, TMS derivative
##JCAMP-DX=4.24
##DATA TYPE=MASS SPECTRUM
##ORIGIN=NIST Mass Spectrometry Data Center
##OWNER=NIST Mass Spectrometry Data Center
Collection (C) 2014 copyright by the U.S. Secretary of Commerce
on behalf of the United States of America. All rights reserved.
##$NIST MASS SPEC NO=333483
##MOLFORM=C14 H24 O Si
##MW=236
##$NIST SOURCE=MSDC
##XUNITS=M/Z
##YUNITS=RELATIVE INTENSITY
##XFACTOR=1
##YFACTOR=1
##FIRSTX=15
##LASTX=239
##FIRSTY=10
##MAXX=239
##MINX=15
##MAXY=9999
##MINY=10
##NPOINTS=155
##PEAK TABLE=(XY..XY)
15,10 27,70 28,20 29,210
30,10 31,40 39,190 40,20
41,480 42,30 43,270 44,140
45,1281 46,80 47,140 48,10
49,10 50,30 51,130 52,50
53,170 54,10 55,160 56,20
57,751 58,90 59,400 60,40
61,100 62,20 63,80 64,20
65,210 66,30 67,50 68,10
69,30 70,20 71,30 73,9999
74,951 75,731 76,60 77,430
78,120 79,210 80,50 81,200
82,50 83,30 84,10 85,30
86,10 87,80 88,70 89,561
91,1011 92,110 93,50 94,50
95,70 96,10 97,10 99,10
101,20 102,70 103,460 104,80
105,601 106,60 107,50 108,30
109,30 110,10 111,10 113,10
114,10 115,540 116,190 117,170
118,30 119,200 120,40 121,150
122,10 123,110 124,10 126,10
127,80 128,230 129,170 130,50
131,140 132,40 133,190 134,40
135,250 136,30 137,40 141,10
142,10 143,20 144,10 145,100
146,30 147,470 148,150 149,540
150,80 151,70 152,10 157,10
159,30 160,10 161,120 162,30
163,300 164,70 165,941 166,130
167,40 171,10 173,10 174,10
175,170 176,30 177,390 178,70
179,40 180,20 181,10 182,10
185,10 187,10 189,90 190,20
191,100 192,10 193,70 194,20
203,10 205,530 206,100 207,30
218,10 219,30 221,7747 222,1591
223,420 224,50 234,10 236,2412
237,500 238,130 239,20
##END=
