##TITLE=2-tert-Butyl-6-methylphenol, methyl ether
##JCAMP-DX=4.24
##DATA TYPE=MASS SPECTRUM
##ORIGIN=NIST Mass Spectrometry Data Center
##OWNER=NIST Mass Spectrometry Data Center
Collection (C) 2014 copyright by the U.S. Secretary of Commerce
on behalf of the United States of America. All rights reserved.
##$NIST MASS SPEC NO=333481
##MOLFORM=C12 H18 O
##MW=178
##$NIST SOURCE=MSDC
##XUNITS=M/Z
##YUNITS=RELATIVE INTENSITY
##XFACTOR=1
##YFACTOR=1
##FIRSTX=15
##LASTX=180
##FIRSTY=250
##MAXX=180
##MINX=15
##MAXY=9999
##MINY=10
##NPOINTS=110
##PEAK TABLE=(XY..XY)
15,250 26,20 27,270 28,100
29,240 30,10 31,30 33,10
37,10 38,50 39,681 40,90
41,821 42,60 43,100 45,10
46,10 50,180 51,611 52,240
53,470 54,40 55,230 56,20
57,160 58,50 59,20 60,10
61,20 62,100 63,430 64,170
65,761 66,140 67,80 69,20
71,10 72,60 73,90 74,130
75,160 76,110 77,1571 78,571
79,781 80,90 81,190 85,10
86,30 87,50 88,30 89,350
90,120 91,2903 92,360 93,380
94,40 95,20 98,10 99,10
101,40 102,210 103,771 104,310
105,7437 106,801 107,310 108,190
109,30 113,20 115,1972 116,1131
117,591 118,130 119,631 120,180
121,470 122,220 123,550 124,50
126,30 127,230 128,591 129,621
130,160 131,581 132,200 133,961
134,90 135,4684 136,500 137,50
141,20 143,10 144,10 145,150
146,60 147,390 148,1621 149,280
150,20 159,10 161,50 163,9999
164,2062 165,150 166,10 178,5665
179,821 180,60
##END=
