##TITLE=1-Methyl-N,N-bis(trimethylsilyl)-4-[(trimethylsilyl)oxy]-1H-imidazol-2-amine
##JCAMP-DX=4.24
##DATA TYPE=MASS SPECTRUM
##ORIGIN=NIST Mass Spectrometry Data Center
##OWNER=NIST Mass Spectrometry Data Center
Collection (C) 2014 copyright by the U.S. Secretary of Commerce
on behalf of the United States of America. All rights reserved.
##$NIST MASS SPEC NO=333946
##MOLFORM=C13 H31 N3 O Si3
##MW=329
##$NIST SOURCE=MSDC
##XUNITS=M/Z
##YUNITS=RELATIVE INTENSITY
##XFACTOR=1
##YFACTOR=1
##FIRSTX=15
##LASTX=333
##FIRSTY=10
##MAXX=333
##MINX=15
##MAXY=9999
##MINY=10
##NPOINTS=162
##PEAK TABLE=(XY..XY)
15,10 29,20 31,10 41,30
42,601 43,160 44,130 45,881
46,60 47,40 53,10 54,10
55,30 56,30 57,70 58,100
59,490 60,40 61,30 67,10
68,20 69,30 70,80 71,70
72,240 73,6376 74,561 75,330
76,10 78,10 83,20 84,100
85,80 86,100 87,60 88,20
89,10 97,10 98,60 99,310
100,2592 101,290 102,120 103,30
104,10 105,10 111,40 112,50
113,40 114,651 115,9999 116,1181
117,500 118,40 119,20 124,10
125,20 126,80 127,30 128,110
129,70 130,310 131,280 132,80
133,90 134,10 135,10 139,20
140,20 141,100 142,180 143,2803
144,370 145,130 146,50 147,681
148,100 149,50 150,10 151,10
152,10 154,10 155,100 156,50
157,170 158,160 159,40 160,20
166,10 167,10 168,10 169,10
170,40 171,1551 172,340 173,140
174,30 175,10 182,10 183,20
184,10 185,30 186,40 187,370
188,140 189,40 190,20 196,10
197,10 198,10 199,60 200,30
201,80 202,20 203,10 204,30
205,10 212,10 213,20 214,20
215,110 216,60 217,10 224,10
225,10 226,60 227,20 229,20
230,10 240,30 241,210 242,50
243,30 244,10 245,40 246,10
254,10 255,10 256,50 257,20
258,10 259,10 284,10 286,10
287,10 298,10 299,10 300,10
301,10 312,20 313,20 314,1221
315,360 316,180 317,30 318,10
328,50 329,2122 330,671 331,310
332,60 333,10
##END=
