##TITLE=cis-11-Eicosenoic acid, 4,4-dimethyloxazoline (dmox) derivative
##JCAMP-DX=4.24
##DATA TYPE=MASS SPECTRUM
##ORIGIN=NIST Mass Spectrometry Data Center
##OWNER=NIST Mass Spectrometry Data Center
Collection (C) 2014 copyright by the U.S. Secretary of Commerce
on behalf of the United States of America. All rights reserved.
##$NIST MASS SPEC NO=333639
##MOLFORM=C24 H45 N O
##MW=363
##$NIST SOURCE=MSDC
##XUNITS=M/Z
##YUNITS=RELATIVE INTENSITY
##XFACTOR=1
##YFACTOR=1
##FIRSTX=15
##LASTX=365
##FIRSTY=10
##MAXX=365
##MINX=15
##MAXY=9999
##MINY=10
##NPOINTS=184
##PEAK TABLE=(XY..XY)
15,10 26,10 27,160 28,60
29,500 30,50 31,10 38,10
39,260 40,70 41,1902 42,611
43,1491 44,140 45,20 50,10
51,10 52,10 53,220 54,561
55,2983 56,721 57,1021 58,801
59,40 60,10 65,70 66,40
67,761 68,591 69,1141 70,480
71,300 72,821 73,160 74,10
77,60 78,10 79,240 80,90
81,530 82,510 83,711 84,350
85,90 86,50 89,10 91,70
92,10 93,130 94,100 95,380
96,510 97,591 98,891 99,80
100,50 103,10 104,10 105,30
106,10 107,60 108,70 109,130
110,621 111,170 113,9999 114,1131
115,70 116,10 119,20 120,20
121,40 122,110 123,60 124,210
126,7457 127,1261 128,110 129,10
133,10 134,20 135,20 136,80
137,30 138,170 139,60 140,771
141,100 142,30 147,10 148,20
149,10 150,50 151,20 152,200
153,60 154,270 155,120 156,40
162,10 164,30 165,10 166,150
167,50 168,1091 169,150 170,50
178,30 180,150 181,30 182,561
183,80 184,20 192,30 193,10
194,90 195,20 196,430 197,80
198,10 206,30 207,10 208,80
209,40 210,1111 211,180 212,20
220,30 221,10 222,100 223,20
224,230 225,50 226,10 234,30
236,230 237,50 238,90 239,30
240,10 248,30 249,10 250,320
251,120 252,70 253,10 262,20
264,1611 265,420 266,90 267,10
276,10 278,1742 279,380 280,60
281,10 290,10 291,10 292,300
293,70 294,10 304,10 306,230
307,60 308,110 309,20 318,50
319,10 320,340 321,80 322,50
323,10 332,10 334,300 335,80
336,10 348,971 349,250 350,30
362,300 363,861 364,230 365,30
##END=
