##TITLE=2-Ethylphenol, TBDMS derivative
##JCAMP-DX=4.24
##DATA TYPE=MASS SPECTRUM
##ORIGIN=NIST Mass Spectrometry Data Center
##OWNER=NIST Mass Spectrometry Data Center
Collection (C) 2014 copyright by the U.S. Secretary of Commerce
on behalf of the United States of America. All rights reserved.
##$NIST MASS SPEC NO=333444
##MOLFORM=C14 H24 O Si
##MW=236
##$NIST SOURCE=MSDC
##XUNITS=M/Z
##YUNITS=RELATIVE INTENSITY
##XFACTOR=1
##YFACTOR=1
##FIRSTX=15
##LASTX=239
##FIRSTY=10
##MAXX=239
##MINX=15
##MAXY=9999
##MINY=10
##NPOINTS=126
##PEAK TABLE=(XY..XY)
15,10 27,80 28,10 29,190
31,60 38,10 39,170 40,30
41,360 42,50 43,220 44,30
45,350 46,20 47,100 50,30
51,150 52,40 53,90 54,10
55,80 56,30 57,380 58,120
59,1411 60,120 61,140 62,20
63,80 64,20 65,120 66,30
67,50 68,40 69,40 70,10
71,20 73,1782 74,220 75,1271
76,130 77,731 78,160 79,210
80,20 81,60 82,240 83,60
85,60 86,10 87,10 88,10
89,160 90,80 91,591 92,50
93,40 94,10 95,100 96,10
97,20 99,30 101,30 102,80
103,340 104,110 105,691 106,70
107,50 108,10 109,50 110,10
111,10 115,80 116,20 117,40
118,10 119,90 120,30 121,180
122,30 123,70 124,10 128,10
129,10 131,60 132,10 133,140
134,40 135,1241 136,160 137,270
138,30 139,10 143,10 145,60
146,20 147,320 148,130 149,801
150,130 151,1061 152,140 153,40
159,10 161,681 163,4414 164,691
165,430 166,50 167,10 175,30
177,1061 179,9999 180,2122 181,561
182,60 183,10 191,10 221,130
222,20 223,10 236,1882 237,390
238,100 239,10
##END=
