##TITLE=4-Methylvaleric acid, picolinyl ester
##JCAMP-DX=4.24
##DATA TYPE=MASS SPECTRUM
##ORIGIN=NIST Mass Spectrometry Data Center
##OWNER=NIST Mass Spectrometry Data Center
Collection (C) 2014 copyright by the U.S. Secretary of Commerce
on behalf of the United States of America. All rights reserved.
##$NIST MASS SPEC NO=333115
##MOLFORM=C12 H17 N O2
##MW=207
##$NIST SOURCE=MSDC
##XUNITS=M/Z
##YUNITS=RELATIVE INTENSITY
##XFACTOR=1
##YFACTOR=1
##FIRSTX=15
##LASTX=209
##FIRSTY=10
##MAXX=209
##MINX=15
##MAXY=9999
##MINY=10
##NPOINTS=105
##PEAK TABLE=(XY..XY)
15,10 26,30 27,310 28,140
29,230 30,10 31,10 37,30
38,130 39,1411 40,120 41,1001
42,180 43,1842 44,70 45,30
46,10 49,10 50,150 51,420
52,250 53,340 54,80 55,731
56,210 57,140 58,20 59,10
60,10 61,20 62,70 63,430
64,460 65,2502 66,210 67,50
69,1201 70,100 71,460 72,30
73,561 74,30 75,20 76,20
77,20 78,360 79,260 80,641
81,941 82,70 83,10 90,30
91,1121 92,9999 93,9178 94,741
95,30 97,2282 98,160 99,300
100,20 104,10 105,80 106,540
107,140 108,2692 109,1621 110,450
111,30 115,1441 116,100 117,20
118,30 119,30 120,30 121,10
123,90 124,10 130,10 132,20
133,390 134,60 135,20 136,250
137,30 146,20 147,20 148,120
149,20 150,40 151,530 152,50
161,10 162,10 164,671 165,80
166,10 178,80 179,20 192,150
193,20 206,40 207,160 208,60
209,10
##END=
