##TITLE=5-Bromo-2,4-bis[(trimethylsilyl)oxy]pyrimidine
##JCAMP-DX=4.24
##DATA TYPE=MASS SPECTRUM
##ORIGIN=NIST Mass Spectrometry Data Center
##OWNER=NIST Mass Spectrometry Data Center
Collection (C) 2014 copyright by the U.S. Secretary of Commerce
on behalf of the United States of America. All rights reserved.
##$NIST MASS SPEC NO=333945
##MOLFORM=C10 H19 Br N2 O2 Si2
##MW=334
##$NIST SOURCE=MSDC
##XUNITS=M/Z
##YUNITS=RELATIVE INTENSITY
##XFACTOR=1
##YFACTOR=1
##FIRSTX=15
##LASTX=339
##FIRSTY=20
##MAXX=339
##MINX=15
##MAXY=9999
##MINY=10
##NPOINTS=238
##PEAK TABLE=(XY..XY)
15,20 27,20 28,20 29,90
30,10 31,30 38,10 39,20
40,10 41,10 42,70 43,571
44,270 45,1531 46,110 47,90
51,20 52,50 53,120 54,60
55,200 56,90 57,160 58,200
59,430 60,50 61,50 62,10
64,10 65,70 66,370 67,70
68,40 69,80 70,430 71,120
72,621 73,6186 74,581 75,410
76,30 77,20 78,10 79,40
81,20 82,30 83,100 84,170
85,110 86,210 87,80 88,20
89,30 91,60 93,30 94,30
95,20 96,30 97,60 98,150
99,510 100,1391 101,160 102,110
103,80 104,20 105,170 107,120
108,20 109,180 110,70 111,160
112,60 113,70 114,40 115,130
116,50 117,190 118,240 119,50
120,240 121,20 122,100 123,300
124,150 125,310 126,50 127,240
128,60 129,30 130,40 131,951
132,170 133,420 134,60 135,40
136,30 137,350 138,90 139,340
140,50 141,40 142,40 143,30
144,80 145,60 147,5135 148,851
149,440 150,90 151,40 152,1011
153,1101 155,20 156,40 157,70
158,370 159,90 160,80 161,30
162,50 163,70 164,70 165,70
166,60 167,40 168,20 169,140
170,40 171,20 172,30 173,30
174,160 175,40 176,70 177,1251
178,130 179,1241 180,120 181,80
182,20 183,60 184,50 185,791
186,140 187,90 188,20 189,40
190,20 191,30 192,10 193,30
194,10 195,50 196,20 197,90
198,20 199,30 200,10 202,10
204,320 205,40 206,320 207,40
208,20 209,10 210,10 211,30
212,80 213,40 214,10 217,10
218,30 219,20 220,40 221,30
222,20 223,10 224,10 225,40
226,20 227,10 231,30 232,10
233,30 234,10 235,10 236,10
237,10 238,10 239,561 240,120
241,70 242,10 244,20 245,30
246,70 247,70 248,70 249,50
250,10 251,10 253,30 255,5695
256,1221 257,520 258,70 259,10
260,10 261,60 262,20 263,60
264,10 289,20 291,30 292,10
293,10 303,20 304,10 305,30
306,10 307,10 316,10 317,40
319,9449 320,2042 321,9999 322,2072
323,851 324,110 325,20 333,90
334,1762 335,480 336,1992 337,440
338,180 339,30
##END=
