##TITLE=trans-Vaccenic acid, picolinyl ester
##JCAMP-DX=4.24
##DATA TYPE=MASS SPECTRUM
##ORIGIN=NIST Mass Spectrometry Data Center
##OWNER=NIST Mass Spectrometry Data Center
Collection (C) 2014 copyright by the U.S. Secretary of Commerce
on behalf of the United States of America. All rights reserved.
##$NIST MASS SPEC NO=333558
##MOLFORM=C24 H39 N O2
##MW=373
##$NIST SOURCE=MSDC
##XUNITS=M/Z
##YUNITS=RELATIVE INTENSITY
##XFACTOR=1
##YFACTOR=1
##FIRSTX=26
##LASTX=375
##FIRSTY=30
##MAXX=375
##MINX=26
##MAXY=9999
##MINY=10
##NPOINTS=206
##PEAK TABLE=(XY..XY)
26,30 27,220 28,110 29,671
38,40 39,981 40,110 41,3113
42,751 43,1912 46,10 50,40
51,160 52,110 53,450 54,991
55,4874 56,861 57,621 59,30
60,30 61,20 62,20 63,140
64,190 65,1521 66,240 67,1211
68,410 69,2022 70,300 71,190
73,70 75,20 77,100 78,220
79,480 80,390 81,771 82,210
83,861 84,170 85,70 87,20
89,20 91,611 92,9999 93,4224
94,490 95,550 96,160 97,430
98,120 99,40 101,30 104,20
105,80 106,180 107,140 108,6976
109,2873 110,781 111,230 112,20
113,60 114,30 115,30 117,70
118,90 119,70 120,90 121,90
122,50 123,60 124,30 125,100
126,20 127,40 129,30 131,60
132,90 133,170 134,120 135,70
136,50 137,70 139,10 144,10
146,50 147,60 148,170 149,70
150,30 151,2993 152,360 153,40
157,20 158,20 159,20 160,20
161,20 162,40 164,4534 165,581
166,50 168,40 170,10 171,10
172,20 173,30 174,40 175,40
176,70 177,20 178,791 179,110
180,50 181,20 182,20 183,60
184,20 187,10 188,60 189,30
190,90 191,70 192,430 193,180
194,50 195,10 200,20 202,40
203,20 204,210 205,50 206,1101
207,160 212,30 216,40 217,80
218,110 219,40 220,661 221,160
222,10 228,10 230,50 232,110
233,50 234,601 235,110 236,10
244,30 245,10 246,120 247,40
248,621 249,120 250,20 256,30
258,20 260,110 261,60 262,280
263,40 265,30 270,20 271,20
272,20 274,340 275,170 276,90
277,10 284,90 288,651 289,190
290,60 291,10 298,70 299,30
300,20 302,2322 303,601 304,100
308,10 316,1762 317,490 318,60
319,10 330,571 331,120 332,70
344,490 345,130 346,40 349,10
350,10 354,20 358,140 359,70
365,10 371,10 372,470 373,1732
374,480 375,100
##END=
