##TITLE=cis-9, cis-12-Octadecadienoic acid, picolinyl ester
##JCAMP-DX=4.24
##DATA TYPE=MASS SPECTRUM
##ORIGIN=NIST Mass Spectrometry Data Center
##OWNER=NIST Mass Spectrometry Data Center
Collection (C) 2014 copyright by the U.S. Secretary of Commerce
on behalf of the United States of America. All rights reserved.
##$NIST MASS SPEC NO=333208
##MOLFORM=C24 H37 N O2
##MW=371
##$NIST SOURCE=MSDC
##XUNITS=M/Z
##YUNITS=RELATIVE INTENSITY
##XFACTOR=1
##YFACTOR=1
##FIRSTX=26
##LASTX=374
##FIRSTY=10
##MAXX=374
##MINX=26
##MAXY=9999
##MINY=10
##NPOINTS=257
##PEAK TABLE=(XY..XY)
26,10 27,190 28,50 29,470
30,10 31,10 37,10 38,40
39,821 40,100 41,2222 42,260
43,751 44,10 45,20 50,40
51,170 52,130 53,691 54,1231
55,3103 56,280 57,310 58,20
59,20 60,10 61,10 62,20
63,160 64,250 65,1982 66,400
67,4054 68,641 69,1001 70,100
71,120 72,10 73,30 75,10
76,10 77,721 78,340 79,2292
80,1241 81,2602 82,410 83,360
84,50 85,90 86,10 87,20
89,10 91,1281 92,9999 93,4414
94,721 95,1651 96,250 97,210
98,50 99,30 101,20 102,10
103,30 104,20 105,190 106,200
107,450 108,5535 109,2632 110,831
111,110 112,10 113,30 115,40
116,10 117,90 118,110 119,150
120,90 121,330 122,90 123,340
124,60 125,30 126,10 127,30
128,10 129,20 130,70 131,120
132,70 133,240 134,130 135,260
136,90 137,170 138,30 139,20
141,20 142,10 143,30 144,70
145,80 146,80 147,130 148,140
149,180 151,1461 152,190 153,40
154,10 155,10 156,20 157,20
158,50 159,60 160,50 161,60
162,50 164,4474 165,571 166,60
167,30 168,10 169,10 170,20
171,10 172,50 173,70 174,40
175,30 176,40 177,90 178,781
179,140 180,20 181,30 182,10
184,30 185,10 186,40 187,30
188,50 189,50 190,130 191,60
192,250 193,80 194,10 195,20
196,10 198,20 199,10 200,20
201,20 202,50 203,20 204,290
205,70 206,490 207,110 208,20
209,20 210,10 212,10 214,20
215,10 216,40 217,20 218,70
219,50 220,571 221,110 222,20
223,10 228,20 229,10 230,40
231,10 232,60 233,40 234,240
235,40 236,10 237,10 240,10
242,40 243,20 244,40 245,10
246,100 247,220 248,150 249,20
254,10 256,40 257,10 258,70
259,40 260,891 261,390 262,140
263,40 264,10 268,10 270,10
272,150 273,60 274,641 275,160
276,60 277,10 279,60 280,10
282,30 283,10 284,10 286,170
287,60 288,90 289,20 290,20
296,70 297,20 298,10 300,330
301,120 302,60 303,10 304,10
310,60 311,10 312,20 314,701
315,210 316,100 317,30 324,20
326,10 328,561 329,140 330,60
331,10 338,10 342,240 343,80
344,10 352,10 356,80 357,20
370,440 371,1982 372,540 373,80
374,10
##END=
