##TITLE=(Z)-4-Decen-1-ol, methyl ether
##JCAMP-DX=4.24
##DATA TYPE=MASS SPECTRUM
##ORIGIN=NIST Mass Spectrometry Data Center
##OWNER=NIST Mass Spectrometry Data Center
Collection (C) 2014 copyright by the U.S. Secretary of Commerce
on behalf of the United States of America. All rights reserved.
##$NIST MASS SPEC NO=333848
##MOLFORM=C11 H22 O
##MW=170
##$NIST SOURCE=MSDC
##XUNITS=M/Z
##YUNITS=RELATIVE INTENSITY
##XFACTOR=1
##YFACTOR=1
##FIRSTX=15
##LASTX=171
##FIRSTY=170
##MAXX=171
##MINX=15
##MAXY=9999
##MINY=10
##NPOINTS=89
##PEAK TABLE=(XY..XY)
15,170 26,60 27,1121 28,320
29,2112 30,60 31,160 33,50
37,10 38,60 39,2052 40,380
41,5435 42,741 43,1511 45,7877
46,170 47,20 50,70 51,280
52,200 53,2002 54,5335 55,5245
56,751 57,601 58,4044 59,671
60,30 62,10 63,60 64,20
65,611 66,951 67,8448 68,9999
69,2092 70,280 71,4474 72,370
73,30 74,10 77,581 78,110
79,2452 80,571 81,9168 82,4964
83,951 84,160 85,701 86,50
87,10 89,10 91,190 92,20
93,230 94,130 95,3523 96,2813
97,581 98,40 99,70 100,60
101,10 103,10 105,10 107,30
108,30 109,1672 110,1371 111,130
112,10 113,290 114,130 115,20
123,120 124,20 127,200 128,20
136,10 138,3313 139,360 140,20
141,30 142,120 143,10 170,140
171,20
##END=
