##TITLE=3-Ethoxy-3-hydroxyacrylic acid, tert-butyldimethylsilyl ether, tert-butyldimethylsilyl ester
##JCAMP-DX=4.24
##DATA TYPE=MASS SPECTRUM
##ORIGIN=NIST Mass Spectrometry Data Center
##OWNER=NIST Mass Spectrometry Data Center
Collection (C) 2014 copyright by the U.S. Secretary of Commerce
on behalf of the United States of America. All rights reserved.
##$NIST MASS SPEC NO=333870
##MOLFORM=C17 H36 O4 Si2
##MW=360
##$NIST SOURCE=MSDC
##XUNITS=M/Z
##YUNITS=RELATIVE INTENSITY
##XFACTOR=1
##YFACTOR=1
##FIRSTX=15
##LASTX=361
##FIRSTY=10
##MAXX=361
##MINX=15
##MAXY=9999
##MINY=10
##NPOINTS=187
##PEAK TABLE=(XY..XY)
15,10 26,10 27,90 28,20
29,430 30,10 31,40 38,10
39,130 40,30 41,530 42,60
43,240 44,50 45,721 46,50
47,250 48,10 49,10 50,10
51,10 52,10 53,30 54,20
55,120 56,130 57,811 58,390
59,1191 60,140 61,180 62,10
63,10 66,10 67,40 68,20
69,571 70,40 71,50 72,180
73,9999 74,941 75,2182 76,150
77,240 78,10 79,10 81,10
83,120 84,20 85,180 86,90
87,100 88,20 89,20 91,10
93,10 95,10 97,40 98,40
99,1091 100,150 101,260 102,50
103,550 104,60 105,60 106,10
107,10 109,10 111,10 112,10
113,80 114,40 115,601 116,150
117,340 118,50 119,200 120,20
121,20 125,10 127,20 128,10
129,70 130,20 131,410 132,90
133,2552 134,350 135,280 136,30
137,10 139,10 141,30 143,4814
144,540 145,310 146,170 147,7186
148,1221 149,1361 150,180 151,90
152,10 153,10 155,20 156,10
157,100 158,20 159,180 160,70
161,420 162,50 163,40 164,10
169,10 171,20 173,480 174,120
175,170 176,60 177,621 178,110
179,50 180,10 183,10 185,190
186,30 187,70 188,10 189,831
190,240 191,130 192,20 193,10
199,30 201,20 202,10 203,90
204,20 205,10 213,20 214,10
215,10 217,80 218,20 219,190
220,40 221,20 229,370 230,60
231,40 232,10 233,10 246,20
247,10 257,10 258,10 259,230
260,60 261,30 262,10 271,10
273,10 275,771 276,180 277,70
278,10 287,10 299,10 301,10
303,5115 304,1251 305,530 306,80
307,20 315,571 316,150 317,70
318,10 345,260 346,80 347,30
348,10 360,30 361,10
##END=
