##TITLE=2-Dodecen-1-ol, (E)-, TBDMS derivative
##JCAMP-DX=4.24
##DATA TYPE=MASS SPECTRUM
##ORIGIN=NIST Mass Spectrometry Data Center
##OWNER=NIST Mass Spectrometry Data Center
Collection (C) 2014 copyright by the U.S. Secretary of Commerce
on behalf of the United States of America. All rights reserved.
##$NIST MASS SPEC NO=333019
##MOLFORM=C18 H38 O Si
##MW=298
##$NIST SOURCE=MSDC
##XUNITS=M/Z
##YUNITS=RELATIVE INTENSITY
##XFACTOR=1
##YFACTOR=1
##FIRSTX=15
##LASTX=299
##FIRSTY=10
##MAXX=299
##MINX=15
##MAXY=9999
##MINY=10
##NPOINTS=162
##PEAK TABLE=(XY..XY)
15,10 26,10 27,210 28,60
29,611 30,10 31,10 39,330
40,60 41,1682 42,220 43,1401
44,60 45,320 46,20 47,350
48,20 49,10 50,10 51,20
52,20 53,200 54,380 55,831
56,170 57,961 58,170 59,641
60,120 61,310 62,20 63,20
64,10 65,70 66,40 67,571
68,90 69,350 70,50 71,140
73,2642 75,9999 76,1001 77,561
78,40 79,170 80,50 81,460
82,60 83,340 84,40 85,300
86,40 87,130 88,80 89,721
90,60 91,60 92,10 93,70
94,30 95,641 96,70 97,260
98,70 99,761 100,130 101,2472
102,260 103,130 104,10 105,10
106,10 107,30 108,10 109,571
110,60 111,230 112,50 113,901
114,140 115,1802 116,200 117,80
118,10 121,20 122,10 123,230
124,30 125,100 126,20 127,430
128,110 129,2903 130,350 131,130
132,10 133,10 135,10 137,50
138,10 139,60 140,10 141,300
142,60 143,2122 144,270 145,100
146,10 149,10 151,40 152,10
153,30 154,10 155,130 156,20
157,390 158,50 159,20 163,10
165,210 166,30 167,20 169,110
170,20 171,170 172,30 173,10
181,10 183,160 184,30 185,60
186,10 195,10 197,40 198,10
199,40 200,10 207,10 209,10
211,500 212,100 213,250 214,40
215,10 223,40 224,10 225,20
227,50 228,10 239,10 241,8708
242,2052 243,550 244,70 245,10
283,330 284,80 285,20 297,20
298,30 299,10
##END=
