##TITLE=6-Amino-1-hexanol, N,N-dimethyl-, methyl ether
##JCAMP-DX=4.24
##DATA TYPE=MASS SPECTRUM
##ORIGIN=NIST Mass Spectrometry Data Center
##OWNER=NIST Mass Spectrometry Data Center
Collection (C) 2014 copyright by the U.S. Secretary of Commerce
on behalf of the United States of America. All rights reserved.
##$NIST MASS SPEC NO=333818
##MOLFORM=C9 H21 N O
##MW=159
##$NIST SOURCE=MSDC
##XUNITS=M/Z
##YUNITS=RELATIVE INTENSITY
##XFACTOR=1
##YFACTOR=1
##FIRSTX=15
##LASTX=160
##FIRSTY=30
##MAXX=160
##MINX=15
##MAXY=9999
##MINY=10
##NPOINTS=56
##PEAK TABLE=(XY..XY)
15,30 18,10 26,10 27,60
28,50 29,150 30,130 31,10
38,10 39,90 40,20 41,220
42,460 43,150 44,210 45,561
46,150 47,10 51,10 52,10
53,40 54,20 55,140 56,120
57,120 58,9999 59,350 65,10
67,20 68,20 69,10 70,60
71,80 72,30 73,10 77,10
79,20 81,40 82,20 83,10
84,110 85,10 86,10 96,10
98,10 100,10 112,10 114,60
115,10 128,130 129,20 144,190
145,10 158,20 159,170 160,20
##END=
