##TITLE=1-Octanol, TBDMS derivative
##JCAMP-DX=4.24
##DATA TYPE=MASS SPECTRUM
##ORIGIN=NIST Mass Spectrometry Data Center
##OWNER=NIST Mass Spectrometry Data Center
Collection (C) 2014 copyright by the U.S. Secretary of Commerce
on behalf of the United States of America. All rights reserved.
##$NIST MASS SPEC NO=333007
##MOLFORM=C14 H32 O Si
##MW=244
##$NIST SOURCE=MSDC
##XUNITS=M/Z
##YUNITS=RELATIVE INTENSITY
##XFACTOR=1
##YFACTOR=1
##FIRSTX=15
##LASTX=245
##FIRSTY=10
##MAXX=245
##MINX=15
##MAXY=9999
##MINY=10
##NPOINTS=108
##PEAK TABLE=(XY..XY)
15,10 26,10 27,240 28,70
29,671 30,20 31,30 39,270
40,60 41,1351 42,170 43,971
44,60 45,450 46,30 47,390
48,20 49,10 50,10 51,10
52,10 53,90 54,50 55,991
56,170 57,751 58,340 59,941
60,150 61,510 62,30 63,20
65,10 66,10 67,140 69,3273
70,210 71,150 72,90 73,1982
75,7417 76,651 77,410 78,20
79,30 81,60 82,30 83,200
84,30 85,260 86,60 87,420
88,200 89,2332 90,210 91,90
93,10 95,30 96,10 97,100
98,20 99,470 100,90 101,1281
102,150 103,90 104,10 109,30
110,10 111,410 112,40 113,150
114,40 115,811 116,90 117,70
118,10 125,10 127,40 129,601
130,70 131,100 132,20 133,10
141,10 143,130 144,20 145,50
146,10 155,10 157,20 159,10
171,90 172,20 173,10 185,50
187,9999 188,2873 189,841 190,80
191,10 213,10 229,200 230,40
231,10 243,10 244,30 245,10
##END=
