##TITLE=Guaiacol, TBDMS derivative
##JCAMP-DX=4.24
##DATA TYPE=MASS SPECTRUM
##ORIGIN=NIST Mass Spectrometry Data Center
##OWNER=NIST Mass Spectrometry Data Center
Collection (C) 2014 copyright by the U.S. Secretary of Commerce
on behalf of the United States of America. All rights reserved.
##$NIST MASS SPEC NO=333460
##MOLFORM=C13 H22 O2 Si
##MW=238
##$NIST SOURCE=MSDC
##XUNITS=M/Z
##YUNITS=RELATIVE INTENSITY
##XFACTOR=1
##YFACTOR=1
##FIRSTX=15
##LASTX=238
##FIRSTY=30
##MAXX=238
##MINX=15
##MAXY=9999
##MINY=10
##NPOINTS=120
##PEAK TABLE=(XY..XY)
15,30 26,10 27,40 28,10
29,170 30,10 31,20 38,20
39,130 40,20 41,340 42,60
43,150 44,20 45,220 46,10
47,30 50,40 51,100 52,80
53,70 54,20 55,70 56,30
57,340 58,140 59,711 60,60
61,60 62,20 63,90 64,90
65,110 66,20 67,40 68,10
69,30 70,10 71,10 73,561
74,60 75,150 76,50 77,210
78,70 79,60 80,60 81,40
82,20 83,70 84,10 85,40
88,10 89,300 90,40 91,230
92,140 93,60 94,10 95,70
96,10 97,10 99,30 103,20
104,10 105,60 106,10 107,80
108,70 109,40 110,10 111,10
115,10 119,10 120,20 121,140
122,20 123,30 124,10 133,20
134,20 135,240 136,1772 137,390
138,90 139,10 147,40 148,40
149,170 151,3713 152,771 153,200
154,20 161,30 162,10 163,20
166,9999 167,2002 168,641 169,50
170,10 177,10 178,10 179,70
181,7146 182,1211 183,380 184,30
191,10 192,30 193,10 206,10
208,190 209,30 210,10 222,10
223,130 224,30 225,10 238,10
##END=
