##TITLE=(Trimethylsilyl)methyl palmitate
##JCAMP-DX=4.24
##DATA TYPE=MASS SPECTRUM
##ORIGIN=NIST Mass Spectrometry Data Center
##OWNER=NIST Mass Spectrometry Data Center
Collection (C) 2014 copyright by the U.S. Secretary of Commerce
on behalf of the United States of America. All rights reserved.
##$NIST MASS SPEC NO=333713
##MOLFORM=C20 H42 O2 Si
##MW=342
##$NIST SOURCE=MSDC
##XUNITS=M/Z
##YUNITS=RELATIVE INTENSITY
##XFACTOR=1
##YFACTOR=1
##FIRSTX=26
##LASTX=343
##FIRSTY=10
##MAXX=343
##MINX=26
##MAXY=9999
##MINY=10
##NPOINTS=192
##PEAK TABLE=(XY..XY)
26,10 27,100 28,40 29,360
30,10 31,40 39,140 41,1421
42,360 43,2362 44,200 45,430
46,30 47,40 51,10 53,110
54,160 55,3283 56,601 57,1882
58,370 59,1631 60,150 61,711
62,40 63,20 65,20 66,20
67,380 68,160 69,1461 70,310
71,741 72,300 73,4864 74,540
75,1081 76,80 77,70 78,10
79,120 80,40 81,430 82,110
83,811 84,350 85,480 86,120
87,500 88,200 89,661 90,60
91,70 92,10 93,90 94,20
95,571 96,90 97,661 98,430
99,140 100,30 101,180 102,40
103,1301 104,490 105,971 106,100
107,130 108,20 109,310 110,50
111,280 112,130 113,60 114,30
115,120 116,530 117,210 118,40
119,10 121,100 122,20 123,170
124,30 125,100 126,30 127,20
129,510 130,761 131,2102 132,260
133,100 134,10 135,60 136,10
137,80 138,20 139,40 140,10
141,20 143,1611 144,240 146,5295
147,711 148,240 149,40 151,30
152,10 153,10 154,10 155,20
156,10 157,150 159,9999 160,1621
161,450 162,50 163,10 165,20
167,10 169,10 170,10 171,60
173,931 174,140 175,40 176,10
179,10 181,10 182,10 183,10
185,80 186,10 187,40 188,30
189,10 195,20 196,10 199,90
200,10 201,160 202,40 203,10
209,10 213,60 214,10 215,250
216,50 217,10 221,20 227,70
228,10 229,70 230,20 237,10
238,20 239,731 240,130 241,70
242,10 243,60 244,10 255,40
256,10 257,60 258,10 269,30
270,10 271,40 272,10 283,30
284,10 285,60 286,20 297,30
298,10 299,130 300,30 301,10
311,170 312,50 313,60 314,10
325,50 327,3793 328,1001 329,280
330,40 341,10 342,20 343,10
##END=
