##TITLE=Alprenolol, 2TMS derivative
##JCAMP-DX=4.24
##DATA TYPE=MASS SPECTRUM
##ORIGIN=NIST Mass Spectrometry Data Center
##OWNER=NIST Mass Spectrometry Data Center
Collection (C) 2014 copyright by the U.S. Secretary of Commerce
on behalf of the United States of America. All rights reserved.
##$NIST MASS SPEC NO=333827
##MOLFORM=C21 H39 N O2 Si2
##MW=393
##$NIST SOURCE=MSDC
##XUNITS=M/Z
##YUNITS=RELATIVE INTENSITY
##XFACTOR=1
##YFACTOR=1
##FIRSTX=27
##LASTX=394
##FIRSTY=40
##MAXX=394
##MINX=27
##MAXY=9999
##MINY=10
##NPOINTS=206
##PEAK TABLE=(XY..XY)
27,40 28,10 29,10 30,10
31,10 38,10 39,60 40,10
41,190 42,70 43,320 44,80
45,450 46,30 47,50 50,10
51,50 52,20 53,20 54,20
55,70 56,400 57,70 58,70
59,681 60,60 61,50 62,10
63,30 64,10 65,50 66,10
67,10 68,10 69,10 70,250
71,60 72,250 73,6015 74,581
75,480 76,40 77,170 78,80
79,110 80,10 81,10 82,40
83,10 84,30 85,50 86,230
87,100 88,40 89,70 90,40
91,300 92,20 93,10 94,10
95,10 96,20 97,10 98,200
99,40 100,160 101,901 102,651
103,250 104,60 105,170 106,20
107,80 108,10 109,10 110,10
111,10 112,20 113,10 114,160
115,420 116,310 117,130 118,70
119,100 120,10 121,10 123,10
124,10 125,10 126,10 127,20
128,250 129,100 130,90 131,350
132,100 133,270 134,60 135,80
136,10 137,20 138,10 140,10
141,20 142,80 144,9999 145,3413
146,1081 147,681 148,110 149,130
150,20 151,80 152,10 153,10
154,10 155,10 156,100 157,20
158,20 159,50 160,10 161,60
162,10 163,100 164,20 165,10
170,30 171,20 172,80 173,50
174,30 175,160 176,30 177,20
178,10 179,20 181,10 186,20
187,10 188,20 189,20 190,20
191,130 192,30 193,10 195,10
200,10 201,10 202,20 203,20
204,10 205,20 206,210 207,40
208,10 209,10 210,10 216,10
217,10 218,80 219,20 220,10
221,10 229,10 230,20 231,10
232,10 233,10 237,10 244,20
245,10 246,20 247,10 248,10
249,10 258,10 259,10 260,10
262,50 263,10 264,10 265,10
276,10 277,40 278,10 279,10
288,10 290,30 291,10 304,10
305,10 306,10 321,10 336,10
337,10 350,10 351,10 378,380
379,130 380,50 381,10 392,10
393,20 394,10
##END=
