##TITLE=9-Decenoic acid, 4,4-dimethyloxazoline (dmox) derivative
##JCAMP-DX=4.24
##DATA TYPE=MASS SPECTRUM
##ORIGIN=NIST Mass Spectrometry Data Center
##OWNER=NIST Mass Spectrometry Data Center
Collection (C) 2014 copyright by the U.S. Secretary of Commerce
on behalf of the United States of America. All rights reserved.
##$NIST MASS SPEC NO=333578
##MOLFORM=C14 H25 N O
##MW=223
##$NIST SOURCE=MSDC
##XUNITS=M/Z
##YUNITS=RELATIVE INTENSITY
##XFACTOR=1
##YFACTOR=1
##FIRSTX=15
##LASTX=225
##FIRSTY=10
##MAXX=225
##MINX=15
##MAXY=9999
##MINY=10
##NPOINTS=120
##PEAK TABLE=(XY..XY)
15,10 26,20 27,200 28,100
29,350 30,40 31,10 38,20
39,611 40,140 41,1722 42,681
43,330 44,130 45,20 50,10
51,40 52,40 53,300 54,550
55,1842 56,400 57,420 58,671
59,30 63,10 65,70 66,60
67,460 68,661 69,631 70,290
71,170 72,601 73,130 74,10
77,60 78,10 79,170 80,90
81,370 82,641 83,571 84,360
85,60 86,60 91,60 92,10
93,140 94,150 95,430 96,701
97,410 98,1822 99,130 100,50
105,20 106,10 107,90 108,110
109,130 110,721 111,120 113,9999
114,1011 115,60 119,10 120,10
121,40 122,100 123,40 124,250
126,5205 127,1151 128,100 129,10
133,10 134,10 135,30 136,100
137,30 138,130 139,40 140,991
141,110 142,10 148,10 149,10
150,60 151,20 152,430 153,70
154,290 155,40 164,30 165,10
166,240 167,40 168,520 169,70
170,10 178,150 179,20 180,571
181,90 182,1101 183,140 184,10
190,10 192,20 194,110 195,20
196,10 208,1431 209,210 210,10
222,100 223,120 224,70 225,10
##END=
