##TITLE=cis-7,10,13,16-Docosatetraenoic acid, methyl ester
##JCAMP-DX=4.24
##DATA TYPE=MASS SPECTRUM
##ORIGIN=NIST Mass Spectrometry Data Center
##OWNER=NIST Mass Spectrometry Data Center
Collection (C) 2014 copyright by the U.S. Secretary of Commerce
on behalf of the United States of America. All rights reserved.
##$NIST MASS SPEC NO=333548
##MOLFORM=C23 H38 O2
##MW=346
##$NIST SOURCE=MSDC
##XUNITS=M/Z
##YUNITS=RELATIVE INTENSITY
##XFACTOR=1
##YFACTOR=1
##FIRSTX=15
##LASTX=348
##FIRSTY=50
##MAXX=348
##MINX=15
##MAXY=9999
##MINY=10
##NPOINTS=253
##PEAK TABLE=(XY..XY)
15,50 26,10 27,290 28,70
29,741 30,20 31,20 33,10
39,721 40,60 41,3493 42,350
43,1261 44,50 45,140 50,30
51,160 52,130 53,1001 54,991
55,4364 56,350 57,661 58,40
59,1381 60,50 61,50 62,10
63,50 64,10 65,1081 66,1321
67,6866 68,901 69,1702 70,180
71,450 72,40 73,380 74,851
75,80 77,3073 78,1992 79,9999
80,7497 81,4344 82,821 83,911
84,290 85,571 87,1491 88,140
89,50 91,6966 92,2182 93,5905
94,3303 95,2803 96,901 97,601
98,240 99,180 100,30 101,290
102,70 103,350 104,410 105,3904
106,1712 107,2722 108,1061 109,991
110,320 111,240 112,50 113,80
114,30 115,510 116,200 117,1201
118,350 119,3463 120,1241 121,2362
122,641 123,490 124,230 125,120
126,20 127,140 128,150 129,370
130,160 131,841 132,300 133,1832
134,1051 135,1361 136,651 137,360
138,80 139,60 140,70 141,140
142,40 143,260 144,100 145,581
146,150 147,1041 148,490 149,591
150,2823 151,480 152,90 153,70
154,50 155,50 156,20 157,170
158,100 159,360 160,100 161,831
162,270 163,500 164,901 165,160
166,40 167,30 168,40 169,90
170,20 171,140 172,50 173,160
174,90 175,530 176,470 177,681
178,160 179,70 180,30 181,10
182,10 183,90 184,20 185,230
186,40 187,170 188,80 189,390
190,310 191,120 192,30 193,40
194,40 195,30 196,10 197,40
198,10 199,30 200,10 201,120
202,50 203,761 204,180 205,60
206,20 207,40 208,771 209,140
210,20 211,80 212,10 213,10
215,90 216,30 217,360 218,120
219,60 220,30 221,80 222,170
223,40 224,10 225,40 226,10
227,10 229,80 230,20 231,120
232,30 233,50 234,70 235,430
236,100 237,10 238,10 239,10
241,10 243,60 244,20 245,40
246,10 247,70 248,290 249,90
250,10 251,10 252,10 255,10
257,30 258,10 259,10 260,10
261,130 262,50 263,20 264,10
265,10 266,90 267,20 271,10
272,10 273,10 275,170 276,60
277,20 278,50 279,20 280,10
285,10 286,10 289,90 290,30
291,10 292,80 293,20 297,40
298,10 303,40 304,10 305,30
306,10 314,10 315,90 316,20
317,30 318,20 346,190 347,50
348,10
##END=
