##TITLE=13-Eicosenoic acid, (Z)-, TMS derivative
##JCAMP-DX=4.24
##DATA TYPE=MASS SPECTRUM
##ORIGIN=NIST Mass Spectrometry Data Center
##OWNER=NIST Mass Spectrometry Data Center
Collection (C) 2014 copyright by the U.S. Secretary of Commerce
on behalf of the United States of America. All rights reserved.
##$NIST MASS SPEC NO=333526
##MOLFORM=C23 H46 O2 Si
##MW=382
##$NIST SOURCE=MSDC
##XUNITS=M/Z
##YUNITS=RELATIVE INTENSITY
##XFACTOR=1
##YFACTOR=1
##FIRSTX=26
##LASTX=385
##FIRSTY=10
##MAXX=385
##MINX=26
##MAXY=9999
##MINY=10
##NPOINTS=292
##PEAK TABLE=(XY..XY)
26,10 27,170 28,40 29,470
30,10 31,10 39,330 41,2502
42,661 43,2092 44,140 45,490
46,40 47,220 48,10 49,10
50,10 51,20 52,20 53,350
54,1001 55,5395 56,1161 57,961
58,180 59,210 60,80 61,430
62,30 63,20 65,110 66,110
67,1902 68,861 69,2903 70,641
71,330 72,380 73,8568 74,951
75,7627 76,571 77,450 78,50
79,500 80,260 81,1912 82,1261
83,1922 84,1231 85,320 86,100
87,80 88,60 89,310 90,40
91,200 92,50 93,360 94,250
95,1812 96,2112 97,1621 98,1221
99,340 100,40 101,120 102,20
103,50 104,10 105,220 106,70
107,280 108,190 109,1071 110,971
111,741 112,330 113,110 114,30
115,80 116,821 117,6506 118,681
119,420 120,80 121,370 122,150
123,741 124,490 125,300 126,90
127,60 129,7096 130,921 131,1311
132,2212 133,941 134,280 135,310
136,100 137,450 138,360 139,160
140,50 141,60 142,50 143,450
144,80 145,3403 146,450 147,280
148,120 149,170 150,60 151,300
152,350 153,110 154,30 155,170
156,70 157,190 158,70 159,270
160,50 161,100 162,50 163,70
164,30 165,190 166,190 167,70
168,40 169,100 170,70 171,490
172,150 173,180 174,70 175,80
176,30 177,40 178,30 179,120
180,130 181,60 182,20 183,150
184,40 185,961 186,220 187,250
188,130 189,60 190,20 191,20
192,40 193,90 194,180 195,60
196,20 197,100 198,30 199,821
200,160 201,320 202,60 203,40
204,10 205,20 206,20 207,110
208,520 209,110 210,30 211,100
212,20 213,210 214,50 215,80
216,20 217,20 218,10 219,20
220,10 221,170 222,110 223,30
224,10 225,40 226,10 227,240
228,50 229,80 230,20 231,20
232,10 233,10 234,10 235,190
236,100 237,40 238,10 239,30
240,10 241,230 242,50 243,90
244,30 245,20 246,10 248,130
249,270 250,851 251,180 252,20
253,40 254,10 255,180 256,40
257,90 258,20 259,10 263,190
264,190 265,40 267,60 268,20
269,180 270,40 271,70 272,20
273,10 274,70 275,20 277,30
278,10 281,70 282,20 283,180
284,50 285,150 286,70 287,20
291,20 292,1301 293,320 294,40
295,90 296,20 297,140 298,40
299,100 300,100 301,30 302,10
309,80 310,20 311,70 312,20
313,30 314,60 315,20 323,240
324,70 325,60 326,10 327,50
328,10 337,80 338,30 339,150
340,40 341,30 342,10 349,10
351,70 352,20 353,40 354,10
364,10 365,30 367,9999 368,3013
369,811 370,140 371,20 381,20
382,1001 383,360 384,100 385,20
##END=
