##TITLE=Trimethylsilyl (2Z)-4-methyl-2-[(trimethylsilyl)oxy]pent-2-enoate
##JCAMP-DX=4.24
##DATA TYPE=MASS SPECTRUM
##ORIGIN=NIST Mass Spectrometry Data Center
##OWNER=NIST Mass Spectrometry Data Center
Collection (C) 2014 copyright by the U.S. Secretary of Commerce
on behalf of the United States of America. All rights reserved.
##$NIST MASS SPEC NO=333852
##MOLFORM=C12 H26 O3 Si2
##MW=274
##$NIST SOURCE=MSDC
##XUNITS=M/Z
##YUNITS=RELATIVE INTENSITY
##XFACTOR=1
##YFACTOR=1
##FIRSTX=15
##LASTX=277
##FIRSTY=10
##MAXX=277
##MINX=15
##MAXY=9999
##MINY=10
##NPOINTS=149
##PEAK TABLE=(XY..XY)
15,10 27,30 28,10 29,60
31,10 39,60 40,10 41,170
42,30 43,250 44,140 45,991
46,70 47,130 48,10 51,20
52,30 53,90 54,20 55,170
56,30 57,70 58,140 59,300
60,40 61,100 62,10 63,10
65,20 66,90 67,120 68,30
69,861 70,70 71,50 72,180
73,4974 74,450 75,1001 76,70
77,60 78,10 79,20 81,20
82,50 83,170 84,60 85,50
86,20 87,40 88,10 89,20
91,10 93,10 94,20 95,40
96,10 97,30 98,10 99,130
100,20 101,60 102,30 103,60
104,10 105,40 107,10 108,10
109,20 111,30 112,20 113,190
114,30 115,80 116,30 117,130
118,20 119,60 120,10 125,40
126,10 127,190 128,40 129,30
131,340 132,50 133,721 134,100
135,60 136,10 141,741 142,100
143,130 144,20 145,30 147,9999
148,1682 149,1031 150,110 151,30
155,30 156,841 157,490 158,90
159,40 160,10 161,10 163,20
169,170 170,20 171,100 172,20
173,40 174,10 175,50 176,10
183,10 184,10 185,10 186,20
187,70 188,20 189,10 190,210
191,40 192,20 199,10 201,90
202,20 203,10 215,791 216,160
217,70 218,10 229,10 230,40
231,200 232,40 233,20 243,10
258,30 259,1411 260,320 261,140
262,20 274,350 275,90 276,40
277,10
##END=
