##TITLE=D-(-)-Citramalic acid, 3TMS derivative
##JCAMP-DX=4.24
##DATA TYPE=MASS SPECTRUM
##ORIGIN=NIST Mass Spectrometry Data Center
##OWNER=NIST Mass Spectrometry Data Center
Collection (C) 2014 copyright by the U.S. Secretary of Commerce
on behalf of the United States of America. All rights reserved.
##$NIST MASS SPEC NO=333866
##MOLFORM=C14 H32 O5 Si3
##MW=364
##$NIST SOURCE=MSDC
##XUNITS=M/Z
##YUNITS=RELATIVE INTENSITY
##XFACTOR=1
##YFACTOR=1
##FIRSTX=15
##LASTX=353
##FIRSTY=10
##MAXX=353
##MINX=15
##MAXY=9999
##MINY=10
##NPOINTS=187
##PEAK TABLE=(XY..XY)
15,10 27,10 28,20 29,50
31,20 39,50 40,20 41,340
42,50 43,931 44,290 45,1481
46,110 47,300 48,10 49,10
52,20 53,20 54,10 55,90
56,20 57,100 58,200 59,330
60,70 61,200 62,10 63,10
65,10 66,90 67,70 68,30
69,811 70,90 71,80 72,500
73,9999 74,1221 75,2452 76,170
77,100 82,10 83,20 85,390
86,20 87,50 88,20 89,50
91,10 95,10 96,10 97,30
98,20 99,120 100,20 101,90
102,30 103,90 104,20 105,50
106,10 107,10 111,10 112,10
113,50 115,2222 116,300 117,571
118,60 119,130 120,10 121,10
125,10 127,20 128,10 129,240
130,80 131,571 132,110 133,1331
134,190 135,160 136,20 137,10
141,30 142,20 143,410 144,50
145,250 147,7867 148,1461 149,1581
150,200 151,120 152,10 153,10
155,10 156,20 157,340 158,50
159,60 160,10 161,40 163,631
164,110 165,50 166,10 169,20
170,10 171,20 173,40 174,10
175,50 176,10 177,20 185,520
186,70 187,50 189,701 190,300
191,230 192,50 193,20 199,10
201,10 203,1161 204,270 205,290
206,50 207,80 208,20 209,10
215,110 216,30 217,721 218,150
219,110 220,20 221,490 222,110
223,60 224,10 229,10 231,1171
232,250 233,1141 234,230 235,100
236,10 237,20 245,20 247,8738
248,2292 249,991 250,140 251,30
259,2042 260,450 261,270 262,40
263,10 273,10 277,150 278,40
279,70 280,20 281,10 305,350
306,100 307,110 308,30 309,10
319,10 321,1181 322,340 323,170
324,30 325,10 333,40 334,10
335,10 347,10 349,1461 350,450
351,220 352,50 353,10
##END=
