##TITLE=2-Propylphenol, TMS derivative
##JCAMP-DX=4.24
##DATA TYPE=MASS SPECTRUM
##ORIGIN=NIST Mass Spectrometry Data Center
##OWNER=NIST Mass Spectrometry Data Center
Collection (C) 2014 copyright by the U.S. Secretary of Commerce
on behalf of the United States of America. All rights reserved.
##$NIST MASS SPEC NO=333487
##MOLFORM=C12 H20 O Si
##MW=208
##$NIST SOURCE=MSDC
##XUNITS=M/Z
##YUNITS=RELATIVE INTENSITY
##XFACTOR=1
##YFACTOR=1
##FIRSTX=15
##LASTX=211
##FIRSTY=20
##MAXX=211
##MINX=15
##MAXY=9999
##MINY=10
##NPOINTS=135
##PEAK TABLE=(XY..XY)
15,20 26,20 27,270 28,40
29,490 30,20 31,50 38,20
39,250 40,30 41,190 42,50
43,470 44,160 45,1161 46,80
47,140 48,10 50,70 51,280
52,100 53,140 54,20 55,120
56,20 57,90 58,100 59,781
60,80 61,140 62,50 63,220
64,60 65,350 66,60 67,120
68,60 69,60 70,30 71,50
73,3573 74,430 75,1191 76,150
77,801 78,330 79,290 80,30
81,90 82,190 83,80 85,70
86,10 87,40 89,470 90,240
91,1641 92,160 93,60 94,20
95,150 97,40 98,10 99,10
101,30 102,110 103,350 104,120
105,811 106,100 107,330 108,30
109,70 110,10 111,10 113,10
115,571 116,120 117,180 118,40
119,130 120,70 121,300 122,40
123,100 124,10 125,10 127,10
128,20 129,20 130,10 131,130
132,20 133,310 134,140 135,1672
136,220 137,350 138,40 139,10
143,10 145,80 146,20 147,480
148,220 149,2472 150,370 151,1772
152,240 153,70 154,10 159,10
161,791 163,7297 164,1461 165,1001
166,150 167,40 175,160 177,1311
179,9999 180,1902 181,540 182,50
189,30 191,721 192,140 193,1902
194,330 195,90 196,10 208,6366
209,1241 210,340 211,40
##END=
