##TITLE=3-Hydroxyisovaleric acid, 2TBDMS derivative
##JCAMP-DX=4.24
##DATA TYPE=MASS SPECTRUM
##ORIGIN=NIST Mass Spectrometry Data Center
##OWNER=NIST Mass Spectrometry Data Center
Collection (C) 2014 copyright by the U.S. Secretary of Commerce
on behalf of the United States of America. All rights reserved.
##$NIST MASS SPEC NO=333128
##MOLFORM=C17 H38 O3 Si2
##MW=346
##$NIST SOURCE=MSDC
##XUNITS=M/Z
##YUNITS=RELATIVE INTENSITY
##XFACTOR=1
##YFACTOR=1
##FIRSTX=15
##LASTX=333
##FIRSTY=10
##MAXX=333
##MINX=15
##MAXY=9999
##MINY=10
##NPOINTS=141
##PEAK TABLE=(XY..XY)
15,10 27,40 28,20 29,210
30,10 31,30 38,10 39,110
40,40 41,520 42,50 43,220
44,40 45,430 46,30 47,300
48,20 49,10 51,10 52,10
53,50 54,20 55,380 56,360
57,550 58,320 59,731 60,120
61,230 62,20 63,10 66,70
67,20 68,10 69,260 70,30
71,30 72,120 73,5565 74,520
75,2562 76,190 77,130 79,10
80,10 81,20 82,20 83,280
84,20 85,160 86,30 87,70
88,20 89,20 95,1001 97,40
98,10 99,210 100,70 101,190
102,30 103,50 104,10 105,30
108,10 111,10 113,160 115,1451
116,320 117,581 118,70 119,130
120,10 121,10 127,10 129,10
130,20 131,250 132,80 133,1161
134,180 135,110 136,10 137,10
141,10 143,160 144,20 145,20
147,7677 148,1191 149,961 150,100
151,50 156,10 157,210 158,40
159,100 160,10 161,10 169,10
171,10 173,9999 174,1481 175,500
176,50 177,20 185,10 187,10
189,1141 190,220 191,110 192,10
199,20 215,20 216,10 217,100
218,10 219,10 231,50 232,10
233,60 234,10 235,10 247,350
248,60 249,40 250,10 259,30
260,10 273,90 274,20 275,10
287,10 288,10 289,1091 290,280
291,120 292,20 331,260 332,70
333,20
##END=
