##TITLE=2-Buten-1-ol, (E)-, TBDMS derivative
##JCAMP-DX=4.24
##DATA TYPE=MASS SPECTRUM
##ORIGIN=NIST Mass Spectrometry Data Center
##OWNER=NIST Mass Spectrometry Data Center
Collection (C) 2014 copyright by the U.S. Secretary of Commerce
on behalf of the United States of America. All rights reserved.
##$NIST MASS SPEC NO=333021
##MOLFORM=C10 H22 O Si
##MW=186
##$NIST SOURCE=MSDC
##XUNITS=M/Z
##YUNITS=RELATIVE INTENSITY
##XFACTOR=1
##YFACTOR=1
##FIRSTX=15
##LASTX=188
##FIRSTY=10
##MAXX=188
##MINX=15
##MAXY=9999
##MINY=10
##NPOINTS=89
##PEAK TABLE=(XY..XY)
15,10 26,10 27,200 28,60
29,410 30,10 31,40 38,20
39,380 40,50 41,540 42,80
43,290 44,50 45,761 46,60
47,641 48,30 49,20 50,20
51,40 52,20 53,190 54,70
55,701 56,90 57,470 58,270
59,771 60,220 61,340 62,30
63,10 64,10 65,10 66,10
67,30 68,10 69,60 70,20
71,60 72,30 73,1321 74,50
75,9999 76,1021 77,520 78,20
81,10 83,50 84,10 85,310
86,40 87,70 88,40 89,90
90,10 95,20 96,10 97,70
98,20 99,761 100,100 101,781
102,80 103,30 109,10 111,110
112,20 113,370 114,50 115,420
116,40 117,20 125,10 127,40
129,9579 130,1561 131,520 132,30
141,20 143,10 171,160 172,20
173,10 185,20 186,160 187,30
188,10
##END=
