##TITLE=D-(-)-Lactic acid, 2TBDMS derivative
##JCAMP-DX=4.24
##DATA TYPE=MASS SPECTRUM
##ORIGIN=NIST Mass Spectrometry Data Center
##OWNER=NIST Mass Spectrometry Data Center
Collection (C) 2014 copyright by the U.S. Secretary of Commerce
on behalf of the United States of America. All rights reserved.
##$NIST MASS SPEC NO=333990
##MOLFORM=C15 H34 O3 Si2
##MW=318
##$NIST SOURCE=MSDC
##XUNITS=M/Z
##YUNITS=RELATIVE INTENSITY
##XFACTOR=1
##YFACTOR=1
##FIRSTX=15
##LASTX=317
##FIRSTY=10
##MAXX=317
##MINX=15
##MAXY=9999
##MINY=10
##NPOINTS=141
##PEAK TABLE=(XY..XY)
15,10 26,10 27,100 28,90
29,470 30,10 31,60 39,200
41,1001 42,90 43,490 44,100
45,781 46,60 47,300 48,20
49,10 51,20 52,50 53,50
55,380 56,370 57,1631 58,681
59,1321 60,180 61,260 62,20
63,10 66,330 67,40 68,10
69,50 70,40 71,100 73,7517
74,841 75,1932 76,140 77,80
78,10 81,10 83,60 84,20
85,240 86,140 87,300 88,310
89,70 94,20 95,10 97,40
98,10 99,180 100,90 101,270
102,270 103,721 104,90 105,90
106,10 107,10 111,10 113,40
115,1181 116,190 117,1001 118,160
119,310 120,40 121,20 127,10
129,160 130,130 131,440 132,90
133,3633 134,530 135,330 136,30
137,10 143,70 144,10 145,50
147,9999 148,2392 149,1822 150,220
151,100 152,10 157,50 159,1742
160,270 161,130 162,20 163,10
171,10 172,10 173,70 174,20
175,110 176,40 177,70 178,10
185,10 187,10 189,6596 190,1361
191,621 192,80 193,20 203,120
204,60 205,300 206,60 207,30
215,20 217,20 231,480 233,5605
234,1261 235,530 236,80 237,10
245,170 246,40 247,110 248,20
249,10 261,8908 262,2482 263,1061
264,160 265,30 275,100 276,20
277,10 303,240 304,60 305,30
317,10
##END=
