##TITLE=6-Amino-1-hexanol, 2TBDMS derivative
##JCAMP-DX=4.24
##DATA TYPE=MASS SPECTRUM
##ORIGIN=NIST Mass Spectrometry Data Center
##OWNER=NIST Mass Spectrometry Data Center
Collection (C) 2014 copyright by the U.S. Secretary of Commerce
on behalf of the United States of America. All rights reserved.
##$NIST MASS SPEC NO=333067
##MOLFORM=C18 H43 N O Si2
##MW=345
##$NIST SOURCE=MSDC
##XUNITS=M/Z
##YUNITS=RELATIVE INTENSITY
##XFACTOR=1
##YFACTOR=1
##FIRSTX=27
##LASTX=347
##FIRSTY=20
##MAXX=347
##MINX=27
##MAXY=9999
##MINY=10
##NPOINTS=154
##PEAK TABLE=(XY..XY)
27,20 28,10 29,100 30,40
31,20 39,50 40,10 41,280
42,40 43,110 44,80 45,190
46,30 47,100 48,10 53,20
54,10 55,340 56,170 57,270
58,240 59,1451 60,170 61,170
62,10 66,10 67,30 68,10
69,40 70,40 71,50 72,140
73,3683 74,621 75,1091 76,100
77,40 79,30 81,100 82,20
83,110 84,40 85,200 86,330
87,200 88,470 89,160 90,40
91,10 95,10 96,60 97,60
98,2672 99,520 100,260 101,270
102,90 103,60 104,30 105,20
109,10 110,10 111,30 112,70
113,70 114,240 115,1091 117,190
118,70 119,140 120,20 121,10
124,10 125,10 126,30 127,40
128,120 129,100 130,130 131,290
132,350 133,1081 134,210 135,90
136,10 137,10 138,10 140,60
141,20 142,50 143,30 144,891
145,140 147,9999 148,1742 149,851
150,90 151,20 154,50 155,10
156,330 157,80 158,530 159,100
160,80 161,10 162,30 170,60
171,20 172,370 173,100 174,50
175,20 176,10 186,10 187,10
188,40 189,180 190,40 191,10
198,20 200,20 201,10 202,10
212,20 214,40 215,10 216,20
218,641 219,130 220,60 221,10
230,40 231,10 232,30 233,10
244,10 260,10 272,30 273,10
286,20 288,4284 289,1141 290,440
291,70 292,10 330,320 331,100
332,40 333,10 344,30 345,50
346,20 347,10
##END=
