##TITLE=3-Indoleacrylic acid, methyl ester
##JCAMP-DX=4.24
##DATA TYPE=MASS SPECTRUM
##ORIGIN=NIST Mass Spectrometry Data Center
##OWNER=NIST Mass Spectrometry Data Center
Collection (C) 2014 copyright by the U.S. Secretary of Commerce
on behalf of the United States of America. All rights reserved.
##$NIST MASS SPEC NO=333120
##MOLFORM=C12 H11 N O2
##MW=201
##$NIST SOURCE=MSDC
##XUNITS=M/Z
##YUNITS=RELATIVE INTENSITY
##XFACTOR=1
##YFACTOR=1
##FIRSTX=15
##LASTX=204
##FIRSTY=110
##MAXX=204
##MINX=15
##MAXY=9999
##MINY=10
##NPOINTS=112
##PEAK TABLE=(XY..XY)
15,110 26,20 27,40 28,100
29,80 30,20 31,40 37,30
38,100 39,340 40,30 41,30
42,10 43,10 44,10 45,10
49,20 50,210 51,300 52,130
53,40 54,10 55,30 57,641
59,80 60,10 61,80 62,420
63,811 64,200 65,230 66,20
69,40 70,1441 73,20 74,200
75,230 76,130 77,150 78,40
79,20 85,591 86,240 87,400
88,581 89,831 90,190 91,50
92,10 98,30 99,30 100,200
102,160 103,100 104,40 105,10
109,10 110,40 111,40 112,30
113,871 114,1321 115,5175 116,801
117,240 118,80 119,10 126,10
127,40 128,130 129,220 130,490
131,60 132,80 133,10 138,10
139,30 140,1001 141,1481 142,1001
143,2082 144,320 145,50 146,10
147,90 148,10 152,10 153,10
154,70 155,40 156,150 157,120
158,190 159,50 160,100 161,10
167,10 168,60 170,9999 171,1261
172,220 173,30 182,10 183,20
184,20 185,120 186,120 187,10
201,7196 202,981 203,90 204,10
##END=
