##TITLE=Indol-5-ol, TMS derivative
##JCAMP-DX=4.24
##DATA TYPE=MASS SPECTRUM
##ORIGIN=NIST Mass Spectrometry Data Center
##OWNER=NIST Mass Spectrometry Data Center
Collection (C) 2014 copyright by the U.S. Secretary of Commerce
on behalf of the United States of America. All rights reserved.
##$NIST MASS SPEC NO=333385
##MOLFORM=C11 H15 N O Si
##MW=205
##$NIST SOURCE=MSDC
##XUNITS=M/Z
##YUNITS=RELATIVE INTENSITY
##XFACTOR=1
##YFACTOR=1
##FIRSTX=15
##LASTX=208
##FIRSTY=20
##MAXX=208
##MINX=15
##MAXY=9999
##MINY=10
##NPOINTS=146
##PEAK TABLE=(XY..XY)
15,20 26,10 27,40 28,80
29,80 30,10 31,20 37,10
38,30 39,140 40,10 41,30
42,50 43,480 44,160 45,931
46,60 47,140 48,10 49,10
50,190 51,410 52,170 53,170
54,50 55,90 56,20 57,70
58,210 59,130 60,40 61,80
62,180 63,450 64,90 65,100
66,60 67,90 68,20 69,40
70,30 71,30 72,40 73,1852
74,250 75,540 76,310 77,821
78,290 79,70 80,230 83,70
84,30 85,30 86,60 87,130
88,200 89,1171 90,260 91,120
92,30 93,60 95,971 97,10
98,10 99,10 100,10 101,60
102,220 103,520 104,1131 105,230
106,60 107,60 108,20 109,40
110,30 111,10 114,130 115,420
116,1331 117,400 118,140 119,130
120,110 121,50 122,20 123,10
127,20 128,230 129,160 130,2312
131,410 132,741 133,190 134,1852
135,500 136,140 137,50 138,10
141,10 142,20 143,50 144,130
145,70 146,220 147,520 148,150
149,70 150,20 151,10 156,20
157,10 158,30 159,110 160,270
161,210 162,3083 163,1501 164,280
165,60 170,100 171,30 172,130
173,60 174,621 175,100 176,70
177,40 178,10 184,10 186,50
187,30 188,230 190,9999 191,1651
192,470 193,50 200,10 202,60
203,50 204,300 205,9118 206,1611
207,450 208,40
##END=
