##TITLE=(R)-(+)-Citronellic acid, TMS derivative
##JCAMP-DX=4.24
##DATA TYPE=MASS SPECTRUM
##ORIGIN=NIST Mass Spectrometry Data Center
##OWNER=NIST Mass Spectrometry Data Center
Collection (C) 2014 copyright by the U.S. Secretary of Commerce
on behalf of the United States of America. All rights reserved.
##$NIST MASS SPEC NO=333593
##MOLFORM=C13 H26 O2 Si
##MW=242
##$NIST SOURCE=MSDC
##XUNITS=M/Z
##YUNITS=RELATIVE INTENSITY
##XFACTOR=1
##YFACTOR=1
##FIRSTX=15
##LASTX=244
##FIRSTY=10
##MAXX=244
##MINX=15
##MAXY=9999
##MINY=10
##NPOINTS=163
##PEAK TABLE=(XY..XY)
15,10 26,10 27,230 28,50
29,280 30,10 31,20 39,741
40,190 41,3643 42,460 43,811
44,200 45,1211 46,90 47,721
48,40 49,30 50,30 51,110
52,60 53,761 54,190 55,1762
56,340 57,170 58,260 59,581
60,170 61,681 62,50 63,50
64,10 65,190 66,80 67,1461
68,550 69,4924 70,1211 71,150
72,961 73,9509 74,1091 75,7577
76,561 77,530 78,60 79,410
80,160 81,1111 82,2772 83,540
84,70 85,150 86,20 87,50
88,240 89,170 90,70 91,310
92,120 93,951 94,3243 95,2592
96,691 97,270 98,60 99,380
100,60 101,490 102,60 103,130
104,10 105,180 106,70 107,611
108,320 109,4334 110,4974 111,550
112,50 113,180 114,30 115,370
116,1812 117,9999 118,1041 119,891
120,70 121,170 122,30 123,420
124,280 125,70 126,20 127,90
128,150 129,1351 130,180 131,130
132,631 133,220 134,290 135,430
136,50 137,671 138,70 139,20
141,60 142,140 143,2452 144,380
145,1231 146,160 147,70 148,10
149,10 152,4924 153,591 154,40
155,110 156,120 157,150 158,30
159,641 160,140 161,30 165,30
166,10 167,30 169,2983 170,470
171,400 172,110 173,290 174,40
175,10 181,10 183,100 184,40
185,130 186,100 187,110 188,20
189,10 197,10 198,20 199,210
200,40 201,10 209,310 210,60
211,70 212,10 213,10 225,10
227,1902 228,350 229,100 230,10
242,450 243,110 244,30
##END=
