##TITLE=2,3-Dimethylphenol, TBDMS derivative
##JCAMP-DX=4.24
##DATA TYPE=MASS SPECTRUM
##ORIGIN=NIST Mass Spectrometry Data Center
##OWNER=NIST Mass Spectrometry Data Center
Collection (C) 2014 copyright by the U.S. Secretary of Commerce
on behalf of the United States of America. All rights reserved.
##$NIST MASS SPEC NO=333490
##MOLFORM=C14 H24 O Si
##MW=236
##$NIST SOURCE=MSDC
##XUNITS=M/Z
##YUNITS=RELATIVE INTENSITY
##XFACTOR=1
##YFACTOR=1
##FIRSTX=15
##LASTX=239
##FIRSTY=10
##MAXX=239
##MINX=15
##MAXY=9999
##MINY=10
##NPOINTS=133
##PEAK TABLE=(XY..XY)
15,10 27,90 28,10 29,190
31,50 39,210 40,30 41,410
42,60 43,220 44,30 45,300
46,20 47,110 48,10 50,30
51,140 52,50 53,140 54,20
55,80 56,40 57,360 58,110
59,651 60,60 61,120 62,20
63,80 64,20 65,150 66,30
67,60 68,50 69,40 70,10
71,20 72,10 73,651 74,110
75,1271 76,120 77,811 78,220
79,530 80,50 81,120 82,310
83,80 84,10 85,60 86,10
87,10 88,20 89,110 91,480
92,50 93,50 94,10 95,40
96,10 97,30 98,10 99,50
100,10 101,10 102,80 103,530
104,200 105,6856 106,671 107,100
108,10 109,50 110,10 111,10
115,130 116,30 117,90 118,20
119,250 120,30 121,90 122,20
123,40 124,10 128,10 129,10
130,10 131,40 132,10 133,70
134,20 135,200 136,30 137,50
138,10 143,20 145,130 146,30
147,270 148,170 149,2662 150,400
151,170 152,20 159,40 160,10
161,210 162,90 163,1391 164,330
165,190 166,30 167,10 175,80
176,20 177,480 179,9999 180,2282
181,581 182,70 183,10 189,10
191,10 205,10 221,120 222,20
223,10 236,2052 237,430 238,110
239,10
##END=
