##TITLE=(S)-(-)-Citronellic acid, methyl ester
##JCAMP-DX=4.24
##DATA TYPE=MASS SPECTRUM
##ORIGIN=NIST Mass Spectrometry Data Center
##OWNER=NIST Mass Spectrometry Data Center
Collection (C) 2014 copyright by the U.S. Secretary of Commerce
on behalf of the United States of America. All rights reserved.
##$NIST MASS SPEC NO=333551
##MOLFORM=C11 H20 O2
##MW=184
##$NIST SOURCE=MSDC
##XUNITS=M/Z
##YUNITS=RELATIVE INTENSITY
##XFACTOR=1
##YFACTOR=1
##FIRSTX=14
##LASTX=186
##FIRSTY=10
##MAXX=186
##MINX=14
##MAXY=9999
##MINY=10
##NPOINTS=112
##PEAK TABLE=(XY..XY)
14,10 15,350 26,30 27,751
28,170 29,831 30,40 31,100
33,20 37,10 38,70 39,1942
40,450 41,6946 42,1071 43,1451
44,70 45,180 46,10 50,90
51,290 52,160 53,1451 54,410
55,4464 56,1732 57,320 59,2592
60,80 61,50 62,20 63,80
64,20 65,410 66,180 67,2742
68,1842 69,9999 70,1792 71,500
72,100 73,1762 74,2542 75,300
77,390 78,90 79,571 80,200
81,1952 82,3533 83,1331 84,140
85,350 86,250 87,1301 88,70
89,10 91,260 92,70 93,540
94,3083 95,7607 96,1802 97,1001
98,100 99,290 100,50 101,1351
102,200 103,30 105,50 106,20
107,200 108,270 109,4224 110,7517
111,1011 112,80 113,180 114,370
115,410 116,50 117,10 119,360
120,40 121,140 122,20 123,460
124,250 125,100 126,10 127,240
128,360 129,540 130,40 133,10
134,200 135,230 136,30 137,621
138,60 139,10 141,300 142,40
152,4534 153,1601 154,150 155,20
169,30 184,861 185,120 186,10
##END=
