##TITLE=Pentachlorophenol, TMS derivative
##JCAMP-DX=4.24
##DATA TYPE=MASS SPECTRUM
##ORIGIN=NIST Mass Spectrometry Data Center
##OWNER=NIST Mass Spectrometry Data Center
Collection (C) 2014 copyright by the U.S. Secretary of Commerce
on behalf of the United States of America. All rights reserved.
##$NIST MASS SPEC NO=333393
##MOLFORM=C9 H9 Cl5 O Si
##MW=336
##$NIST SOURCE=MSDC
##XUNITS=M/Z
##YUNITS=RELATIVE INTENSITY
##XFACTOR=1
##YFACTOR=1
##FIRSTX=15
##LASTX=345
##FIRSTY=60
##MAXX=345
##MINX=15
##MAXY=9999
##MINY=10
##NPOINTS=286
##PEAK TABLE=(XY..XY)
15,60 26,10 27,60 28,50
29,180 30,20 31,30 35,20
36,20 37,10 38,10 39,30
41,30 42,150 43,881 44,380
45,1591 46,100 47,80 49,10
50,20 51,30 52,10 53,130
54,30 55,220 56,50 57,180
58,140 59,120 60,100 61,70
63,1461 64,130 65,1682 66,120
67,440 68,20 69,20 70,60
71,150 72,310 73,6005 74,641
75,460 76,40 77,90 78,130
79,791 80,110 81,300 82,30
83,50 84,60 85,100 86,60
87,220 88,30 89,150 90,30
91,30 92,290 93,9999 94,891
95,4294 96,400 97,380 98,70
99,150 100,40 101,140 102,50
103,80 104,50 105,80 106,130
107,340 108,200 109,450 110,140
111,160 112,70 113,1261 114,120
115,891 116,60 117,290 118,120
119,130 120,100 121,80 122,30
123,120 124,30 125,110 126,20
127,100 128,10 129,50 130,961
131,200 132,611 133,360 134,120
135,270 136,60 137,160 138,30
139,40 141,200 142,330 143,300
144,250 145,280 146,80 147,160
148,20 149,50 150,10 151,20
152,20 153,20 155,30 156,10
157,100 158,90 159,90 160,340
161,540 162,370 163,120 165,1171
166,80 167,1081 168,80 169,380
170,50 171,90 172,70 173,140
174,50 175,70 176,10 177,100
178,20 179,140 180,40 181,80
182,30 183,30 184,20 185,10
186,10 187,20 188,10 189,20
190,10 191,50 192,30 193,90
194,60 195,100 196,40 197,40
198,10 199,10 200,210 201,40
202,280 203,50 204,130 205,30
206,40 207,40 208,10 209,40
210,10 211,10 212,50 213,20
214,70 215,350 216,100 217,230
218,50 219,50 220,20 221,10
222,10 223,40 224,10 225,40
226,10 227,300 228,120 229,410
230,160 231,230 232,80 233,60
234,20 235,260 236,30 237,400
238,30 239,260 240,20 241,90
242,10 243,40 244,10 245,30
247,30 248,10 249,100 250,140
251,350 252,180 253,300 254,80
255,90 256,20 257,30 258,10
259,20 260,10 261,20 263,110
264,20 265,160 266,50 267,110
268,50 269,40 270,20 271,40
272,10 273,30 274,10 275,20
277,10 283,20 284,10 285,140
286,390 287,230 288,480 289,160
290,260 291,90 292,70 293,60
294,10 295,30 297,10 303,10
304,10 305,10 307,10 309,10
311,10 317,10 318,10 319,10
321,5375 322,771 323,8618 324,1141
325,5735 326,771 327,1952 328,260
329,350 330,40 331,30 332,10
336,1211 337,170 338,1882 339,280
340,1301 341,190 342,430 343,60
344,80 345,10
##END=
