##TITLE=7,10,13,16-Docosatetraenoic acid, (Z)-, TMS derivative
##JCAMP-DX=4.24
##DATA TYPE=MASS SPECTRUM
##ORIGIN=NIST Mass Spectrometry Data Center
##OWNER=NIST Mass Spectrometry Data Center
Collection (C) 2014 copyright by the U.S. Secretary of Commerce
on behalf of the United States of America. All rights reserved.
##$NIST MASS SPEC NO=333550
##MOLFORM=C25 H44 O2 Si
##MW=404
##$NIST SOURCE=MSDC
##XUNITS=M/Z
##YUNITS=RELATIVE INTENSITY
##XFACTOR=1
##YFACTOR=1
##FIRSTX=15
##LASTX=407
##FIRSTY=10
##MAXX=407
##MINX=15
##MAXY=9999
##MINY=10
##NPOINTS=316
##PEAK TABLE=(XY..XY)
15,10 26,10 27,200 28,40
29,500 30,10 31,10 39,480
41,2642 42,230 43,1051 44,130
45,671 46,50 47,340 48,20
49,10 50,20 51,110 52,90
53,741 54,851 55,3883 56,310
57,711 58,170 59,230 60,100
61,520 62,40 63,50 65,821
66,1171 67,6486 68,791 69,1621
70,190 71,350 72,390 73,9999
74,1081 75,9479 76,721 77,2853
78,1832 79,9138 80,6486 81,4114
82,761 83,811 84,460 85,330
86,110 87,90 88,70 89,310
91,6566 92,2052 93,5995 94,2923
95,2873 96,961 97,581 98,220
99,180 100,30 101,120 102,40
103,350 104,430 105,3974 106,1772
107,2853 108,991 109,1071 110,320
111,220 112,70 113,60 114,20
115,380 116,621 117,3823 118,721
119,3944 120,1611 121,2672 122,671
123,550 124,220 125,130 126,30
127,80 128,180 129,4144 130,711
131,2062 132,771 133,2312 134,1692
135,1672 136,721 137,440 138,110
139,70 140,20 141,160 142,120
143,681 144,180 145,2172 146,420
147,1321 148,761 149,811 150,3713
151,651 152,80 153,60 154,40
155,390 156,110 157,490 158,190
159,901 160,260 161,1411 162,480
163,741 164,911 165,190 166,30
167,60 168,50 169,340 170,100
171,450 172,130 173,510 174,280
175,881 176,1311 177,1171 178,250
179,60 180,10 181,60 182,40
183,250 184,60 185,691 186,130
187,400 188,160 189,591 190,460
191,220 192,70 193,30 194,10
195,50 196,20 197,140 198,40
199,190 200,40 201,310 202,110
203,1001 204,290 205,90 206,40
207,20 208,10 209,40 210,20
211,170 212,40 213,130 214,30
215,220 216,90 217,561 218,180
219,50 220,20 221,30 222,10
223,40 224,10 225,180 226,50
227,70 228,20 229,120 230,40
231,250 232,70 233,30 234,80
235,70 236,20 237,40 238,10
239,100 240,20 241,50 242,10
243,90 244,30 245,90 246,30
247,20 248,10 249,70 250,20
251,50 252,20 253,40 254,10
255,30 256,10 257,50 258,20
259,30 260,20 261,10 263,150
264,40 265,50 266,300 267,80
268,20 269,10 270,10 271,30
272,40 273,30 274,10 275,10
277,150 278,50 279,80 280,50
281,20 282,10 283,10 285,20
286,40 287,10 289,20 290,10
291,110 292,50 293,250 294,80
295,50 296,10 297,60 298,10
299,10 303,60 304,20 305,80
306,230 307,110 308,30 309,20
310,10 311,10 313,50 314,40
315,20 317,60 318,20 319,110
320,50 321,40 322,20 323,20
324,30 325,10 331,20 332,10
333,130 334,60 335,30 336,70
337,20 338,10 345,10 347,110
348,50 349,20 350,40 351,10
361,60 362,20 363,30 364,10
371,30 372,10 373,30 374,10
375,30 376,20 377,10 387,50
389,1011 390,330 391,90 392,20
404,651 405,220 406,60 407,10
##END=
