##TITLE=cis-13-Octadecenoic acid, picolinyl ester
##JCAMP-DX=4.24
##DATA TYPE=MASS SPECTRUM
##ORIGIN=NIST Mass Spectrometry Data Center
##OWNER=NIST Mass Spectrometry Data Center
Collection (C) 2014 copyright by the U.S. Secretary of Commerce
on behalf of the United States of America. All rights reserved.
##$NIST MASS SPEC NO=333586
##MOLFORM=C24 H39 N O2
##MW=373
##$NIST SOURCE=MSDC
##XUNITS=M/Z
##YUNITS=RELATIVE INTENSITY
##XFACTOR=1
##YFACTOR=1
##FIRSTX=26
##LASTX=376
##FIRSTY=20
##MAXX=376
##MINX=26
##MAXY=9999
##MINY=10
##NPOINTS=226
##PEAK TABLE=(XY..XY)
26,20 27,260 28,70 29,520
30,10 37,10 38,50 39,901
40,100 41,3123 42,641 43,1481
44,60 45,30 50,40 51,140
52,110 53,430 54,901 55,5965
56,861 57,591 58,40 59,30
60,40 61,10 62,20 63,150
64,230 65,1561 66,180 67,1191
68,360 69,1722 70,310 71,190
72,10 73,30 74,10 75,10
76,10 77,100 78,160 79,380
80,370 81,771 82,230 83,801
84,140 85,110 86,10 87,30
89,10 90,10 91,561 92,9999
93,4064 94,510 95,500 96,130
97,510 98,120 99,40 100,10
101,20 104,10 105,40 106,200
107,200 108,6606 109,2873 110,911
111,230 112,30 113,20 114,10
115,20 116,10 117,30 118,80
119,50 120,100 121,100 122,30
123,100 124,20 125,50 126,10
127,20 128,10 129,10 130,30
131,30 132,50 133,170 134,80
135,60 136,40 137,50 138,10
139,20 141,10 142,10 143,10
144,20 145,10 146,60 147,90
148,180 149,60 151,2292 152,280
153,30 154,10 155,10 158,10
160,40 161,60 162,60 164,4804
165,631 166,60 167,10 168,10
172,10 174,70 175,40 176,50
177,30 178,631 179,160 180,30
181,10 187,10 188,50 189,110
190,120 191,50 192,260 193,150
194,20 195,10 202,40 203,50
204,210 205,50 206,851 207,170
208,10 216,30 217,10 218,70
219,20 220,861 221,170 222,20
230,10 231,10 232,60 233,40
234,901 235,150 236,10 244,20
245,10 246,130 247,40 248,530
249,90 250,10 258,20 259,10
260,160 261,40 262,500 263,110
264,10 265,40 270,10 272,20
274,90 275,40 276,801 277,160
278,20 284,10 286,20 288,110
289,60 290,140 291,30 292,10
298,10 300,10 302,180 303,60
304,30 305,10 312,70 313,20
314,20 316,631 317,180 318,50
319,10 326,80 327,20 328,20
330,2202 331,581 332,120 333,20
344,1601 345,460 346,70 347,10
354,20 355,10 358,130 359,40
360,10 372,460 373,1712 374,480
375,70 376,10
##END=
