##TITLE=(Trimethylsilyl)methyl propionate
##JCAMP-DX=4.24
##DATA TYPE=MASS SPECTRUM
##ORIGIN=NIST Mass Spectrometry Data Center
##OWNER=NIST Mass Spectrometry Data Center
Collection (C) 2014 copyright by the U.S. Secretary of Commerce
on behalf of the United States of America. All rights reserved.
##$NIST MASS SPEC NO=333741
##MOLFORM=C7 H16 O2 Si
##MW=160
##$NIST SOURCE=MSDC
##XUNITS=M/Z
##YUNITS=RELATIVE INTENSITY
##XFACTOR=1
##YFACTOR=1
##FIRSTX=15
##LASTX=161
##FIRSTY=20
##MAXX=161
##MINX=15
##MAXY=9999
##MINY=10
##NPOINTS=73
##PEAK TABLE=(XY..XY)
15,20 26,80 27,470 28,240
29,1381 30,70 31,180 32,10
33,10 39,20 41,40 42,240
43,1261 44,490 45,1371 46,100
47,200 48,10 49,10 53,140
54,50 55,400 56,2432 57,3293
58,811 59,1341 60,230 61,3323
62,210 63,120 65,10 67,10
69,10 70,70 71,90 72,591
73,9999 74,1081 75,951 76,50
77,30 85,40 86,10 87,130
88,120 89,2913 90,250 91,130
92,10 99,10 101,721 102,140
103,1071 104,190 105,3433 106,330
107,130 108,10 113,10 115,160
116,30 117,10 128,10 129,20
130,120 131,80 132,20 143,60
145,5305 146,661 159,30 160,80
161,10
##END=
