##TITLE=.gamma.-Linolenic acid, TBDMS derivative
##JCAMP-DX=4.24
##DATA TYPE=MASS SPECTRUM
##ORIGIN=NIST Mass Spectrometry Data Center
##OWNER=NIST Mass Spectrometry Data Center
Collection (C) 2014 copyright by the U.S. Secretary of Commerce
on behalf of the United States of America. All rights reserved.
##$NIST MASS SPEC NO=333654
##MOLFORM=C24 H44 O2 Si
##MW=392
##$NIST SOURCE=MSDC
##XUNITS=M/Z
##YUNITS=RELATIVE INTENSITY
##XFACTOR=1
##YFACTOR=1
##FIRSTX=26
##LASTX=395
##FIRSTY=10
##MAXX=395
##MINX=26
##MAXY=9999
##MINY=10
##NPOINTS=276
##PEAK TABLE=(XY..XY)
26,10 27,160 28,30 29,470
30,10 31,10 39,340 40,50
41,1752 42,190 43,701 44,30
45,280 46,20 47,320 48,20
49,10 50,10 51,50 52,50
53,330 54,390 55,1872 56,250
57,831 58,190 59,450 60,110
61,220 62,20 63,20 65,310
66,340 67,2893 68,300 69,761
70,70 71,120 72,230 73,4374
74,591 75,9999 76,801 77,1321
78,480 79,2883 80,1381 81,1812
82,260 83,310 84,120 85,260
86,110 87,70 88,70 89,60
91,1882 92,370 93,1832 94,470
95,1451 96,280 97,220 98,70
99,330 100,50 101,210 102,50
103,180 104,80 105,1121 106,300
107,901 108,170 109,390 110,90
111,100 112,40 113,70 114,60
115,561 116,1021 117,811 118,240
119,741 120,360 121,771 122,140
123,240 124,70 125,90 127,70
129,3123 130,510 131,1371 132,190
133,540 134,120 135,360 136,180
137,270 138,40 139,80 140,10
141,130 142,120 143,230 144,70
145,661 146,90 147,320 148,70
149,370 150,741 151,220 152,30
153,120 154,20 155,891 156,160
157,380 158,90 159,561 160,80
161,370 162,220 163,360 164,110
165,80 166,20 167,120 168,40
169,601 170,180 171,811 172,130
173,470 174,70 175,340 176,90
177,210 178,50 179,40 180,10
181,120 182,50 183,390 184,80
185,911 186,140 187,290 188,40
189,100 190,20 191,70 192,20
193,40 194,10 195,80 196,30
197,470 198,90 199,260 200,40
201,120 202,20 203,50 204,30
205,50 206,20 207,30 208,10
209,110 210,40 211,400 212,70
213,80 214,20 215,100 216,30
217,120 218,100 219,120 220,20
221,40 222,10 223,230 224,100
225,300 226,50 227,50 228,10
229,30 230,10 231,40 232,30
233,20 235,70 237,851 238,170
239,260 240,50 241,110 242,30
243,671 244,130 245,20 247,10
249,80 250,20 251,180 252,40
253,210 254,50 255,80 256,20
257,10 259,30 260,80 261,30
262,10 263,40 264,10 265,80
266,20 267,100 268,20 269,60
270,10 277,30 278,10 279,40
280,10 281,120 282,30 283,10
289,10 291,120 292,30 293,50
294,160 295,50 296,10 297,10
299,10 305,40 306,10 307,100
308,30 309,10 311,10 313,10
315,10 317,110 318,30 319,30
320,10 321,30 322,10 333,110
335,7146 336,1992 337,530 338,90
339,10 349,10 363,10 375,10
377,450 378,140 379,40 380,10
392,330 393,110 394,30 395,10
##END=
