##TITLE=L-Tryptophan, N.alpha.-trimethylsilyl-, trimethylsilyl ester
##JCAMP-DX=4.24
##DATA TYPE=MASS SPECTRUM
##ORIGIN=NIST Mass Spectrometry Data Center
##OWNER=NIST Mass Spectrometry Data Center
Collection (C) 2014 copyright by the U.S. Secretary of Commerce
on behalf of the United States of America. All rights reserved.
##$NIST MASS SPEC NO=333268
##MOLFORM=C17 H28 N2 O2 Si2
##MW=348
##$NIST SOURCE=MSDC
##XUNITS=M/Z
##YUNITS=RELATIVE INTENSITY
##XFACTOR=1
##YFACTOR=1
##FIRSTX=27
##LASTX=350
##FIRSTY=10
##MAXX=350
##MINX=27
##MAXY=9999
##MINY=10
##NPOINTS=166
##PEAK TABLE=(XY..XY)
27,10 28,40 29,30 30,10
31,20 39,20 42,10 43,160
44,140 45,921 46,70 47,110
50,20 51,60 52,30 53,20
54,10 55,40 56,30 57,701
58,130 59,260 60,50 61,60
62,10 63,40 64,10 65,10
66,10 69,10 70,30 71,30
72,190 73,7227 74,721 75,881
76,120 77,591 78,60 79,10
80,10 83,10 84,30 85,20
86,130 87,60 88,30 89,70
90,40 91,30 93,10 98,20
100,1972 101,530 102,400 103,671
104,90 105,40 106,10 107,10
113,20 114,70 115,250 116,90
117,280 118,230 119,50 120,10
121,10 127,20 128,290 129,400
130,9999 131,1591 132,1531 133,350
134,80 135,20 140,20 141,20
142,70 143,90 144,100 145,40
146,80 147,1441 148,270 149,120
150,10 154,20 155,50 156,70
157,80 158,290 159,160 160,130
161,30 162,10 163,90 164,20
165,10 167,10 168,10 169,60
170,70 171,20 172,50 173,20
174,140 175,30 176,100 177,20
178,10 182,10 183,10 184,70
185,30 186,50 187,20 188,70
189,20 190,50 191,10 198,10
199,50 200,30 201,20 203,170
204,180 205,50 206,20 213,10
214,70 215,130 216,120 218,9949
219,2702 220,1041 221,180 222,30
229,60 230,240 231,1101 232,230
233,60 234,30 241,10 243,40
244,20 257,10 259,10 261,10
276,40 277,10 304,10 305,390
306,150 307,50 308,10 333,220
334,70 335,20 336,10 348,180
349,60 350,20
##END=
