##TITLE=4-Penten-2-ol, TBDMS derivative
##JCAMP-DX=4.24
##DATA TYPE=MASS SPECTRUM
##ORIGIN=NIST Mass Spectrometry Data Center
##OWNER=NIST Mass Spectrometry Data Center
Collection (C) 2014 copyright by the U.S. Secretary of Commerce
on behalf of the United States of America. All rights reserved.
##$NIST MASS SPEC NO=333088
##MOLFORM=C11 H24 O Si
##MW=200
##$NIST SOURCE=MSDC
##XUNITS=M/Z
##YUNITS=RELATIVE INTENSITY
##XFACTOR=1
##YFACTOR=1
##FIRSTX=15
##LASTX=200
##FIRSTY=20
##MAXX=200
##MINX=15
##MAXY=9999
##MINY=10
##NPOINTS=100
##PEAK TABLE=(XY..XY)
15,20 26,10 27,170 28,40
29,370 30,10 31,70 37,10
38,30 39,621 40,100 41,1471
42,150 43,691 44,120 45,1211
46,90 47,871 48,50 49,30
50,20 51,70 52,20 53,180
54,40 55,180 56,80 57,601
58,791 59,2312 60,330 61,571
62,40 63,30 64,20 65,40
66,20 67,150 68,40 69,190
70,70 71,430 72,150 73,8768
74,881 75,4854 76,350 77,170
79,10 81,30 82,10 83,170
84,70 85,400 86,60 87,510
88,50 89,30 95,30 96,20
97,390 99,9338 100,1101 101,1081
102,320 103,1361 104,130 105,50
109,30 110,10 111,60 112,10
113,410 115,9999 116,1111 117,420
118,20 125,60 126,10 127,130
128,30 129,330 130,40 131,10
139,10 141,130 143,9328 144,1231
145,400 146,30 157,50 159,4004
160,540 161,160 162,10 185,160
186,30 187,10 199,30 200,10
##END=
