##TITLE=2,5-Dichlorophenol, TBDMS derivative
##JCAMP-DX=4.24
##DATA TYPE=MASS SPECTRUM
##ORIGIN=NIST Mass Spectrometry Data Center
##OWNER=NIST Mass Spectrometry Data Center
Collection (C) 2014 copyright by the U.S. Secretary of Commerce
on behalf of the United States of America. All rights reserved.
##$NIST MASS SPEC NO=333448
##MOLFORM=C12 H18 Cl2 O Si
##MW=276
##$NIST SOURCE=MSDC
##XUNITS=M/Z
##YUNITS=RELATIVE INTENSITY
##XFACTOR=1
##YFACTOR=1
##FIRSTX=15
##LASTX=280
##FIRSTY=20
##MAXX=280
##MINX=15
##MAXY=9999
##MINY=10
##NPOINTS=184
##PEAK TABLE=(XY..XY)
15,20 26,10 27,90 28,30
29,340 30,10 31,30 37,10
38,20 39,260 40,50 41,671
42,130 43,290 44,40 45,240
46,20 47,50 50,50 51,80
52,20 53,110 54,20 55,110
56,60 57,550 58,150 59,280
60,40 61,40 62,110 63,1151
64,100 65,791 66,70 67,220
68,10 69,30 70,10 71,10
72,40 73,791 74,200 75,270
76,40 77,160 78,90 79,320
80,40 81,100 82,10 83,40
84,30 85,60 86,20 87,30
88,20 89,250 90,70 91,110
93,8327 94,741 95,3243 96,240
97,180 98,110 99,130 100,50
101,40 102,20 103,110 104,20
105,120 106,10 107,30 108,10
109,200 111,160 112,40 113,290
114,30 115,220 116,20 117,60
118,10 119,60 120,10 121,50
122,10 123,60 124,30 125,791
126,150 127,280 128,50 129,30
130,10 131,10 133,90 134,10
135,50 136,10 137,20 138,10
139,30 140,20 141,30 142,10
143,10 145,20 146,10 147,240
148,250 149,130 150,30 151,10
153,10 154,30 155,170 156,30
157,70 158,10 159,30 160,10
161,40 162,20 163,20 164,10
165,10 167,30 168,40 169,320
170,70 171,120 172,20 173,10
175,10 176,10 177,20 179,10
181,80 182,60 183,1712 184,510
185,681 186,190 187,50 188,10
189,230 190,30 191,150 192,20
193,30 195,20 197,10 203,40
204,20 205,170 206,30 207,100
208,10 209,20 211,10 215,10
217,40 219,9999 220,1601 221,7156
222,1011 223,1391 224,180 225,50
245,10 247,10 261,80 262,10
263,50 264,10 265,10 276,150
277,30 278,100 279,20 280,20
##END=
