##TITLE=6-Azathymine, Bis(methyl) ether
##JCAMP-DX=4.24
##DATA TYPE=MASS SPECTRUM
##ORIGIN=NIST Mass Spectrometry Data Center
##OWNER=NIST Mass Spectrometry Data Center
Collection (C) 2014 copyright by the U.S. Secretary of Commerce
on behalf of the United States of America. All rights reserved.
##$NIST MASS SPEC NO=333804
##MOLFORM=C6 H9 N3 O2
##MW=155
##$NIST SOURCE=MSDC
##XUNITS=M/Z
##YUNITS=RELATIVE INTENSITY
##XFACTOR=1
##YFACTOR=1
##FIRSTX=14
##LASTX=157
##FIRSTY=20
##MAXX=157
##MINX=14
##MAXY=9999
##MINY=10
##NPOINTS=54
##PEAK TABLE=(XY..XY)
14,20 15,320 16,10 25,20
26,190 27,641 28,1031 29,340
30,60 31,50 37,10 38,50
39,130 40,310 41,430 42,3443
43,1361 44,20 51,10 52,30
53,340 54,400 55,300 56,1291
57,460 58,1822 59,120 66,20
67,40 69,2642 70,9999 71,420
72,40 82,10 83,290 84,30
85,290 86,230 87,10 96,70
97,100 98,430 99,60 112,10
114,460 115,30 126,100 127,450
128,30 140,20 153,30 155,8157
156,641 157,60
##END=
