##TITLE=17-Octadecynoic acid, TMS derivative
##JCAMP-DX=4.24
##DATA TYPE=MASS SPECTRUM
##ORIGIN=NIST Mass Spectrometry Data Center
##OWNER=NIST Mass Spectrometry Data Center
Collection (C) 2014 copyright by the U.S. Secretary of Commerce
on behalf of the United States of America. All rights reserved.
##$NIST MASS SPEC NO=333544
##MOLFORM=C21 H40 O2 Si
##MW=352
##$NIST SOURCE=MSDC
##XUNITS=M/Z
##YUNITS=RELATIVE INTENSITY
##XFACTOR=1
##YFACTOR=1
##FIRSTX=26
##LASTX=352
##FIRSTY=10
##MAXX=352
##MINX=26
##MAXY=9999
##MINY=10
##NPOINTS=228
##PEAK TABLE=(XY..XY)
26,10 27,130 28,20 29,280
30,10 31,10 38,10 39,310
40,110 41,1581 42,270 43,1011
44,100 45,480 46,40 47,230
48,10 49,10 50,10 51,50
52,50 53,450 54,470 55,2953
56,340 57,450 58,160 59,250
60,80 61,440 62,30 63,20
65,160 66,90 67,1491 68,360
69,911 70,100 71,100 72,270
73,9999 74,1021 75,6756 76,470
77,490 78,60 79,661 80,500
81,1742 82,500 83,520 84,170
85,130 86,70 87,60 88,40
89,190 90,30 91,210 92,50
93,490 94,510 95,1201 96,500
97,430 98,180 99,220 100,40
101,110 102,20 103,40 104,30
105,270 106,50 107,340 108,170
109,460 110,170 111,180 112,60
113,70 114,30 115,70 116,490
117,7126 118,701 119,370 120,40
121,330 122,110 123,180 124,80
125,80 126,30 127,50 128,110
129,3053 130,440 131,1021 132,2522
133,571 134,150 135,260 136,90
137,80 138,50 139,50 140,10
141,60 142,30 143,220 144,40
145,791 146,110 147,70 148,20
149,150 150,90 151,40 152,30
153,40 154,30 155,90 156,30
157,110 158,20 159,130 160,20
161,20 162,10 163,60 164,30
165,30 166,10 167,40 168,20
169,160 170,50 171,170 172,60
173,70 174,20 175,10 176,10
177,30 178,40 179,20 180,10
181,30 182,10 183,70 184,20
185,180 186,40 187,70 188,10
189,10 191,20 192,10 193,10
195,10 197,20 199,50 200,10
201,50 202,10 205,10 206,10
209,10 211,10 213,40 214,10
215,20 219,20 220,50 221,10
223,10 225,10 227,40 228,10
229,20 233,10 234,280 235,50
236,10 239,10 241,50 242,10
243,20 244,10 245,10 253,10
255,40 256,10 257,30 258,10
262,20 263,10 267,10 269,30
270,10 271,10 281,10 283,40
284,10 285,10 293,30 294,10
295,40 296,10 297,30 298,10
309,80 310,30 311,10 313,10
319,20 320,10 321,30 322,10
323,20 324,10 337,1732 338,470
339,130 340,20 351,10 352,10
##END=
