##TITLE=2-Chloro-5-methylphenol, TMS derivative
##JCAMP-DX=4.24
##DATA TYPE=MASS SPECTRUM
##ORIGIN=NIST Mass Spectrometry Data Center
##OWNER=NIST Mass Spectrometry Data Center
Collection (C) 2014 copyright by the U.S. Secretary of Commerce
on behalf of the United States of America. All rights reserved.
##$NIST MASS SPEC NO=333401
##MOLFORM=C10 H15 Cl O Si
##MW=214
##$NIST SOURCE=MSDC
##XUNITS=M/Z
##YUNITS=RELATIVE INTENSITY
##XFACTOR=1
##YFACTOR=1
##FIRSTX=15
##LASTX=218
##FIRSTY=30
##MAXX=218
##MINX=15
##MAXY=9999
##MINY=10
##NPOINTS=165
##PEAK TABLE=(XY..XY)
15,30 26,10 27,100 28,30
29,90 30,10 31,20 37,10
38,50 39,270 40,20 41,40
42,60 43,490 44,180 45,881
46,60 47,80 49,10 50,210
51,691 52,300 53,270 54,40
55,130 56,20 57,100 58,90
59,100 60,30 61,70 62,140
63,1121 64,130 65,1191 66,110
67,390 68,110 69,50 70,30
71,40 72,110 73,1651 74,290
75,320 76,120 77,1391 78,931
79,1201 80,130 81,430 82,230
83,60 84,40 85,100 86,70
87,70 88,30 89,380 90,120
91,460 92,480 93,7327 94,561
95,2682 96,190 97,150 98,10
99,500 100,200 102,80 103,430
104,160 105,3053 106,310 107,180
108,20 109,60 110,10 111,20
112,20 113,120 114,20 115,150
116,30 117,110 118,20 119,150
120,20 121,50 122,10 123,20
124,10 125,80 126,10 127,40
128,10 129,60 130,10 131,60
132,10 133,70 134,30 135,530
136,70 137,40 139,130 140,20
141,170 142,20 143,190 144,20
145,160 146,30 147,260 148,190
149,380 150,50 151,30 152,10
153,10 155,80 156,10 157,30
158,10 159,10 161,290 163,9999
164,1541 165,460 166,40 167,10
168,10 169,200 170,30 171,430
172,60 173,130 174,20 175,20
177,20 178,40 179,10 181,30
182,10 183,160 184,130 185,70
186,50 187,10 195,10 196,10
197,130 199,8177 200,1261 201,3033
202,410 203,120 204,10 212,10
214,3303 215,561 216,1201 217,180
218,50
##END=
