##TITLE=Olivetol, dimethyl ether
##JCAMP-DX=4.24
##DATA TYPE=MASS SPECTRUM
##ORIGIN=NIST Mass Spectrometry Data Center
##OWNER=NIST Mass Spectrometry Data Center
Collection (C) 2014 copyright by the U.S. Secretary of Commerce
on behalf of the United States of America. All rights reserved.
##$NIST MASS SPEC NO=333367
##MOLFORM=C13 H20 O2
##MW=208
##$NIST SOURCE=MSDC
##XUNITS=M/Z
##YUNITS=RELATIVE INTENSITY
##XFACTOR=1
##YFACTOR=1
##FIRSTX=15
##LASTX=210
##FIRSTY=50
##MAXX=210
##MINX=15
##MAXY=9999
##MINY=10
##NPOINTS=129
##PEAK TABLE=(XY..XY)
15,50 26,20 27,230 28,50
29,370 30,10 31,10 38,40
39,340 40,50 41,450 42,40
43,130 45,50 50,80 51,320
52,150 53,190 54,20 55,170
56,20 57,60 59,50 61,10
62,60 63,240 64,110 65,681
66,170 67,100 68,30 69,220
70,10 71,10 74,30 75,40
76,70 77,1131 78,811 79,591
80,90 81,70 82,10 83,10
85,10 86,10 87,10 88,10
89,200 90,130 91,1341 92,330
93,190 94,120 95,120 96,20
97,10 99,10 101,10 102,50
103,280 104,100 105,460 106,160
107,350 108,320 109,581 110,50
111,10 115,110 116,30 117,60
118,70 119,140 120,230 121,1101
122,430 123,891 124,120 125,50
126,20 127,10 128,20 129,20
130,10 131,50 132,20 133,70
134,90 135,230 136,110 137,661
138,300 139,200 140,20 144,10
145,20 146,20 147,70 148,30
149,60 150,160 151,2262 152,9999
153,1561 154,130 155,10 159,10
160,10 161,30 162,10 163,40
164,110 165,1511 166,1832 167,200
168,20 175,10 177,70 178,30
179,280 180,100 181,10 191,10
193,60 194,10 208,3013 209,440
210,40
##END=
