##TITLE=trans-9-Octadecenoic acid, picolinyl ester
##JCAMP-DX=4.24
##DATA TYPE=MASS SPECTRUM
##ORIGIN=NIST Mass Spectrometry Data Center
##OWNER=NIST Mass Spectrometry Data Center
Collection (C) 2014 copyright by the U.S. Secretary of Commerce
on behalf of the United States of America. All rights reserved.
##$NIST MASS SPEC NO=333224
##MOLFORM=C24 H39 N O2
##MW=373
##$NIST SOURCE=MSDC
##XUNITS=M/Z
##YUNITS=RELATIVE INTENSITY
##XFACTOR=1
##YFACTOR=1
##FIRSTX=26
##LASTX=375
##FIRSTY=20
##MAXX=375
##MINX=26
##MAXY=9999
##MINY=10
##NPOINTS=230
##PEAK TABLE=(XY..XY)
26,20 27,200 29,581 31,10
38,30 39,831 40,80 41,2772
42,460 43,2142 44,50 45,20
50,40 51,150 52,110 53,420
54,1031 55,4414 56,801 57,1201
58,50 60,20 61,10 62,10
63,170 64,190 65,1571 66,200
67,1251 68,370 69,1571 70,330
71,250 72,10 73,40 76,10
77,100 78,170 79,400 80,360
81,821 82,200 83,911 84,150
85,130 86,10 87,20 91,490
92,9999 93,4684 94,500 95,480
96,130 97,540 98,100 99,50
100,10 101,20 103,10 104,10
105,80 106,160 107,100 108,6846
109,2973 110,831 111,260 112,30
113,30 114,20 115,20 117,40
118,90 119,80 120,70 121,140
122,30 123,140 124,40 125,80
126,20 127,40 128,20 129,20
130,40 131,40 132,70 133,230
134,130 135,100 136,50 137,70
138,10 139,20 140,10 141,10
142,10 143,10 144,20 145,30
146,80 147,130 148,250 149,70
151,1902 152,270 153,30 155,10
156,10 157,10 158,30 159,10
160,40 161,40 162,40 164,5745
165,741 166,70 167,20 169,10
171,10 172,20 173,10 174,20
175,30 176,30 177,60 178,951
179,190 180,40 181,20 182,10
184,10 186,10 187,10 188,20
189,20 190,100 191,40 192,250
193,80 194,20 195,10 199,10
200,10 201,10 202,20 203,20
204,160 205,30 206,641 207,180
208,20 214,10 215,10 216,30
217,10 218,80 219,40 220,751
221,200 222,30 228,10 230,30
231,10 232,100 233,30 234,260
235,40 236,10 242,10 243,10
244,20 245,50 246,190 247,160
248,120 249,20 250,10 256,80
257,10 258,10 259,10 260,430
261,230 262,60 263,30 265,20
266,10 270,90 271,10 272,30
274,1702 275,440 276,90 277,10
284,20 285,10 286,10 288,1912
289,420 290,70 291,10 292,10
299,10 300,10 302,410 303,100
304,20 316,450 317,120 318,30
326,10 328,20 330,410 331,100
332,30 333,10 344,300 345,90
346,10 354,10 355,10 358,70
359,20 360,10 372,450 373,1591
374,370 375,70
##END=
