##TITLE=2-Phenylbutyric acid, TBDMS derivative
##JCAMP-DX=4.24
##DATA TYPE=MASS SPECTRUM
##ORIGIN=NIST Mass Spectrometry Data Center
##OWNER=NIST Mass Spectrometry Data Center
Collection (C) 2014 copyright by the U.S. Secretary of Commerce
on behalf of the United States of America. All rights reserved.
##$NIST MASS SPEC NO=333146
##MOLFORM=C16 H26 O2 Si
##MW=278
##$NIST SOURCE=MSDC
##XUNITS=M/Z
##YUNITS=RELATIVE INTENSITY
##XFACTOR=1
##YFACTOR=1
##FIRSTX=27
##LASTX=265
##FIRSTY=40
##MAXX=265
##MINX=27
##MAXY=9999
##MINY=10
##NPOINTS=120
##PEAK TABLE=(XY..XY)
27,40 28,10 29,180 31,10
38,10 39,150 40,20 41,450
42,40 43,110 44,20 45,250
46,20 47,210 48,10 49,10
50,20 51,100 52,20 53,30
55,40 56,40 57,340 58,250
59,350 60,70 61,90 62,20
63,70 64,20 65,140 66,10
67,10 69,20 70,10 71,10
73,2142 74,270 75,4704 76,380
77,460 78,140 79,70 82,10
83,10 85,50 86,10 87,20
88,10 89,200 90,320 91,2112
92,170 93,10 97,10 99,60
100,20 101,30 102,50 103,230
104,150 105,120 106,10 107,10
110,10 113,10 115,791 116,120
117,400 118,410 119,330 120,50
121,30 127,10 128,20 129,210
130,20 131,50 132,10 133,20
134,10 135,150 136,20 137,30
143,70 144,10 145,160 146,40
147,40 148,260 149,60 150,20
151,10 159,20 161,30 162,10
163,20 165,10 175,10 177,160
178,30 179,40 180,10 191,60
192,250 193,50 194,10 203,70
204,10 205,50 206,10 207,10
221,9999 222,2262 223,651 224,70
225,10 263,200 264,40 265,10
##END=
