##TITLE=Behenic acid, 4,4-dimethyloxazoline (dmox) derivative
##JCAMP-DX=4.24
##DATA TYPE=MASS SPECTRUM
##ORIGIN=NIST Mass Spectrometry Data Center
##OWNER=NIST Mass Spectrometry Data Center
Collection (C) 2014 copyright by the U.S. Secretary of Commerce
on behalf of the United States of America. All rights reserved.
##$NIST MASS SPEC NO=333109
##MOLFORM=C26 H51 N O
##MW=393
##$NIST SOURCE=MSDC
##XUNITS=M/Z
##YUNITS=RELATIVE INTENSITY
##XFACTOR=1
##YFACTOR=1
##FIRSTX=27
##LASTX=394
##FIRSTY=50
##MAXX=394
##MINX=27
##MAXY=9999
##MINY=10
##NPOINTS=132
##PEAK TABLE=(XY..XY)
27,50 28,20 29,170 30,20
39,70 40,20 41,631 42,230
43,1141 44,80 45,10 53,50
54,120 55,901 56,230 57,861
58,480 59,20 60,10 65,10
66,10 67,120 68,160 69,300
70,130 71,250 72,310 73,70
74,10 77,10 79,40 80,20
81,100 82,160 83,240 84,130
85,90 86,20 91,10 93,30
94,30 95,90 96,180 97,270
98,370 99,40 100,20 107,20
108,20 109,40 110,250 111,80
113,9999 114,861 115,50 121,10
122,20 123,20 124,90 126,2552
127,440 128,30 136,20 137,10
138,60 139,30 140,310 141,40
150,10 152,100 153,20 154,120
155,60 156,10 164,10 166,60
167,10 168,430 169,60 170,10
178,10 180,30 181,10 182,250
183,40 194,30 196,90 197,20
208,20 210,80 211,10 222,20
224,80 225,20 236,20 238,60
239,10 250,20 252,60 253,10
264,20 266,50 267,10 278,10
280,50 281,10 292,10 294,40
295,10 306,10 308,50 309,10
320,10 322,50 323,10 334,10
336,40 337,10 348,40 349,10
350,170 351,50 352,10 362,10
364,110 365,30 378,370 379,100
380,10 392,180 393,110 394,30
##END=
