##TITLE=Neopentyl alcohol, TBDMS derivative
##JCAMP-DX=4.24
##DATA TYPE=MASS SPECTRUM
##ORIGIN=NIST Mass Spectrometry Data Center
##OWNER=NIST Mass Spectrometry Data Center
Collection (C) 2014 copyright by the U.S. Secretary of Commerce
on behalf of the United States of America. All rights reserved.
##$NIST MASS SPEC NO=333000
##MOLFORM=C11 H26 O Si
##MW=202
##$NIST SOURCE=MSDC
##XUNITS=M/Z
##YUNITS=RELATIVE INTENSITY
##XFACTOR=1
##YFACTOR=1
##FIRSTX=15
##LASTX=203
##FIRSTY=10
##MAXX=203
##MINX=15
##MAXY=9999
##MINY=10
##NPOINTS=78
##PEAK TABLE=(XY..XY)
15,10 27,90 28,20 29,310
30,10 31,40 38,10 39,180
40,30 41,581 42,60 43,460
44,60 45,480 46,30 47,350
48,20 49,10 50,10 51,30
53,60 54,10 55,190 56,80
57,500 58,530 59,721 60,130
61,250 62,20 63,10 65,10
67,20 69,30 70,20 71,100
72,40 73,2212 74,310 75,9999
76,801 77,400 78,10 83,20
85,110 86,20 87,30 88,310
89,631 90,60 91,20 97,10
99,70 100,40 101,80 102,10
111,10 113,20 114,10 115,210
116,20 117,20 127,10 129,40
130,10 131,130 132,20 133,10
143,10 145,6486 146,881 147,280
148,20 187,200 188,30 189,10
202,50 203,10
##END=
