##TITLE=(Trimethylsilyl)methyl decanoate
##JCAMP-DX=4.24
##DATA TYPE=MASS SPECTRUM
##ORIGIN=NIST Mass Spectrometry Data Center
##OWNER=NIST Mass Spectrometry Data Center
Collection (C) 2014 copyright by the U.S. Secretary of Commerce
on behalf of the United States of America. All rights reserved.
##$NIST MASS SPEC NO=333722
##MOLFORM=C14 H30 O2 Si
##MW=258
##$NIST SOURCE=MSDC
##XUNITS=M/Z
##YUNITS=RELATIVE INTENSITY
##XFACTOR=1
##YFACTOR=1
##FIRSTX=27
##LASTX=258
##FIRSTY=180
##MAXX=258
##MINX=27
##MAXY=9999
##MINY=10
##NPOINTS=141
##PEAK TABLE=(XY..XY)
27,180 28,70 29,420 30,10
31,70 39,230 41,1401 42,410
43,1872 44,260 45,701 46,50
47,70 51,10 52,10 53,140
54,130 55,3193 56,500 57,1081
58,450 59,1661 60,170 61,961
62,60 63,40 65,20 66,10
67,260 68,140 69,1241 70,220
71,871 72,420 73,6386 74,651
75,1191 76,80 77,70 78,10
79,90 80,20 81,420 82,80
83,360 84,210 85,641 86,140
87,370 88,290 89,1051 90,100
91,80 92,10 93,50 95,460
96,60 97,370 98,300 99,80
100,30 101,280 102,50 103,1521
104,611 105,1361 106,140 107,120
108,10 109,30 110,30 111,220
112,120 113,50 114,20 115,160
116,661 117,220 118,40 119,10
121,30 125,70 126,20 127,10
129,691 130,651 131,1992 132,240
133,100 134,10 135,20 137,130
138,20 139,20 141,10 143,1351
144,200 145,110 146,4244 147,510
148,190 149,10 153,20 155,911
156,110 157,170 159,9999 160,1611
161,460 162,50 169,10 171,90
173,1111 174,170 175,50 185,70
186,10 187,50 188,20 199,40
200,10 201,170 202,40 203,10
213,50 214,10 215,330 216,60
217,20 227,110 228,20 229,110
230,20 231,10 241,60 243,7507
244,1471 245,420 246,50 257,10
258,10
##END=
