##TITLE=2-Methyl-1-pentanol, TBDMS derivative
##JCAMP-DX=4.24
##DATA TYPE=MASS SPECTRUM
##ORIGIN=NIST Mass Spectrometry Data Center
##OWNER=NIST Mass Spectrometry Data Center
Collection (C) 2014 copyright by the U.S. Secretary of Commerce
on behalf of the United States of America. All rights reserved.
##$NIST MASS SPEC NO=333303
##MOLFORM=C12 H28 O Si
##MW=216
##$NIST SOURCE=MSDC
##XUNITS=M/Z
##YUNITS=RELATIVE INTENSITY
##XFACTOR=1
##YFACTOR=1
##FIRSTX=15
##LASTX=217
##FIRSTY=10
##MAXX=217
##MINX=15
##MAXY=9999
##MINY=10
##NPOINTS=91
##PEAK TABLE=(XY..XY)
15,10 26,10 27,190 28,30
29,360 30,10 31,30 39,210
40,40 41,711 42,100 43,841
44,60 45,410 46,30 47,330
48,20 49,10 51,10 53,60
54,10 55,340 56,90 57,320
58,480 59,751 60,140 61,330
62,20 63,10 65,10 67,30
68,10 69,80 70,20 71,110
73,2182 75,9619 76,1061 77,550
78,10 79,10 81,10 83,821
84,80 85,290 86,40 87,80
88,571 89,1451 90,140 91,50
95,10 97,30 98,10 99,150
100,70 101,260 102,40 103,490
104,50 105,20 111,10 113,50
114,10 115,340 116,60 117,90
118,10 125,10 127,10 129,60
130,10 131,10 141,10 143,110
144,20 145,40 146,10 157,30
159,9999 160,1972 161,621 162,50
173,10 201,270 202,50 203,10
215,20 216,70 217,10
##END=
