##TITLE=Undecanoic acid, TMS derivative
##JCAMP-DX=4.24
##DATA TYPE=MASS SPECTRUM
##ORIGIN=NIST Mass Spectrometry Data Center
##OWNER=NIST Mass Spectrometry Data Center
Collection (C) 2014 copyright by the U.S. Secretary of Commerce
on behalf of the United States of America. All rights reserved.
##$NIST MASS SPEC NO=333723
##MOLFORM=C14 H30 O2 Si
##MW=258
##$NIST SOURCE=MSDC
##XUNITS=M/Z
##YUNITS=RELATIVE INTENSITY
##XFACTOR=1
##YFACTOR=1
##FIRSTX=15
##LASTX=260
##FIRSTY=10
##MAXX=260
##MINX=15
##MAXY=9999
##MINY=10
##NPOINTS=154
##PEAK TABLE=(XY..XY)
15,10 26,10 27,190 28,60
29,460 30,10 31,10 39,250
40,60 41,1331 42,300 43,1281
44,130 45,661 46,50 47,370
48,20 49,10 51,10 52,10
53,140 54,100 55,1661 56,280
57,470 58,220 59,290 60,120
61,591 62,40 63,20 65,20
66,10 67,290 68,70 69,601
70,120 71,120 72,410 73,8378
74,971 75,7607 76,561 77,350
78,20 79,80 80,10 81,380
82,50 83,340 84,190 85,170
86,110 87,80 88,80 89,190
90,40 91,70 92,10 93,80
94,10 95,490 96,50 97,240
98,250 99,220 100,30 101,180
102,30 103,40 105,260 106,20
107,50 108,10 109,130 110,20
111,110 112,160 113,40 114,10
115,100 116,791 117,9999 118,1001
119,430 120,20 121,20 123,10
124,20 125,70 126,50 127,30
129,4384 130,571 131,2052 132,4344
133,671 134,190 135,30 139,40
140,20 141,20 142,10 143,350
145,2292 146,300 147,100 148,10
149,30 150,10 151,10 153,10
155,20 157,150 158,20 159,360
160,50 161,20 167,20 168,10
169,30 171,180 172,20 173,110
174,40 175,10 185,160 186,30
187,190 188,30 189,10 199,440
200,90 201,400 202,70 203,20
213,40 214,10 215,310 216,60
217,20 227,10 229,80 230,20
231,10 241,20 243,9158 244,1802
245,520 246,60 257,40 258,300
259,70 260,20
##END=
