##TITLE=3,3-Dimethylacrylic acid, TBDMS derivative
##JCAMP-DX=4.24
##DATA TYPE=MASS SPECTRUM
##ORIGIN=NIST Mass Spectrometry Data Center
##OWNER=NIST Mass Spectrometry Data Center
Collection (C) 2014 copyright by the U.S. Secretary of Commerce
on behalf of the United States of America. All rights reserved.
##$NIST MASS SPEC NO=333164
##MOLFORM=C11 H22 O2 Si
##MW=214
##$NIST SOURCE=MSDC
##XUNITS=M/Z
##YUNITS=RELATIVE INTENSITY
##XFACTOR=1
##YFACTOR=1
##FIRSTX=15
##LASTX=201
##FIRSTY=10
##MAXX=201
##MINX=15
##MAXY=9999
##MINY=10
##NPOINTS=89
##PEAK TABLE=(XY..XY)
15,10 26,10 27,120 28,30
29,300 30,10 31,10 38,20
39,360 40,40 41,360 42,60
43,140 44,20 45,380 46,30
47,380 48,20 49,20 50,20
51,40 52,20 53,250 54,120
55,921 56,80 57,320 58,110
59,250 60,100 61,170 62,10
63,10 66,10 67,60 68,10
69,20 70,10 71,20 73,871
74,180 75,5385 76,420 77,260
78,10 79,10 81,10 82,270
83,2152 84,130 85,80 86,10
87,30 89,10 95,10 96,10
97,90 98,40 99,260 100,30
101,110 102,10 103,10 111,80
112,70 113,2412 114,300 115,240
116,30 117,10 125,10 127,40
128,10 129,10 139,40 140,10
141,20 142,40 143,50 144,10
157,9999 158,1651 159,571 160,40
183,10 198,10 199,230 200,40
201,10
##END=
