##TITLE=2,6-Dichlorophenol, TMS derivative
##JCAMP-DX=4.24
##DATA TYPE=MASS SPECTRUM
##ORIGIN=NIST Mass Spectrometry Data Center
##OWNER=NIST Mass Spectrometry Data Center
Collection (C) 2014 copyright by the U.S. Secretary of Commerce
on behalf of the United States of America. All rights reserved.
##$NIST MASS SPEC NO=333358
##MOLFORM=C9 H12 Cl2 O Si
##MW=234
##$NIST SOURCE=MSDC
##XUNITS=M/Z
##YUNITS=RELATIVE INTENSITY
##XFACTOR=1
##YFACTOR=1
##FIRSTX=14
##LASTX=239
##FIRSTY=20
##MAXX=239
##MINX=14
##MAXY=9999
##MINY=10
##NPOINTS=162
##PEAK TABLE=(XY..XY)
14,20 15,30 27,40 28,140
29,210 31,50 36,120 37,60
38,110 39,170 41,130 42,210
43,871 44,540 45,1371 46,70
47,170 49,90 50,140 51,360
52,90 53,350 54,80 55,160
57,100 58,60 59,150 60,30
61,110 62,450 63,3833 64,350
65,1822 66,180 67,520 68,30
69,20 70,40 72,270 73,2312
74,581 75,651 76,110 77,591
78,230 79,971 80,120 81,280
82,30 83,60 84,130 85,80
86,40 87,60 88,30 89,520
90,140 91,340 92,390 93,5725
94,591 95,2122 96,170 97,300
98,440 99,260 100,120 101,190
102,90 103,390 104,70 105,701
106,80 107,160 108,20 109,1031
110,821 112,80 113,1451 114,150
115,1081 116,100 117,300 118,30
119,90 120,30 121,100 122,20
123,60 124,20 125,3423 126,621
127,1211 128,250 129,50 130,20
133,360 134,50 135,210 136,30
137,80 139,120 141,80 142,20
144,30 145,20 147,671 148,981
149,220 150,70 153,50 155,380
156,70 157,190 158,20 159,40
161,220 162,320 163,160 164,250
165,70 166,60 168,100 169,280
170,130 171,100 172,30 175,20
176,10 178,20 181,170 182,130
183,6556 184,1712 185,2392 186,591
187,190 189,140 190,10 191,120
192,40 193,50 198,40 202,20
203,130 204,100 205,50 206,30
217,50 219,9999 220,1471 221,6786
222,831 223,1241 224,170 225,60
234,2282 235,290 236,1451 237,230
238,300 239,40
##END=
