##TITLE=Geranylgeraniol, TBDMS derivative
##JCAMP-DX=4.24
##DATA TYPE=MASS SPECTRUM
##ORIGIN=NIST Mass Spectrometry Data Center
##OWNER=NIST Mass Spectrometry Data Center
Collection (C) 2014 copyright by the U.S. Secretary of Commerce
on behalf of the United States of America. All rights reserved.
##$NIST MASS SPEC NO=333959
##MOLFORM=C26 H48 O Si
##MW=404
##$NIST SOURCE=MSDC
##XUNITS=M/Z
##YUNITS=RELATIVE INTENSITY
##XFACTOR=1
##YFACTOR=1
##FIRSTX=27
##LASTX=406
##FIRSTY=60
##MAXX=406
##MINX=27
##MAXY=9999
##MINY=10
##NPOINTS=246
##PEAK TABLE=(XY..XY)
27,60 28,10 29,140 31,10
38,10 39,160 40,80 41,1762
42,100 43,190 44,10 45,130
46,10 47,150 48,10 49,10
50,10 51,30 52,20 53,400
54,40 55,550 56,50 57,360
58,60 59,260 60,50 61,120
62,10 63,10 65,100 66,50
67,971 68,871 69,6866 70,400
71,60 73,2993 74,360 75,9999
76,801 77,651 78,60 79,480
80,280 81,3093 82,290 83,220
84,40 85,80 86,10 87,40
88,20 89,591 90,60 91,420
92,170 93,1181 94,210 95,1191
96,120 97,150 98,20 99,110
100,30 101,170 102,30 103,70
104,20 105,430 106,120 107,951
108,190 109,1031 110,110 111,130
112,20 113,110 114,20 115,330
116,50 117,240 118,40 119,631
120,180 121,961 122,320 123,761
124,90 125,110 126,30 127,811
128,170 129,220 130,30 131,80
132,80 133,470 134,290 135,1491
136,631 137,571 138,70 139,40
140,20 141,510 142,150 143,210
144,30 145,130 146,60 147,561
148,290 149,460 150,80 151,70
152,20 153,60 154,30 155,170
156,30 157,40 158,10 159,230
160,60 161,510 162,110 163,200
164,30 165,40 166,10 167,60
168,30 169,100 170,20 171,30
172,10 173,90 174,20 175,170
176,40 177,200 178,40 179,70
180,20 181,40 182,10 183,40
184,10 185,360 186,70 187,180
188,60 189,290 190,100 191,160
192,50 193,70 194,20 195,210
196,40 197,100 198,190 199,80
200,20 201,100 202,50 203,400
204,180 205,70 206,10 207,10
209,60 210,20 211,180 212,30
213,10 215,80 216,30 217,50
218,10 219,20 221,10 222,10
223,230 224,50 225,60 226,40
227,10 228,10 229,110 230,30
231,10 233,10 235,10 236,10
237,20 238,10 239,10 243,20
244,10 245,10 247,10 249,10
250,10 251,40 252,20 253,20
254,10 257,60 258,20 259,80
260,20 261,20 262,10 263,20
264,10 265,40 266,10 267,10
271,170 272,110 273,50 274,10
277,10 278,10 279,20 280,10
291,10 293,10 311,10 319,10
324,10 329,20 335,40 336,10
347,490 348,140 349,40 350,10
361,10 389,20 390,10 404,60
405,20 406,10
##END=
