##TITLE=2-Methyl-3-pentanol, TBDMS derivative
##JCAMP-DX=4.24
##DATA TYPE=MASS SPECTRUM
##ORIGIN=NIST Mass Spectrometry Data Center
##OWNER=NIST Mass Spectrometry Data Center
Collection (C) 2014 copyright by the U.S. Secretary of Commerce
on behalf of the United States of America. All rights reserved.
##$NIST MASS SPEC NO=333316
##MOLFORM=C12 H28 O Si
##MW=216
##$NIST SOURCE=MSDC
##XUNITS=M/Z
##YUNITS=RELATIVE INTENSITY
##XFACTOR=1
##YFACTOR=1
##FIRSTX=15
##LASTX=216
##FIRSTY=10
##MAXX=216
##MINX=15
##MAXY=9999
##MINY=10
##NPOINTS=88
##PEAK TABLE=(XY..XY)
15,10 26,10 27,120 28,20
29,240 30,10 31,30 39,120
40,20 41,410 42,50 43,320
44,40 45,400 46,30 47,320
48,20 49,10 51,10 53,30
54,10 55,140 56,40 57,250
58,200 59,691 60,120 61,250
62,20 63,10 65,10 67,20
69,30 70,10 71,40 73,2873
74,370 75,9999 76,731 77,360
78,10 79,10 81,10 82,10
83,40 84,20 85,170 86,20
87,60 88,20 89,40 90,10
97,30 98,10 99,150 100,50
101,290 102,30 103,10 111,10
113,30 115,581 116,90 117,330
118,30 119,10 127,10 129,70
130,30 131,250 132,30 143,20
145,10 157,10 159,5385 160,761
161,230 162,20 173,711 174,110
175,30 187,530 188,80 189,20
201,100 202,20 215,20 216,20
##END=
