##TITLE=Bis(heptyloxy)(dimethyl)silane
##JCAMP-DX=4.24
##DATA TYPE=MASS SPECTRUM
##ORIGIN=NIST Mass Spectrometry Data Center
##OWNER=NIST Mass Spectrometry Data Center
Collection (C) 2014 copyright by the U.S. Secretary of Commerce
on behalf of the United States of America. All rights reserved.
##$NIST MASS SPEC NO=334093
##MOLFORM=C16 H36 O2 Si
##MW=288
##$NIST SOURCE=MSDC
##XUNITS=M/Z
##YUNITS=RELATIVE INTENSITY
##XFACTOR=1
##YFACTOR=1
##FIRSTX=15
##LASTX=289
##FIRSTY=10
##MAXX=289
##MINX=15
##MAXY=9999
##MINY=10
##NPOINTS=153
##PEAK TABLE=(XY..XY)
15,10 26,20 27,340 28,110
29,871 30,20 31,20 39,280
40,60 41,1441 42,310 43,1531
44,60 45,260 46,20 47,200
48,10 49,10 51,10 52,10
53,100 54,90 55,2482 56,400
57,921 58,210 59,490 60,120
61,460 62,40 63,150 64,10
65,20 66,10 67,140 68,130
69,601 70,330 71,80 72,40
73,40 74,110 75,3743 76,340
77,3473 78,220 79,200 80,10
81,130 82,20 83,110 84,20
85,140 86,40 87,350 88,200
89,1571 90,210 91,611 92,40
93,641 94,50 95,80 97,3023
98,320 99,390 100,80 101,921
102,110 103,631 104,70 105,400
106,30 107,230 108,20 109,20
111,40 112,10 113,130 114,50
115,881 116,110 117,781 118,90
119,671 120,60 121,30 125,10
127,60 128,20 129,280 130,50
131,450 132,50 133,80 134,10
139,10 141,20 142,10 143,70
144,20 145,330 146,40 147,30
151,10 155,20 156,10 157,210
158,30 159,120 160,20 161,10
171,70 172,60 173,1651 174,260
175,1061 176,140 177,50 187,40
188,10 189,190 190,30 191,190
192,30 199,20 201,70 203,2422
204,400 205,120 206,10 215,250
216,40 217,30 229,90 230,20
231,40 232,10 243,20 245,30
246,10 247,10 257,140 258,30
259,20 273,9999 274,5365 275,1551
276,210 277,20 287,70 288,40
289,20
##END=
