##TITLE=Dimethyl[bis(3-methylbutoxy)]silane
##JCAMP-DX=4.24
##DATA TYPE=MASS SPECTRUM
##ORIGIN=NIST Mass Spectrometry Data Center
##OWNER=NIST Mass Spectrometry Data Center
Collection (C) 2014 copyright by the U.S. Secretary of Commerce
on behalf of the United States of America. All rights reserved.
##$NIST MASS SPEC NO=334101
##MOLFORM=C12 H28 O2 Si
##MW=232
##$NIST SOURCE=MSDC
##XUNITS=M/Z
##YUNITS=RELATIVE INTENSITY
##XFACTOR=1
##YFACTOR=1
##FIRSTX=15
##LASTX=233
##FIRSTY=30
##MAXX=233
##MINX=15
##MAXY=9999
##MINY=10
##NPOINTS=126
##PEAK TABLE=(XY..XY)
15,30 26,10 27,370 28,70
29,440 30,10 31,30 39,370
40,70 41,1381 42,260 43,1942
44,90 45,470 46,40 47,370
48,20 49,10 51,20 53,90
54,30 55,661 56,70 57,140
58,300 59,841 60,190 61,581
62,60 63,160 64,10 65,10
66,10 67,50 69,5225 70,811
71,1181 72,160 73,110 74,210
75,3944 76,380 77,2462 78,150
79,100 81,10 83,30 84,10
85,100 86,20 87,470 88,260
89,3523 90,360 91,2162 92,170
93,290 94,20 95,20 97,40
98,10 99,180 100,30 101,571
102,150 103,601 104,90 105,2612
106,230 107,460 108,20 109,10
111,50 112,10 113,90 114,20
115,300 116,50 117,721 118,90
119,3473 120,340 121,150 122,10
125,10 127,30 128,10 129,781
130,100 131,430 132,50 133,120
134,10 141,10 143,160 145,1752
146,240 147,641 148,70 149,230
150,30 151,10 159,260 160,30
161,1822 162,240 163,180 164,20
173,60 175,1511 176,210 177,70
178,10 187,20 189,20 201,70
202,10 215,30 217,9999 218,2562
219,761 220,80 221,10 231,60
232,30 233,10
##END=
