##TITLE=1-Pentanol, picolinyloxydimethylsilyl ether
##JCAMP-DX=4.24
##DATA TYPE=MASS SPECTRUM
##ORIGIN=NIST Mass Spectrometry Data Center
##OWNER=NIST Mass Spectrometry Data Center
Collection (C) 2014 copyright by the U.S. Secretary of Commerce
on behalf of the United States of America. All rights reserved.
##$NIST MASS SPEC NO=334081
##MOLFORM=C13 H23 N O2 Si
##MW=253
##$NIST SOURCE=MSDC
##XUNITS=M/Z
##YUNITS=RELATIVE INTENSITY
##XFACTOR=1
##YFACTOR=1
##FIRSTX=15
##LASTX=256
##FIRSTY=30
##MAXX=256
##MINX=15
##MAXY=9999
##MINY=10
##NPOINTS=180
##PEAK TABLE=(XY..XY)
15,30 26,30 27,330 28,110
29,651 30,20 31,30 37,10
38,70 39,991 40,90 41,1021
42,270 43,931 44,60 45,591
46,40 47,370 48,20 49,20
50,60 51,170 52,110 53,180
54,40 55,310 56,50 57,100
58,340 59,821 60,180 61,550
62,100 63,330 64,250 65,2732
66,210 67,80 68,40 69,450
70,70 71,110 72,20 73,30
74,130 75,3653 76,340 77,1051
78,250 79,160 80,320 81,60
83,1161 85,150 86,50 87,90
88,100 89,1331 90,170 91,370
92,9999 93,1421 94,500 95,100
96,30 97,70 98,130 99,150
100,40 101,190 102,40 103,130
104,80 105,240 106,380 107,150
108,671 109,140 110,50 111,110
112,50 113,50 114,10 115,80
116,20 117,210 118,70 119,60
120,90 121,50 122,260 123,80
124,100 125,160 126,40 127,40
128,10 129,60 130,20 131,130
132,50 133,30 134,70 135,160
136,2082 137,340 138,2012 139,300
140,130 141,70 142,10 143,20
145,390 146,70 147,50 148,290
149,110 150,1651 151,430 152,1231
153,180 154,110 155,20 159,30
160,20 161,120 162,60 163,30
164,150 165,350 166,3984 167,1682
168,6996 169,961 170,420 171,40
172,10 174,10 178,40 179,10
180,100 182,3433 183,991 184,490
185,70 186,20 190,10 192,40
193,10 194,70 196,2322 197,801
198,180 199,30 206,10 208,891
209,180 210,1171 211,701 212,130
213,30 220,10 221,10 222,90
223,20 224,300 225,170 226,30
227,10 236,20 238,7116 239,1351
240,380 241,40 250,10 252,280
253,7186 254,1461 255,410 256,50
##END=
