##TITLE=2-Iodo-3-nitrotoluene
##JCAMP-DX=4.24
##DATA TYPE=MASS SPECTRUM
##ORIGIN=Frank Antolasic, RMIT Applied Chemistry Department, Victoria Australia 3001
##OWNER=NIST Mass Spectrometry Data Center
Collection (C) 2014 copyright by the U.S. Secretary of Commerce
on behalf of the United States of America. All rights reserved.
##$NIST MASS SPEC NO=334513
##MOLFORM=C7 H6 I N O2
##MW=263
##$NIST SOURCE=MSDC
##XUNITS=M/Z
##YUNITS=RELATIVE INTENSITY
##XFACTOR=1
##YFACTOR=1
##FIRSTX=12
##LASTX=406
##FIRSTY=0
##MAXX=406
##MINX=12
##MAXY=9999
##MINY=0
##NPOINTS=172
##PEAK TABLE=(XY..XY)
12,0 14,0 15,10 16,0
17,0 18,10 25,0 26,20
27,70 28,40 29,10 30,220
31,10 32,0 36,10 37,90
38,220 39,581 40,100 41,20
42,10 43,70 44,10 46,60
47,0 48,10 49,60 50,330
51,500 52,270 53,480 54,30
55,10 56,0 60,20 61,240
62,721 63,2062 64,851 65,160
66,20 67,30 68,10 69,0
72,0 73,50 74,240 75,230
76,100 77,280 78,1041 79,80
80,80 81,50 82,0 83,0
84,20 85,100 86,220 87,190
88,110 89,4504 90,7257 91,661
92,30 93,0 94,0 95,0
96,0 98,0 99,10 100,0
101,0 102,10 103,10 104,10
105,240 106,871 107,80 108,20
109,0 116,0 117,0 118,0
119,10 120,0 121,20 122,0
123,10 127,450 128,70 132,70
133,0 134,0 136,530 137,50
138,0 139,10 140,0 141,10
143,20 144,0 150,0 151,0
152,10 153,10 154,0 155,0
156,0 157,0 160,0 163,0
164,40 165,70 166,0 167,0
171,0 173,0 174,0 175,0
176,50 177,30 178,0 179,0
187,0 188,10 189,40 190,0
191,20 192,0 193,0 195,0
200,0 201,0 202,0 203,0
204,0 205,90 206,10 207,0
208,0 213,0 214,0 215,10
216,791 217,1621 218,140 219,10
220,0 221,0 231,0 233,350
234,30 235,0 243,0 244,0
246,871 247,170 248,10 249,0
253,0 259,0 263,9999 264,871
265,80 266,0 267,0 269,0
327,0 331,0 405,0 406,0
##END=
