##TITLE=(-)-Myrtenol, TMS derivative
##JCAMP-DX=4.24
##DATA TYPE=MASS SPECTRUM
##ORIGIN=NIST Mass Spectrometry Data Center
##OWNER=NIST Mass Spectrometry Data Center
Collection (C) 2014 copyright by the U.S. Secretary of Commerce
on behalf of the United States of America. All rights reserved.
##$NIST MASS SPEC NO=334016
##MOLFORM=C13 H24 O Si
##MW=224
##$NIST SOURCE=MSDC
##XUNITS=M/Z
##YUNITS=RELATIVE INTENSITY
##XFACTOR=1
##YFACTOR=1
##FIRSTX=15
##LASTX=226
##FIRSTY=20
##MAXX=226
##MINX=15
##MAXY=9999
##MINY=10
##NPOINTS=156
##PEAK TABLE=(XY..XY)
15,20 27,290 28,40 29,280
30,10 31,50 39,721 40,130
41,1441 42,130 43,1281 44,190
45,1331 46,100 47,601 48,30
49,20 50,60 51,300 52,160
53,721 54,90 55,470 56,130
57,120 58,330 59,631 60,140
61,380 62,50 63,130 64,40
65,681 66,160 67,370 68,90
69,330 70,50 71,60 73,9579
74,1061 75,4604 76,380 77,1651
78,540 79,1411 80,220 81,220
82,120 83,200 84,20 85,100
86,10 87,50 88,110 89,550
91,9999 92,2512 93,1571 94,170
95,240 96,100 97,140 98,30
99,170 100,20 101,110 103,6306
104,761 105,1641 106,711 107,330
108,60 109,80 110,10 111,100
112,20 113,80 114,20 115,280
116,80 117,460 119,5185 120,591
121,470 122,50 123,80 124,20
125,120 126,20 127,581 128,80
129,190 130,30 131,100 132,20
133,450 134,1261 135,831 136,70
137,110 138,20 139,80 140,30
141,100 142,861 143,200 144,60
145,20 147,30 148,10 149,200
150,30 151,150 152,20 153,130
154,40 155,611 156,80 157,270
158,40 159,20 161,20 163,70
165,5015 166,841 167,561 168,220
169,80 170,120 171,20 175,10
177,70 178,10 179,190 180,621
181,1101 182,240 183,200 184,30
185,10 191,100 192,20 193,20
194,10 195,30 196,30 197,10
207,20 209,510 210,90 211,20
223,20 224,571 225,110 226,30
##END=
