##TITLE=(2E)-Dodec-2-en-1-yl methyl ether
##JCAMP-DX=4.24
##DATA TYPE=MASS SPECTRUM
##ORIGIN=NIST Mass Spectrometry Data Center
##OWNER=NIST Mass Spectrometry Data Center
Collection (C) 2014 copyright by the U.S. Secretary of Commerce
on behalf of the United States of America. All rights reserved.
##$NIST MASS SPEC NO=334063
##MOLFORM=C13 H26 O
##MW=198
##$NIST SOURCE=MSDC
##XUNITS=M/Z
##YUNITS=RELATIVE INTENSITY
##XFACTOR=1
##YFACTOR=1
##FIRSTX=15
##LASTX=199
##FIRSTY=20
##MAXX=199
##MINX=15
##MAXY=9999
##MINY=10
##NPOINTS=88
##PEAK TABLE=(XY..XY)
15,20 26,20 27,350 28,100
29,711 30,20 31,20 33,20
39,661 40,120 41,2582 42,320
43,1281 44,50 45,1251 46,30
50,20 51,60 52,50 53,641
54,971 55,2112 56,400 57,540
58,1672 59,320 60,10 63,10
65,140 66,290 67,1712 68,1461
69,961 71,9999 72,711 73,50
77,110 78,20 79,260 80,140
81,1381 82,2692 83,771 84,280
85,2252 86,190 87,40 91,40
92,10 93,60 94,80 95,1221
96,1461 97,540 98,130 99,140
100,40 107,10 108,30 109,671
110,671 111,150 112,20 113,260
114,40 115,10 122,20 123,330
124,320 125,50 127,240 128,20
129,10 136,10 137,150 138,240
139,30 141,100 142,10 151,10
155,70 156,10 166,260 167,40
169,10 197,10 198,90 199,10
##END=
