##TITLE=2-Aminobiphenyl, TMS derivative
##JCAMP-DX=4.24
##DATA TYPE=MASS SPECTRUM
##ORIGIN=NIST Mass Spectrometry Data Center
##OWNER=NIST Mass Spectrometry Data Center
Collection (C) 2014 copyright by the U.S. Secretary of Commerce
on behalf of the United States of America. All rights reserved.
##$NIST MASS SPEC NO=334009
##MOLFORM=C15 H19 N Si
##MW=241
##$NIST SOURCE=MSDC
##XUNITS=M/Z
##YUNITS=RELATIVE INTENSITY
##XFACTOR=1
##YFACTOR=1
##FIRSTX=15
##LASTX=245
##FIRSTY=10
##MAXX=245
##MINX=15
##MAXY=9999
##MINY=10
##NPOINTS=180
##PEAK TABLE=(XY..XY)
15,10 27,50 28,30 29,70
30,10 31,40 38,10 39,130
40,10 41,20 42,40 43,581
44,270 45,881 46,80 47,30
50,70 51,180 52,60 53,140
54,60 55,100 56,50 57,90
58,160 59,290 60,40 61,20
62,60 63,210 64,50 65,110
66,50 67,70 68,30 69,40
70,50 71,40 73,1932 74,330
75,170 76,100 77,230 78,80
79,50 80,20 81,20 82,20
83,40 84,90 85,30 86,40
87,70 88,70 89,210 90,60
91,200 92,130 93,60 94,20
95,20 98,130 99,20 100,20
101,50 102,100 103,100 105,1051
107,20 108,20 109,10 110,20
111,20 112,10 113,370 114,120
115,621 116,100 117,110 118,60
119,100 120,80 121,40 122,10
125,20 126,100 127,130 128,120
129,100 130,80 131,70 132,160
133,50 134,120 135,50 136,10
137,20 138,40 139,581 140,340
141,260 142,90 143,110 144,70
145,60 146,80 147,40 148,90
149,20 150,70 151,180 152,571
153,210 154,100 155,140 156,110
157,50 158,20 159,20 160,60
161,10 162,20 163,30 164,80
165,500 166,661 167,2092 168,1041
169,310 170,110 171,30 172,10
174,10 177,10 178,40 179,70
180,921 181,410 182,180 183,230
184,200 185,50 186,10 191,10
192,30 193,190 194,681 195,561
196,470 197,110 198,50 199,10
205,10 206,170 207,70 208,160
210,9659 211,2152 212,571 213,70
214,10 220,30 221,20 222,90
223,40 224,320 226,9999 227,2312
228,591 229,70 230,10 236,10
237,10 238,30 239,40 241,9138
242,2202 243,571 244,70 245,10
##END=
