##TITLE=9,9-Dimethyl-5,8,10,13-tetraoxa-9-silaheptadecane
##JCAMP-DX=4.24
##DATA TYPE=MASS SPECTRUM
##ORIGIN=NIST Mass Spectrometry Data Center
##OWNER=NIST Mass Spectrometry Data Center
Collection (C) 2014 copyright by the U.S. Secretary of Commerce
on behalf of the United States of America. All rights reserved.
##$NIST MASS SPEC NO=334099
##MOLFORM=C14 H32 O4 Si
##MW=292
##$NIST SOURCE=MSDC
##XUNITS=M/Z
##YUNITS=RELATIVE INTENSITY
##XFACTOR=1
##YFACTOR=1
##FIRSTX=15
##LASTX=279
##FIRSTY=10
##MAXX=279
##MINX=15
##MAXY=9999
##MINY=10
##NPOINTS=106
##PEAK TABLE=(XY..XY)
15,10 26,20 27,210 28,100
29,1011 30,30 31,50 39,180
41,1832 42,100 43,220 44,90
45,470 46,20 47,100 48,10
51,10 53,40 54,20 55,310
56,651 57,3883 58,470 59,510
60,100 61,310 62,30 63,60
66,10 67,10 69,10 70,10
71,50 72,90 73,130 74,140
75,4724 76,390 77,931 78,50
79,50 83,20 85,500 86,40
87,440 88,310 89,460 90,100
91,180 92,20 93,10 99,40
100,300 101,711 102,190 103,2292
104,230 105,260 106,20 107,10
113,10 115,100 116,70 117,1051
118,270 119,8167 120,911 121,971
122,70 123,30 128,10 129,20
131,701 132,80 133,190 134,30
135,40 145,40 147,1331 148,150
149,70 150,10 157,10 159,180
160,20 161,20 163,20 165,1241
166,130 167,60 172,10 173,70
175,9999 176,1852 177,631 178,50
179,10 190,20 191,70 192,10
221,220 222,30 223,20 277,360
278,70 279,20
##END=
