##TITLE=Dimethylpyrrolbis[(2-methylpentyl)oxy]morphosilane
##JCAMP-DX=4.24
##DATA TYPE=MASS SPECTRUM
##ORIGIN=NIST Mass Spectrometry Data Center
##OWNER=NIST Mass Spectrometry Data Center
Collection (C) 2014 copyright by the U.S. Secretary of Commerce
on behalf of the United States of America. All rights reserved.
##$NIST MASS SPEC NO=334111
##MOLFORM=C14 H32 O2 Si
##MW=260
##$NIST SOURCE=MSDC
##XUNITS=M/Z
##YUNITS=RELATIVE INTENSITY
##XFACTOR=1
##YFACTOR=1
##FIRSTX=15
##LASTX=260
##FIRSTY=10
##MAXX=260
##MINX=15
##MAXY=9999
##MINY=10
##NPOINTS=123
##PEAK TABLE=(XY..XY)
15,10 26,20 27,480 28,40
29,751 30,20 31,40 38,10
39,390 40,70 41,1621 42,500
43,2652 44,100 45,480 46,40
47,611 48,30 49,20 51,10
52,10 53,140 54,50 55,1722
56,701 58,771 59,1031 60,340
61,701 62,70 63,210 64,10
65,20 66,10 67,90 68,20
69,500 70,140 71,210 72,40
74,70 75,9999 76,821 77,7237
78,440 79,290 81,30 83,5645
84,1131 86,60 87,120 88,631
89,3313 90,530 91,801 92,60
93,450 94,30 95,40 97,50
98,20 99,230 100,40 101,360
102,40 103,1631 104,150 105,871
106,70 107,1091 108,70 109,30
111,40 112,10 113,100 114,30
115,390 116,60 117,400 118,30
119,2903 120,280 121,110 125,10
127,30 128,10 129,90 130,10
131,210 132,30 133,1131 134,110
141,10 143,290 144,40 145,220
146,30 147,70 157,140 158,90
159,2883 160,410 161,2112 162,230
173,80 174,30 175,370 176,50
177,100 187,30 189,4664 190,711
201,10 203,10 215,10 217,10
229,20 245,8388 246,1672 247,480
248,60 259,20 260,20
##END=
