##TITLE=3-Buten-1-ol, picolinyloxydimethylsilyl ether
##JCAMP-DX=4.24
##DATA TYPE=MASS SPECTRUM
##ORIGIN=NIST Mass Spectrometry Data Center
##OWNER=NIST Mass Spectrometry Data Center
Collection (C) 2014 copyright by the U.S. Secretary of Commerce
on behalf of the United States of America. All rights reserved.
##$NIST MASS SPEC NO=334079
##MOLFORM=C12 H19 N O2 Si
##MW=237
##$NIST SOURCE=MSDC
##XUNITS=M/Z
##YUNITS=RELATIVE INTENSITY
##XFACTOR=1
##YFACTOR=1
##FIRSTX=15
##LASTX=240
##FIRSTY=30
##MAXX=240
##MINX=15
##MAXY=9999
##MINY=10
##NPOINTS=172
##PEAK TABLE=(XY..XY)
15,30 26,50 27,330 28,120
29,350 30,20 31,50 37,30
38,150 39,2102 40,150 41,581
42,110 43,540 44,40 45,1131
46,80 47,641 48,30 49,30
50,140 51,370 52,230 53,440
54,170 55,470 56,50 57,70
58,631 59,1682 60,280 61,681
62,160 63,530 64,380 65,4294
66,330 67,80 68,50 69,90
70,50 71,200 72,40 74,150
75,2042 76,250 77,611 78,300
79,160 80,300 81,80 83,1551
85,390 86,80 87,180 88,150
89,4044 90,390 91,460 92,9999
93,1061 94,140 95,120 96,50
97,200 98,200 99,841 100,160
101,1001 102,110 103,180 104,100
105,90 106,410 107,170 108,681
109,140 110,60 111,270 112,60
113,190 114,40 115,1742 116,220
117,170 118,160 119,70 120,100
121,70 122,260 123,100 124,80
125,70 126,20 127,30 128,20
129,250 130,130 131,80 132,340
133,60 134,80 135,220 136,4614
137,701 138,561 139,190 140,40
141,20 142,10 143,50 144,40
145,110 146,120 147,40 148,410
149,130 150,3904 151,671 152,510
153,70 154,30 155,10 157,10
158,10 159,10 160,20 161,10
162,180 163,70 164,350 165,370
166,9499 167,1461 168,1121 169,140
170,30 174,20 176,50 177,10
178,20 179,10 180,180 181,50
182,380 183,80 184,20 190,20
191,10 192,90 193,20 194,370
195,180 196,9619 197,1471 198,460
199,50 206,20 208,80 209,100
210,20 220,10 222,1131 223,210
224,70 225,10 234,10 236,340
237,5425 238,1041 239,300 240,30
##END=
