##TITLE=Dimethyl(bis[(3Z)-non-3-en-1-yloxy])silane
##JCAMP-DX=4.24
##DATA TYPE=MASS SPECTRUM
##ORIGIN=NIST Mass Spectrometry Data Center
##OWNER=NIST Mass Spectrometry Data Center
Collection (C) 2014 copyright by the U.S. Secretary of Commerce
on behalf of the United States of America. All rights reserved.
##$NIST MASS SPEC NO=334086
##MOLFORM=C20 H40 O2 Si
##MW=340
##$NIST SOURCE=MSDC
##XUNITS=M/Z
##YUNITS=RELATIVE INTENSITY
##XFACTOR=1
##YFACTOR=1
##FIRSTX=15
##LASTX=342
##FIRSTY=10
##MAXX=342
##MINX=15
##MAXY=9999
##MINY=10
##NPOINTS=211
##PEAK TABLE=(XY..XY)
15,10 26,20 27,400 28,110
29,1101 30,30 31,10 39,581
40,130 41,2933 42,540 43,811
44,30 45,240 46,20 47,300
48,20 49,10 50,10 51,50
52,40 53,500 54,1031 55,3053
56,390 57,921 58,550 59,1451
60,200 61,571 62,50 63,70
64,20 65,140 66,270 67,3613
68,2542 69,4434 70,420 71,260
72,70 73,260 75,9999 76,791
77,1591 78,170 79,631 80,230
81,6466 82,3343 83,2402 84,190
85,520 86,70 87,340 88,881
89,2903 90,310 91,440 93,280
94,160 95,5745 96,1411 97,981
98,220 99,1551 100,320 101,4094
102,440 103,1822 104,180 105,4284
106,350 107,340 108,60 109,621
110,200 111,621 112,280 113,1151
114,270 115,1241 116,160 117,460
118,80 119,1331 120,130 121,160
122,170 123,1301 124,7927 125,1251
126,120 127,1411 128,230 129,2642
130,340 131,2833 132,310 133,260
134,20 135,100 136,30 137,1852
138,240 139,110 140,40 141,450
142,250 143,1141 144,210 145,1201
146,150 147,130 148,10 149,80
150,50 151,70 152,10 153,60
154,10 155,210 156,40 157,420
158,80 159,721 160,100 161,70
162,10 163,130 164,90 165,20
167,10 169,691 170,120 171,530
172,90 173,130 174,80 175,50
176,10 177,140 178,60 179,10
181,60 182,10 183,200 184,10
185,160 186,30 187,40 188,40
189,10 191,100 192,30 193,10
194,10 195,10 197,30 199,9328
200,1661 201,761 202,100 203,30
205,30 206,10 207,20 211,180
212,40 213,90 214,60 215,130
216,30 217,90 218,20 219,40
220,20 221,10 222,20 227,40
229,4384 230,811 231,320 232,40
233,10 235,20 241,10 242,10
243,10 247,10 248,40 249,10
255,40 256,10 257,10 269,30
270,10 283,40 284,10 297,20
298,20 299,10 311,10 325,190
326,50 327,30 328,10 339,10
340,90 341,30 342,10
##END=
