##TITLE=3-Methoxymethamphetamine
##JCAMP-DX=4.24
##DATA TYPE=MASS SPECTRUM
##ORIGIN=Drug Lab
##OWNER=NIST Mass Spectrometry Data Center
Collection (C) 2014 copyright by the U.S. Secretary of Commerce
on behalf of the United States of America. All rights reserved.
##$NIST MASS SPEC NO=335169
##MOLFORM=C11 H17 N O
##MW=179
##$NIST SOURCE=MSDC
##XUNITS=M/Z
##YUNITS=RELATIVE INTENSITY
##XFACTOR=1
##YFACTOR=1
##FIRSTX=40
##LASTX=178
##FIRSTY=20
##MAXX=178
##MINX=40
##MAXY=9999
##MINY=10
##NPOINTS=70
##PEAK TABLE=(XY..XY)
40,20 41,100 42,290 43,120
44,30 50,60 51,150 52,110
53,50 54,20 55,30 56,490
57,130 58,9999 59,390 62,30
63,130 64,60 65,220 66,20
67,10 70,10 71,10 74,20
75,20 76,30 77,330 78,420
79,100 80,20 82,20 89,120
90,50 91,480 92,70 93,20
94,30 102,20 103,60 104,40
105,50 106,50 107,40 108,50
109,10 115,70 116,20 117,60
118,30 119,20 120,30 121,460
122,80 123,30 130,10 131,20
132,60 133,30 134,40 135,10
146,10 147,30 148,50 149,40
162,30 163,10 164,100 165,10
177,10 178,30
##END=
