##TITLE=Silane, dimethyloctyloxyisobutoxy-
##JCAMP-DX=4.24
##DATA TYPE=MASS SPECTRUM
##ORIGIN=V.G. Zaikin, R.S.Borisov, TIPS RAS, Moscow, Russia
##OWNER=NIST Mass Spectrometry Data Center
Collection (C) 2014 copyright by the U.S. Secretary of Commerce
on behalf of the United States of America. All rights reserved.
##$NIST MASS SPEC NO=346740
##MOLFORM=C14 H32 O2 Si
##MW=260
##$NIST SOURCE=MSDC
##XUNITS=M/Z
##YUNITS=RELATIVE INTENSITY
##XFACTOR=1
##YFACTOR=1
##FIRSTX=27
##LASTX=259
##FIRSTY=60
##MAXX=259
##MINX=27
##MAXY=9999
##MINY=10
##NPOINTS=83
##PEAK TABLE=(XY..XY)
27,60 29,130 39,50 41,290
42,40 43,210 45,100 47,80
55,370 56,90 57,290 58,80
59,170 60,40 61,180 63,50
67,50 68,20 69,1331 70,100
71,70 74,30 75,2062 76,150
77,2022 78,120 79,90 81,30
82,10 83,90 84,20 85,30
87,80 88,80 89,981 90,110
91,280 93,130 99,70 101,230
102,20 103,180 105,160 107,110
111,190 112,20 113,30 115,190
116,10 117,170 119,270 120,20
129,110 131,601 132,60 133,330
134,30 143,30 145,80 147,90
159,70 161,1081 162,130 163,30
171,40 173,20 185,20 187,991
188,150 189,530 190,70 191,10
201,10 203,30 217,1451 218,260
219,70 229,20 245,9999 246,1952
247,561 248,60 259,30
##END=
