##TITLE=Silane, dimethyl(2-pentyloxy)pentyloxy-
##JCAMP-DX=4.24
##DATA TYPE=MASS SPECTRUM
##ORIGIN=V.G. Zaikin, R.S.Borisov, TIPS RAS, Moscow, Russia
##OWNER=NIST Mass Spectrometry Data Center
Collection (C) 2014 copyright by the U.S. Secretary of Commerce
on behalf of the United States of America. All rights reserved.
##$NIST MASS SPEC NO=346857
##MOLFORM=C12 H28 O2 Si
##MW=232
##$NIST SOURCE=MSDC
##XUNITS=M/Z
##YUNITS=RELATIVE INTENSITY
##XFACTOR=1
##YFACTOR=1
##FIRSTX=27
##LASTX=231
##FIRSTY=120
##MAXX=231
##MINX=27
##MAXY=9999
##MINY=20
##NPOINTS=71
##PEAK TABLE=(XY..XY)
27,120 29,180 39,80 41,310
42,100 43,340 45,260 47,210
55,150 57,30 58,160 59,350
60,80 61,290 62,20 63,100
69,721 70,160 71,60 72,20
73,30 74,90 75,3924 76,320
77,2572 78,150 79,100 85,50
87,120 88,120 89,831 90,100
91,280 93,100 99,100 101,450
102,80 103,1171 104,100 105,160
113,20 115,120 117,160 119,200
121,30 129,190 130,20 131,460
132,50 133,190 143,30 144,20
145,5605 146,731 147,2903 148,330
149,80 159,90 161,80 173,70
175,1421 176,190 177,50 189,9999
190,1511 191,450 192,30 217,3583
218,611 219,170 231,110
##END=
