##TITLE=Silane, dimethyl(2-methylphenoxy)octyloxy-
##JCAMP-DX=4.24
##DATA TYPE=MASS SPECTRUM
##ORIGIN=V.G. Zaikin, R.S.Borisov, TIPS RAS, Moscow, Russia
##OWNER=NIST Mass Spectrometry Data Center
Collection (C) 2014 copyright by the U.S. Secretary of Commerce
on behalf of the United States of America. All rights reserved.
##$NIST MASS SPEC NO=346957
##MOLFORM=C17 H30 O2 Si
##MW=294
##$NIST SOURCE=MSDC
##XUNITS=M/Z
##YUNITS=RELATIVE INTENSITY
##XFACTOR=1
##YFACTOR=1
##FIRSTX=27
##LASTX=297
##FIRSTY=80
##MAXX=297
##MINX=27
##MAXY=9999
##MINY=10
##NPOINTS=93
##PEAK TABLE=(XY..XY)
27,80 29,130 39,80 41,410
42,40 45,100 47,90 51,20
53,30 55,550 56,90 57,280
58,40 59,280 60,20 61,120
63,20 65,100 67,40 68,20
69,1471 70,100 74,30 75,1722
76,120 77,250 78,40 79,60
82,150 83,100 84,20 85,30
87,40 88,10 89,240 90,50
91,2472 92,190 99,70 101,140
103,60 104,20 105,280 106,20
107,90 109,20 111,120 115,70
121,60 129,20 131,40 133,20
135,611 136,70 137,180 147,150
148,190 149,1882 150,300 151,390
152,40 153,30 161,80 163,561
164,2252 165,3323 166,621 167,3593
168,510 169,240 171,40 175,30
177,50 179,280 180,50 181,2072
182,1992 183,380 184,90 187,310
188,30 189,20 193,60 195,1001
196,160 197,40 279,2172 280,480
281,150 294,9999 295,2402 296,611
297,100
##END=
