##TITLE=Silane, dimethyl(2-ethylhexyloxy)ethoxy-
##JCAMP-DX=4.24
##DATA TYPE=MASS SPECTRUM
##ORIGIN=V.G. Zaikin, R.S.Borisov, TIPS RAS, Moscow, Russia
##OWNER=NIST Mass Spectrometry Data Center
Collection (C) 2014 copyright by the U.S. Secretary of Commerce
on behalf of the United States of America. All rights reserved.
##$NIST MASS SPEC NO=346793
##MOLFORM=C12 H28 O2 Si
##MW=232
##$NIST SOURCE=MSDC
##XUNITS=M/Z
##YUNITS=RELATIVE INTENSITY
##XFACTOR=1
##YFACTOR=1
##FIRSTX=27
##LASTX=232
##FIRSTY=120
##MAXX=232
##MINX=27
##MAXY=9999
##MINY=20
##NPOINTS=87
##PEAK TABLE=(XY..XY)
27,120 29,250 39,90 41,450
42,60 43,280 45,190 47,180
53,40 54,30 55,430 56,370
57,260 58,130 59,530 60,80
61,330 62,20 63,110 67,40
68,30 69,510 70,450 71,90
72,30 73,160 74,80 75,2092
76,170 77,1411 78,80 79,60
81,20 82,40 83,310 84,140
85,30 87,100 88,150 89,3653
90,330 91,270 93,50 97,30
98,100 99,50 101,120 102,60
103,4834 104,480 105,6436 106,561
107,330 111,120 112,400 113,40
115,70 117,160 118,40 119,470
120,40 121,751 122,60 129,50
131,80 133,6506 134,731 135,831
136,70 143,30 145,50 147,140
159,100 161,30 162,20 171,20
173,80 175,40 187,110 201,30
203,20 217,9999 218,1742 219,490
220,40 231,40 232,20
##END=
