##TITLE=Silane, dimethylhexyloxyheptyloxy-
##JCAMP-DX=4.24
##DATA TYPE=MASS SPECTRUM
##ORIGIN=V.G. Zaikin, R.S.Borisov, TIPS RAS, Moscow, Russia
##OWNER=NIST Mass Spectrometry Data Center
Collection (C) 2014 copyright by the U.S. Secretary of Commerce
on behalf of the United States of America. All rights reserved.
##$NIST MASS SPEC NO=346907
##MOLFORM=C15 H34 O2 Si
##MW=274
##$NIST SOURCE=MSDC
##XUNITS=M/Z
##YUNITS=RELATIVE INTENSITY
##XFACTOR=1
##YFACTOR=1
##FIRSTX=27
##LASTX=273
##FIRSTY=50
##MAXX=273
##MINX=27
##MAXY=9999
##MINY=10
##NPOINTS=73
##PEAK TABLE=(XY..XY)
27,50 29,100 39,30 41,200
42,40 43,220 45,70 47,50
55,651 56,110 57,130 58,40
59,120 60,20 61,140 63,40
67,20 69,100 70,50 74,20
75,1311 76,100 77,1531 78,90
79,70 83,410 84,40 85,40
87,70 88,40 89,601 90,60
91,190 93,200 97,440 98,40
99,60 101,200 103,150 105,120
107,50 113,10 115,180 117,170
119,210 129,30 131,90 143,30
145,70 157,40 159,450 160,60
161,330 162,30 173,380 174,50
175,240 176,30 177,20 189,711
190,110 191,40 201,40 203,621
204,100 205,20 215,30 243,40
259,9999 260,2092 261,581 262,70
273,20
##END=
