##TITLE=Silane, dimethyl(2-methylphenoxy)decyloxy-
##JCAMP-DX=4.24
##DATA TYPE=MASS SPECTRUM
##ORIGIN=V.G. Zaikin, R.S.Borisov, TIPS RAS, Moscow, Russia
##OWNER=NIST Mass Spectrometry Data Center
Collection (C) 2014 copyright by the U.S. Secretary of Commerce
on behalf of the United States of America. All rights reserved.
##$NIST MASS SPEC NO=346959
##MOLFORM=C19 H34 O2 Si
##MW=322
##$NIST SOURCE=MSDC
##XUNITS=M/Z
##YUNITS=RELATIVE INTENSITY
##XFACTOR=1
##YFACTOR=1
##FIRSTX=27
##LASTX=325
##FIRSTY=110
##MAXX=325
##MINX=27
##MAXY=9999
##MINY=10
##NPOINTS=96
##PEAK TABLE=(XY..XY)
27,110 29,260 39,90 41,611
42,80 43,701 45,80 47,70
51,10 53,30 54,20 55,871
56,110 57,410 58,50 59,250
61,120 65,80 67,60 68,30
69,761 70,90 71,160 74,20
75,1692 76,120 77,220 78,30
79,50 81,50 82,120 83,1171
84,90 85,90 87,40 89,240
90,40 91,2392 92,190 95,20
97,540 98,30 99,80 101,150
103,40 104,20 105,270 106,20
107,90 113,20 115,90 121,40
127,20 129,30 131,30 135,581
136,60 137,160 147,120 148,170
149,1742 150,270 151,360 152,40
153,20 161,70 163,530 164,2362
165,3403 166,601 167,3333 168,450
169,210 175,30 177,50 179,300
180,50 181,2072 182,2422 183,470
184,100 191,20 193,80 195,1011
196,160 197,40 199,40 215,230
216,30 307,1391 308,310 309,70
322,9999 323,2532 324,621 325,80
##END=
