##TITLE=Silane, dimethylhexyloxyisohexyloxy-
##JCAMP-DX=4.24
##DATA TYPE=MASS SPECTRUM
##ORIGIN=V.G. Zaikin, R.S.Borisov, TIPS RAS, Moscow, Russia
##OWNER=NIST Mass Spectrometry Data Center
Collection (C) 2014 copyright by the U.S. Secretary of Commerce
on behalf of the United States of America. All rights reserved.
##$NIST MASS SPEC NO=346905
##MOLFORM=C14 H32 O2 Si
##MW=260
##$NIST SOURCE=MSDC
##XUNITS=M/Z
##YUNITS=RELATIVE INTENSITY
##XFACTOR=1
##YFACTOR=1
##FIRSTX=27
##LASTX=259
##FIRSTY=120
##MAXX=259
##MINX=27
##MAXY=9999
##MINY=20
##NPOINTS=72
##PEAK TABLE=(XY..XY)
27,120 29,160 39,90 41,500
42,60 43,711 45,160 47,110
53,20 55,1101 56,470 57,80
58,100 59,250 60,60 61,260
63,80 67,60 69,370 74,40
75,2342 76,180 77,2082 78,120
79,80 82,20 83,7817 84,631
85,320 87,100 88,110 89,971
90,110 91,330 92,20 93,310
99,120 101,460 102,40 103,280
104,20 105,190 107,60 113,20
115,170 117,160 119,350 120,20
129,30 131,230 132,20 143,140
145,80 157,40 159,1061 160,140
161,430 162,40 175,150 177,320
178,30 187,70 189,1792 190,260
191,40 217,40 229,40 245,9999
246,1972 247,540 248,50 259,30
##END=
