##TITLE=Silane, dimethylpentyloxyheptyloxy-
##JCAMP-DX=4.24
##DATA TYPE=MASS SPECTRUM
##ORIGIN=V.G. Zaikin, R.S.Borisov, TIPS RAS, Moscow, Russia
##OWNER=NIST Mass Spectrometry Data Center
Collection (C) 2014 copyright by the U.S. Secretary of Commerce
on behalf of the United States of America. All rights reserved.
##$NIST MASS SPEC NO=346825
##MOLFORM=C14 H32 O2 Si
##MW=260
##$NIST SOURCE=MSDC
##XUNITS=M/Z
##YUNITS=RELATIVE INTENSITY
##XFACTOR=1
##YFACTOR=1
##FIRSTX=27
##LASTX=259
##FIRSTY=70
##MAXX=259
##MINX=27
##MAXY=9999
##MINY=10
##NPOINTS=77
##PEAK TABLE=(XY..XY)
27,70 29,140 39,50 41,260
42,70 43,250 45,100 47,60
55,561 56,80 57,160 58,50
59,150 60,30 61,170 63,50
67,20 68,20 69,440 70,120
71,50 74,20 75,1451 76,110
77,1702 78,90 79,80 83,10
85,30 87,80 88,50 89,691
90,70 91,270 93,180 97,410
98,40 99,70 101,220 102,20
103,170 105,120 107,40 113,20
115,170 117,150 119,200 129,90
131,120 133,20 145,611 146,70
147,520 148,50 149,30 151,40
157,30 159,30 161,70 163,40
173,420 174,50 175,971 176,120
177,30 187,50 189,20 201,30
203,661 204,90 205,20 229,40
245,9999 246,1661 247,440 248,40
259,30
##END=
