##TITLE=Silane, dimethyl(2-octyloxy)hexyloxy-
##JCAMP-DX=4.24
##DATA TYPE=MASS SPECTRUM
##ORIGIN=V.G. Zaikin, R.S.Borisov, TIPS RAS, Moscow, Russia
##OWNER=NIST Mass Spectrometry Data Center
Collection (C) 2014 copyright by the U.S. Secretary of Commerce
on behalf of the United States of America. All rights reserved.
##$NIST MASS SPEC NO=346844
##MOLFORM=C16 H36 O2 Si
##MW=288
##$NIST SOURCE=MSDC
##XUNITS=M/Z
##YUNITS=RELATIVE INTENSITY
##XFACTOR=1
##YFACTOR=1
##FIRSTX=27
##LASTX=287
##FIRSTY=50
##MAXX=287
##MINX=27
##MAXY=9999
##MINY=10
##NPOINTS=80
##PEAK TABLE=(XY..XY)
27,50 29,90 39,40 41,210
42,50 43,240 45,70 47,60
55,310 56,80 57,60 58,50
59,150 60,30 61,140 63,40
67,30 69,110 70,40 71,20
73,20 74,40 75,2162 76,160
77,1291 78,70 79,50 82,30
83,611 84,60 85,40 87,90
88,50 89,420 90,40 91,130
93,110 97,30 101,260 102,40
103,721 104,60 105,120 113,20
115,200 116,20 117,90 119,170
121,40 129,70 131,150 133,180
143,110 145,110 157,20 159,3113
160,440 161,1682 162,200 163,60
173,170 174,20 175,40 177,60
187,240 188,30 189,60 203,9999
204,1601 205,480 206,40 215,30
217,841 218,130 219,30 229,10
273,2242 274,470 275,120 287,60
##END=
