##TITLE=Silane, dimethyldecyloxybutoxy-
##JCAMP-DX=4.24
##DATA TYPE=MASS SPECTRUM
##ORIGIN=V.G. Zaikin, R.S.Borisov, TIPS RAS, Moscow, Russia
##OWNER=NIST Mass Spectrometry Data Center
Collection (C) 2014 copyright by the U.S. Secretary of Commerce
on behalf of the United States of America. All rights reserved.
##$NIST MASS SPEC NO=346921
##MOLFORM=C16 H36 O2 Si
##MW=288
##$NIST SOURCE=MSDC
##XUNITS=M/Z
##YUNITS=RELATIVE INTENSITY
##XFACTOR=1
##YFACTOR=1
##FIRSTX=27
##LASTX=287
##FIRSTY=40
##MAXX=287
##MINX=27
##MAXY=9999
##MINY=10
##NPOINTS=81
##PEAK TABLE=(XY..XY)
27,40 29,90 39,30 41,200
42,30 43,170 45,50 47,30
54,10 55,270 56,80 57,210
58,20 59,90 60,20 61,110
63,40 67,40 68,30 69,330
70,60 71,70 75,1071 76,80
77,1281 78,70 79,80 81,40
82,20 83,641 84,60 85,40
87,50 88,30 89,540 90,50
91,240 93,180 95,30 97,310
98,30 99,40 101,130 103,100
105,90 107,40 113,20 115,160
117,120 119,140 129,60 131,591
132,60 133,861 134,90 135,30
143,30 145,50 147,120 149,70
157,30 159,40 161,831 162,100
163,30 173,20 187,30 199,30
201,30 215,280 216,40 217,40
245,460 246,80 247,20 257,30
273,9999 274,2112 275,581 276,70
287,20
##END=
