##TITLE=Silane, dimethyl(2-methylphenoxy)isohexyloxy-
##JCAMP-DX=4.24
##DATA TYPE=MASS SPECTRUM
##ORIGIN=V.G. Zaikin, R.S.Borisov, TIPS RAS, Moscow, Russia
##OWNER=NIST Mass Spectrometry Data Center
Collection (C) 2014 copyright by the U.S. Secretary of Commerce
on behalf of the United States of America. All rights reserved.
##$NIST MASS SPEC NO=346955
##MOLFORM=C15 H26 O2 Si
##MW=266
##$NIST SOURCE=MSDC
##XUNITS=M/Z
##YUNITS=RELATIVE INTENSITY
##XFACTOR=1
##YFACTOR=1
##FIRSTX=27
##LASTX=269
##FIRSTY=120
##MAXX=269
##MINX=27
##MAXY=9999
##MINY=20
##NPOINTS=93
##PEAK TABLE=(XY..XY)
27,120 29,130 39,140 41,540
42,40 43,961 45,170 47,140
51,40 53,30 55,1261 56,500
57,130 58,100 59,380 60,30
61,150 63,40 65,200 67,20
69,320 74,50 75,1832 76,130
77,340 78,70 79,100 81,20
82,250 83,6476 84,450 85,150
87,20 88,30 89,230 90,70
91,3223 92,270 99,80 101,130
103,80 104,50 105,380 106,20
107,170 109,20 115,50 121,80
131,50 133,50 134,20 135,811
136,100 137,240 143,120 147,220
148,280 149,2342 150,390 151,480
152,50 153,30 159,70 161,100
162,20 163,701 164,2462 165,4144
166,741 167,2462 168,360 169,110
175,30 177,60 179,240 180,40
181,1802 182,2642 183,520 184,120
189,20 191,20 193,50 195,1511
196,230 197,60 209,50 251,310
252,50 266,9999 267,2142 268,561
269,50
##END=
