##TITLE=Silane, dimethylpentyloxynonyloxy-
##JCAMP-DX=4.24
##DATA TYPE=MASS SPECTRUM
##ORIGIN=V.G. Zaikin, R.S.Borisov, TIPS RAS, Moscow, Russia
##OWNER=NIST Mass Spectrometry Data Center
Collection (C) 2014 copyright by the U.S. Secretary of Commerce
on behalf of the United States of America. All rights reserved.
##$NIST MASS SPEC NO=346827
##MOLFORM=C16 H36 O2 Si
##MW=288
##$NIST SOURCE=MSDC
##XUNITS=M/Z
##YUNITS=RELATIVE INTENSITY
##XFACTOR=1
##YFACTOR=1
##FIRSTX=29
##LASTX=287
##FIRSTY=20
##MAXX=287
##MINX=29
##MAXY=9999
##MINY=10
##NPOINTS=65
##PEAK TABLE=(XY..XY)
29,20 41,70 42,20 43,80
45,10 55,110 56,30 57,70
59,40 61,50 67,20 69,571
70,80 71,60 75,621 76,50
77,751 78,40 79,40 83,280
84,30 85,30 87,30 89,340
90,30 91,140 93,130 97,30
99,30 101,100 103,80 105,70
107,30 115,80 117,70 119,130
129,70 131,70 143,30 145,400
146,50 147,460 148,50 159,20
161,70 163,40 173,30 175,641
176,90 177,20 185,30 201,260
202,40 203,80 215,40 217,20
231,490 232,90 233,20 257,40
273,9999 274,2272 275,651 276,80
287,20
##END=
