##TITLE=Silane, (3-chlorophenyloxy)dimethylethoxy-
##JCAMP-DX=4.24
##DATA TYPE=MASS SPECTRUM
##ORIGIN=V.G. Zaikin, R.S.Borisov, TIPS RAS, Moscow, Russia
##OWNER=NIST Mass Spectrometry Data Center
Collection (C) 2014 copyright by the U.S. Secretary of Commerce
on behalf of the United States of America. All rights reserved.
##$NIST MASS SPEC NO=346874
##MOLFORM=C10 H15 Cl O2 Si
##MW=230
##$NIST SOURCE=MSDC
##XUNITS=M/Z
##YUNITS=RELATIVE INTENSITY
##XFACTOR=1
##YFACTOR=1
##FIRSTX=27
##LASTX=234
##FIRSTY=80
##MAXX=234
##MINX=27
##MAXY=9999
##MINY=20
##NPOINTS=115
##PEAK TABLE=(XY..XY)
27,80 29,110 39,60 43,240
45,741 46,30 47,330 50,90
51,70 53,20 58,120 59,831
60,90 61,160 62,50 63,260
65,70 67,20 73,230 74,140
75,2783 76,260 77,581 78,120
79,601 80,20 81,90 85,70
87,90 89,160 90,50 91,180
92,1281 93,1101 94,170 95,611
96,20 97,200 99,220 101,110
102,20 103,3473 104,330 105,170
107,350 108,120 109,20 111,470
112,60 113,150 114,30 115,40
117,40 119,40 121,100 123,40
125,500 126,30 127,240 129,50
131,30 133,30 134,20 135,200
136,60 137,150 141,30 143,20
147,30 148,30 149,160 150,50
151,330 152,100 153,30 155,420
156,40 157,150 159,110 161,30
165,30 166,20 168,30 169,320
170,60 171,2572 172,310 173,881
174,90 175,20 179,30 181,20
183,60 185,2062 186,390 187,5525
188,731 189,1802 190,200 191,40
195,50 197,40 199,50 213,70
215,9999 216,1471 217,3723 218,500
219,120 229,60 230,8257 231,1311
232,3093 233,440 234,100
##END=
