##TITLE=Silane, dimethylisobutoxyhexyloxy-
##JCAMP-DX=4.24
##DATA TYPE=MASS SPECTRUM
##ORIGIN=V.G. Zaikin, R.S.Borisov, TIPS RAS, Moscow, Russia
##OWNER=NIST Mass Spectrometry Data Center
Collection (C) 2014 copyright by the U.S. Secretary of Commerce
on behalf of the United States of America. All rights reserved.
##$NIST MASS SPEC NO=346765
##MOLFORM=C12 H28 O2 Si
##MW=232
##$NIST SOURCE=MSDC
##XUNITS=M/Z
##YUNITS=RELATIVE INTENSITY
##XFACTOR=1
##YFACTOR=1
##FIRSTX=27
##LASTX=231
##FIRSTY=120
##MAXX=231
##MINX=27
##MAXY=9999
##MINY=20
##NPOINTS=73
##PEAK TABLE=(XY..XY)
27,120 29,190 39,90 41,350
42,40 43,350 45,200 47,150
53,20 55,430 56,150 57,180
58,160 59,270 60,80 61,250
63,60 67,30 69,40 74,60
75,2883 76,220 77,2853 78,170
79,120 83,921 84,80 85,60
87,110 88,140 89,1471 90,160
91,380 92,20 93,110 99,80
101,250 102,20 103,250 104,20
105,170 107,100 113,20 115,230
116,20 117,220 119,370 120,30
129,40 131,751 132,80 133,300
134,20 143,80 145,90 147,80
157,30 159,1561 160,220 161,2432
162,180 163,100 173,30 175,40
189,2062 190,310 191,90 201,20
217,9999 218,1772 219,520 220,50
231,40
##END=
