##TITLE=Silane, dimethyloctyloxybutoxy-
##JCAMP-DX=4.24
##DATA TYPE=MASS SPECTRUM
##ORIGIN=V.G. Zaikin, R.S.Borisov, TIPS RAS, Moscow, Russia
##OWNER=NIST Mass Spectrometry Data Center
Collection (C) 2014 copyright by the U.S. Secretary of Commerce
on behalf of the United States of America. All rights reserved.
##$NIST MASS SPEC NO=346741
##MOLFORM=C14 H32 O2 Si
##MW=260
##$NIST SOURCE=MSDC
##XUNITS=M/Z
##YUNITS=RELATIVE INTENSITY
##XFACTOR=1
##YFACTOR=1
##FIRSTX=27
##LASTX=259
##FIRSTY=80
##MAXX=259
##MINX=27
##MAXY=9999
##MINY=20
##NPOINTS=78
##PEAK TABLE=(XY..XY)
27,80 29,170 39,50 41,280
42,30 43,190 45,110 47,70
55,320 56,80 57,160 58,50
59,150 60,40 61,190 63,60
67,40 68,20 69,811 70,70
71,50 74,30 75,1471 76,110
77,1762 78,100 79,100 81,20
83,50 84,20 85,30 87,80
88,50 89,691 90,70 91,300
93,160 99,70 101,200 102,20
103,140 105,100 107,40 111,70
113,20 115,200 116,20 117,160
119,160 129,90 131,731 132,80
133,861 134,90 135,20 143,20
145,60 147,110 149,30 159,80
161,921 162,110 163,30 171,30
173,40 187,440 188,60 189,80
201,20 217,530 218,90 219,20
229,30 245,9999 246,1812 247,500
248,50 259,30
##END=
