##TITLE=Silane, dimethyl(2-methylphenoxy)pentyloxy-
##JCAMP-DX=4.24
##DATA TYPE=MASS SPECTRUM
##ORIGIN=V.G. Zaikin, R.S.Borisov, TIPS RAS, Moscow, Russia
##OWNER=NIST Mass Spectrometry Data Center
Collection (C) 2014 copyright by the U.S. Secretary of Commerce
on behalf of the United States of America. All rights reserved.
##$NIST MASS SPEC NO=346954
##MOLFORM=C14 H24 O2 Si
##MW=252
##$NIST SOURCE=MSDC
##XUNITS=M/Z
##YUNITS=RELATIVE INTENSITY
##XFACTOR=1
##YFACTOR=1
##FIRSTX=27
##LASTX=255
##FIRSTY=30
##MAXX=255
##MINX=27
##MAXY=9999
##MINY=10
##NPOINTS=85
##PEAK TABLE=(XY..XY)
27,30 29,50 39,50 41,160
42,40 43,210 45,80 47,80
51,20 55,50 58,40 59,210
61,80 63,20 65,140 69,480
70,40 71,20 74,30 75,1672
76,120 77,270 78,50 79,80
82,270 83,40 85,10 89,290
90,70 91,2642 92,220 99,30
101,60 103,60 104,20 105,320
106,20 107,170 108,30 109,20
115,20 121,70 129,40 131,40
135,691 136,80 137,300 138,30
145,631 146,70 147,220 148,220
149,2702 150,440 151,310 152,40
153,20 161,100 163,741 164,2662
165,3904 166,731 167,5225 168,751
169,290 177,50 179,260 180,50
181,2212 182,1371 183,270 184,50
193,30 195,1341 196,220 197,50
237,5235 238,1081 239,300 240,20
251,30 252,9999 253,2242 254,631
255,70
##END=
