##TITLE=Silane, dimethyl(2-octyloxy)isobutoxy-
##JCAMP-DX=4.24
##DATA TYPE=MASS SPECTRUM
##ORIGIN=V.G. Zaikin, R.S.Borisov, TIPS RAS, Moscow, Russia
##OWNER=NIST Mass Spectrometry Data Center
Collection (C) 2014 copyright by the U.S. Secretary of Commerce
on behalf of the United States of America. All rights reserved.
##$NIST MASS SPEC NO=346840
##MOLFORM=C14 H32 O2 Si
##MW=260
##$NIST SOURCE=MSDC
##XUNITS=M/Z
##YUNITS=RELATIVE INTENSITY
##XFACTOR=1
##YFACTOR=1
##FIRSTX=27
##LASTX=259
##FIRSTY=80
##MAXX=259
##MINX=27
##MAXY=9999
##MINY=20
##NPOINTS=77
##PEAK TABLE=(XY..XY)
27,80 29,150 39,60 41,300
42,50 43,180 45,130 47,130
55,210 56,60 57,270 58,130
59,220 60,60 61,200 63,70
69,110 70,40 72,20 74,80
75,3934 76,280 77,2022 78,110
79,60 83,20 87,70 88,110
89,440 90,60 91,80 93,50
97,50 99,60 101,160 102,80
103,901 104,160 105,130 112,20
113,20 115,150 116,20 117,210
118,20 119,370 120,40 121,30
129,100 131,2963 132,330 133,1381
134,120 143,20 145,40 146,20
147,160 159,90 160,20 161,30
173,150 174,60 175,9999 176,1261
177,350 178,20 187,440 188,70
189,50 216,30 217,1241 218,190
231,20 245,1301 246,210 247,50
259,30
##END=
