##TITLE=Silane, dimethylisobutoxybutoxy-
##JCAMP-DX=4.24
##DATA TYPE=MASS SPECTRUM
##ORIGIN=V.G. Zaikin, R.S.Borisov, TIPS RAS, Moscow, Russia
##OWNER=NIST Mass Spectrometry Data Center
Collection (C) 2014 copyright by the U.S. Secretary of Commerce
on behalf of the United States of America. All rights reserved.
##$NIST MASS SPEC NO=346762
##MOLFORM=C10 H24 O2 Si
##MW=204
##$NIST SOURCE=MSDC
##XUNITS=M/Z
##YUNITS=RELATIVE INTENSITY
##XFACTOR=1
##YFACTOR=1
##FIRSTX=27
##LASTX=203
##FIRSTY=120
##MAXX=203
##MINX=27
##MAXY=9999
##MINY=20
##NPOINTS=60
##PEAK TABLE=(XY..XY)
27,120 29,210 39,100 41,300
42,20 43,210 45,340 46,20
47,240 55,190 56,110 57,160
58,250 59,350 60,120 61,290
62,20 63,110 74,80 75,3593
76,300 77,3333 78,210 79,130
85,30 87,80 88,180 89,2152
90,230 91,520 92,30 93,60
99,50 101,110 103,230 104,40
105,180 107,70 115,190 116,20
117,230 118,20 119,310 120,20
129,30 131,3393 132,410 133,2522
134,270 135,90 145,80 147,120
161,4444 162,611 163,200 189,9999
190,1551 191,490 192,40 203,60
##END=
