##TITLE=Silane, dimethyl(4-methoxybenzyloxy)propoxy-
##JCAMP-DX=4.24
##DATA TYPE=MASS SPECTRUM
##ORIGIN=V.G. Zaikin, R.S.Borisov, TIPS RAS, Moscow, Russia
##OWNER=NIST Mass Spectrometry Data Center
Collection (C) 2014 copyright by the U.S. Secretary of Commerce
on behalf of the United States of America. All rights reserved.
##$NIST MASS SPEC NO=346985
##MOLFORM=C13 H22 O3 Si
##MW=254
##$NIST SOURCE=MSDC
##XUNITS=M/Z
##YUNITS=RELATIVE INTENSITY
##XFACTOR=1
##YFACTOR=1
##FIRSTX=27
##LASTX=256
##FIRSTY=30
##MAXX=256
##MINX=27
##MAXY=9999
##MINY=20
##NPOINTS=74
##PEAK TABLE=(XY..XY)
27,30 39,40 41,30 45,110
47,70 51,70 52,50 53,20
58,30 59,100 61,60 63,30
65,80 74,40 75,1281 76,110
77,450 78,310 79,30 82,20
89,270 90,100 91,290 92,40
97,711 98,340 99,30 104,20
105,50 106,60 107,50 108,20
112,50 117,671 118,60 119,50
120,100 121,9999 122,881 123,50
131,20 135,80 136,20 137,30
163,150 164,20 165,220 166,30
167,30 179,1131 180,170 181,220
182,30 193,90 194,150 195,460
196,90 197,60 207,20 209,60
211,1011 212,150 213,30 223,420
224,110 225,390 226,60 239,671
240,110 241,20 253,581 254,1672
255,300 256,70
##END=
