##TITLE=Silane, dimethyl(2-methylphenoxy)pentadecyloxy-
##JCAMP-DX=4.24
##DATA TYPE=MASS SPECTRUM
##ORIGIN=V.G. Zaikin, R.S.Borisov, TIPS RAS, Moscow, Russia
##OWNER=NIST Mass Spectrometry Data Center
Collection (C) 2014 copyright by the U.S. Secretary of Commerce
on behalf of the United States of America. All rights reserved.
##$NIST MASS SPEC NO=346963
##MOLFORM=C24 H44 O2 Si
##MW=392
##$NIST SOURCE=MSDC
##XUNITS=M/Z
##YUNITS=RELATIVE INTENSITY
##XFACTOR=1
##YFACTOR=1
##FIRSTX=29
##LASTX=395
##FIRSTY=60
##MAXX=395
##MINX=29
##MAXY=9999
##MINY=20
##NPOINTS=74
##PEAK TABLE=(XY..XY)
29,60 39,20 41,260 42,40
43,430 54,20 55,470 56,60
57,390 58,20 59,70 61,40
65,20 67,60 68,30 69,460
70,50 71,200 75,741 76,50
77,90 81,50 82,40 83,480
84,40 85,120 89,90 91,921
92,70 95,30 97,360 98,30
99,30 101,60 105,110 107,20
111,130 115,50 125,20 135,240
136,30 137,60 147,30 148,50
149,751 150,120 151,150 161,20
163,220 164,1211 165,1812 166,320
167,1451 168,200 169,130 177,20
179,130 180,20 181,1031 182,1531
183,360 184,80 193,40 195,591
196,100 197,20 285,60 377,390
378,110 379,20 392,9999 393,3123
394,821 395,130
##END=
