##TITLE=Silane, dimethyloctyloxyethoxy-
##JCAMP-DX=4.24
##DATA TYPE=MASS SPECTRUM
##ORIGIN=V.G. Zaikin, R.S.Borisov, TIPS RAS, Moscow, Russia
##OWNER=NIST Mass Spectrometry Data Center
Collection (C) 2014 copyright by the U.S. Secretary of Commerce
on behalf of the United States of America. All rights reserved.
##$NIST MASS SPEC NO=346738
##MOLFORM=C12 H28 O2 Si
##MW=232
##$NIST SOURCE=MSDC
##XUNITS=M/Z
##YUNITS=RELATIVE INTENSITY
##XFACTOR=1
##YFACTOR=1
##FIRSTX=27
##LASTX=231
##FIRSTY=110
##MAXX=231
##MINX=27
##MAXY=9999
##MINY=20
##NPOINTS=70
##PEAK TABLE=(XY..XY)
27,110 29,200 39,70 41,360
42,40 43,210 45,230 47,130
53,20 54,20 55,370 56,50
58,70 59,360 60,50 61,330
62,20 63,110 67,40 68,20
69,1091 70,70 73,120 74,50
75,1401 76,110 77,1551 78,80
79,80 83,50 87,120 88,90
89,1261 90,100 91,180 93,40
99,60 101,220 102,40 103,1902
104,160 105,3974 106,310 107,200
111,50 115,200 117,120 119,470
120,40 121,320 122,20 129,140
131,170 133,1651 134,160 135,50
143,30 145,80 159,140 161,20
171,50 173,40 187,180 188,20
201,20 217,9999 218,1511 219,420
220,30 231,30
##END=
