##TITLE=Silane, dimethyl(2-methylphenoxy)isobutoxy-
##JCAMP-DX=4.24
##DATA TYPE=MASS SPECTRUM
##ORIGIN=V.G. Zaikin, R.S.Borisov, TIPS RAS, Moscow, Russia
##OWNER=NIST Mass Spectrometry Data Center
Collection (C) 2014 copyright by the U.S. Secretary of Commerce
on behalf of the United States of America. All rights reserved.
##$NIST MASS SPEC NO=346953
##MOLFORM=C13 H22 O2 Si
##MW=238
##$NIST SOURCE=MSDC
##XUNITS=M/Z
##YUNITS=RELATIVE INTENSITY
##XFACTOR=1
##YFACTOR=1
##FIRSTX=27
##LASTX=241
##FIRSTY=170
##MAXX=241
##MINX=27
##MAXY=9999
##MINY=10
##NPOINTS=94
##PEAK TABLE=(XY..XY)
27,170 29,240 31,30 39,280
40,20 41,430 43,380 45,400
47,330 50,30 51,120 52,40
53,50 57,90 58,260 59,651
60,60 61,240 62,20 63,110
64,20 65,540 66,10 67,40
73,20 74,90 75,4244 76,320
77,270 78,140 79,190 81,20
82,561 88,40 89,70 90,140
91,6416 92,500 95,30 99,30
103,130 104,60 105,591 106,40
107,240 108,20 109,40 115,20
121,140 123,20 131,520 132,40
133,50 134,40 135,1511 136,180
137,500 138,30 147,130 148,320
149,3944 150,591 151,571 152,50
153,20 161,130 162,20 163,991
164,2612 165,9999 166,1601 167,8297
168,1161 169,360 177,150 179,280
180,50 181,2252 182,1601 183,290
184,40 193,60 195,3463 196,561
197,150 205,120 223,2742 224,500
225,120 237,40 238,9709 239,1932
240,540 241,50
##END=
