##TITLE=Silane, dimethyl(2-ethylhexyloxy)pentyloxy-
##JCAMP-DX=4.24
##DATA TYPE=MASS SPECTRUM
##ORIGIN=V.G. Zaikin, R.S.Borisov, TIPS RAS, Moscow, Russia
##OWNER=NIST Mass Spectrometry Data Center
Collection (C) 2014 copyright by the U.S. Secretary of Commerce
on behalf of the United States of America. All rights reserved.
##$NIST MASS SPEC NO=346796
##MOLFORM=C15 H34 O2 Si
##MW=274
##$NIST SOURCE=MSDC
##XUNITS=M/Z
##YUNITS=RELATIVE INTENSITY
##XFACTOR=1
##YFACTOR=1
##FIRSTX=27
##LASTX=274
##FIRSTY=70
##MAXX=274
##MINX=27
##MAXY=9999
##MINY=20
##NPOINTS=96
##PEAK TABLE=(XY..XY)
27,70 29,170 39,60 41,400
42,80 43,350 45,110 47,100
53,20 54,20 55,330 56,210
57,270 58,110 59,240 60,60
61,210 63,60 67,30 68,30
69,1191 70,390 71,150 74,50
75,2883 76,230 77,2062 78,120
79,90 81,20 82,30 83,210
84,90 85,40 87,50 88,130
89,1702 90,180 91,390 92,20
93,330 94,20 97,20 98,70
99,80 101,220 102,20 103,230
104,20 105,200 107,390 108,30
111,170 112,270 113,50 115,90
117,150 119,661 120,60 121,20
129,140 131,120 143,50 144,20
145,2342 146,300 147,3133 148,380
149,100 159,80 161,210 162,20
163,220 164,20 171,30 173,30
175,4384 176,621 177,300 178,20
187,220 188,30 189,70 201,30
203,30 215,20 217,701 218,110
219,30 243,30 259,9999 260,1962
261,530 262,60 273,30 274,20
##END=
