##TITLE=Silane, dimethyl(dodec-9-ynyloxy)ethoxy-
##JCAMP-DX=4.24
##DATA TYPE=MASS SPECTRUM
##ORIGIN=V.G. Zaikin, R.S.Borisov, TIPS RAS, Moscow, Russia
##OWNER=NIST Mass Spectrometry Data Center
Collection (C) 2014 copyright by the U.S. Secretary of Commerce
on behalf of the United States of America. All rights reserved.
##$NIST MASS SPEC NO=347870
##MOLFORM=C16 H32 O2 Si
##MW=284
##$NIST SOURCE=MSDC
##XUNITS=M/Z
##YUNITS=RELATIVE INTENSITY
##XFACTOR=1
##YFACTOR=1
##FIRSTX=26
##LASTX=284
##FIRSTY=60
##MAXX=284
##MINX=26
##MAXY=9999
##MINY=10
##NPOINTS=150
##PEAK TABLE=(XY..XY)
26,60 27,220 29,260 39,420
40,70 41,1511 42,130 43,330
45,380 47,210 50,20 51,80
52,70 53,440 54,200 55,1521
56,80 57,70 58,120 59,961
60,80 61,1051 62,30 63,280
65,270 66,250 67,2492 68,2933
69,871 70,20 73,370 74,90
75,4774 76,360 77,5015 78,340
79,2092 80,550 81,2652 82,2752
83,721 84,30 85,90 87,330
88,180 89,3743 90,290 91,971
92,90 93,2272 94,611 95,3533
96,681 97,751 98,30 99,290
101,921 102,130 103,7146 104,671
105,9999 106,891 107,2803 108,631
109,1051 110,150 111,110 113,390
114,20 115,1091 116,80 117,370
118,20 119,661 120,70 121,4724
122,1081 123,420 125,80 127,390
128,30 129,731 130,60 131,811
132,50 133,3803 134,400 135,2142
136,460 137,100 139,100 141,390
142,20 143,520 144,30 145,490
146,50 147,110 149,200 151,60
153,100 155,280 156,30 157,380
158,20 159,1071 160,130 161,130
163,2993 164,691 165,90 167,120
169,190 171,180 173,300 174,70
175,20 179,20 181,360 182,30
183,120 185,120 187,160 188,90
195,100 197,50 199,190 200,40
201,150 203,200 205,30 213,460
214,60 215,80 217,360 218,30
223,1251 224,190 225,4954 226,951
227,370 228,20 238,10 241,30
255,490 256,60 269,1261 270,230
271,30 284,40
##END=
