##TITLE=Silane, dimethyl(3-phenylprop-2-enyloxy)butoxy-
##JCAMP-DX=4.24
##DATA TYPE=MASS SPECTRUM
##ORIGIN=V.G. Zaikin, R.S.Borisov, TIPS RAS, Moscow, Russia
##OWNER=NIST Mass Spectrometry Data Center
Collection (C) 2014 copyright by the U.S. Secretary of Commerce
on behalf of the United States of America. All rights reserved.
##$NIST MASS SPEC NO=347982
##MOLFORM=C15 H24 O2 Si
##MW=264
##$NIST SOURCE=MSDC
##XUNITS=M/Z
##YUNITS=RELATIVE INTENSITY
##XFACTOR=1
##YFACTOR=1
##FIRSTX=26
##LASTX=266
##FIRSTY=20
##MAXX=266
##MINX=26
##MAXY=9999
##MINY=20
##NPOINTS=112
##PEAK TABLE=(XY..XY)
26,20 27,120 29,240 39,250
41,330 43,110 45,390 47,250
50,30 51,120 52,30 53,20
55,50 56,20 57,280 58,180
59,420 60,80 61,310 62,40
63,140 64,20 65,200 74,140
75,7427 76,601 77,1651 78,110
79,20 85,20 87,80 88,150
89,1031 90,110 91,1832 92,50
93,300 94,30 95,1732 96,540
97,40 99,90 101,300 102,190
103,220 104,320 105,440 110,110
113,50 114,70 115,5555 116,4064
117,9999 118,1571 119,100 121,50
124,20 128,40 129,480 130,120
131,2692 132,460 133,1331 135,210
136,20 137,250 138,20 143,80
144,20 145,310 146,310 147,260
148,70 158,30 159,390 160,110
161,150 162,240 163,130 164,60
165,70 173,130 174,100 175,761
177,881 178,120 179,50 181,60
189,1181 190,1051 191,1661 192,3513
193,1281 194,250 195,30 203,20
205,30 207,5775 208,991 209,270
210,20 219,50 221,430 222,60
235,50 249,1231 250,220 251,70
263,1611 264,4454 265,931 266,210
##END=
