##TITLE=Silane, dimethyl(2-propylphenoxy)propoxy-
##JCAMP-DX=4.24
##DATA TYPE=MASS SPECTRUM
##ORIGIN=V.G. Zaikin, R.S.Borisov, TIPS RAS, Moscow, Russia
##OWNER=NIST Mass Spectrometry Data Center
Collection (C) 2014 copyright by the U.S. Secretary of Commerce
on behalf of the United States of America. All rights reserved.
##$NIST MASS SPEC NO=347412
##MOLFORM=C14 H24 O2 Si
##MW=252
##$NIST SOURCE=MSDC
##XUNITS=M/Z
##YUNITS=RELATIVE INTENSITY
##XFACTOR=1
##YFACTOR=1
##FIRSTX=26
##LASTX=255
##FIRSTY=30
##MAXX=255
##MINX=26
##MAXY=9999
##MINY=20
##NPOINTS=108
##PEAK TABLE=(XY..XY)
26,30 27,200 29,160 31,20
39,150 41,260 42,20 43,460
45,280 47,240 51,80 52,20
53,20 58,80 59,661 60,60
61,270 62,20 63,70 65,120
67,30 68,30 73,40 74,120
75,2752 76,210 77,490 78,140
79,110 81,50 82,841 83,50
85,40 87,20 88,20 89,230
90,100 91,1371 92,100 93,20
95,40 97,210 99,20 101,30
102,20 103,150 104,60 105,170
107,130 111,90 116,50 117,591
119,40 121,100 123,20 131,60
133,120 134,60 135,901 136,100
137,250 145,20 147,450 148,180
149,2052 150,290 151,831 152,90
153,170 161,540 162,80 163,2152
164,500 165,9999 166,1441 167,601
168,50 175,410 176,50 177,1702
178,270 179,420 181,540 182,50
189,40 191,1772 192,1661 193,961
194,190 195,240 196,20 205,190
206,20 207,250 208,50 209,120
210,60 219,90 223,3683 224,621
225,140 237,1341 238,220 239,50
252,6296 253,1191 254,280 255,20
##END=
