##TITLE=Silane, dimethyl(3-ethylphenoxy)undecyloxy-
##JCAMP-DX=4.24
##DATA TYPE=MASS SPECTRUM
##ORIGIN=V.G. Zaikin, R.S.Borisov, TIPS RAS, Moscow, Russia
##OWNER=NIST Mass Spectrometry Data Center
Collection (C) 2014 copyright by the U.S. Secretary of Commerce
on behalf of the United States of America. All rights reserved.
##$NIST MASS SPEC NO=347470
##MOLFORM=C21 H38 O2 Si
##MW=350
##$NIST SOURCE=MSDC
##XUNITS=M/Z
##YUNITS=RELATIVE INTENSITY
##XFACTOR=1
##YFACTOR=1
##FIRSTX=27
##LASTX=353
##FIRSTY=20
##MAXX=353
##MINX=27
##MAXY=9999
##MINY=10
##NPOINTS=103
##PEAK TABLE=(XY..XY)
27,20 29,80 39,30 41,310
42,40 43,380 47,20 53,20
54,20 55,530 56,100 57,220
59,130 61,80 67,50 68,40
69,480 70,100 71,110 75,671
76,50 77,120 78,20 79,30
81,30 82,130 83,310 84,60
85,40 87,20 89,90 90,20
91,120 95,30 97,440 98,50
99,40 101,60 103,40 104,30
105,80 111,100 112,30 113,20
115,60 119,90 121,20 123,20
127,10 129,20 135,160 136,20
137,60 140,40 148,20 149,250
150,50 151,230 152,40 153,60
155,30 161,170 162,30 163,470
164,90 165,310 166,80 167,80
173,110 175,10 177,340 178,140
179,2863 180,510 181,3103 182,500
183,260 184,20 189,30 191,20
193,180 194,40 195,340 196,2522
197,591 198,140 203,20 205,30
207,40 209,721 210,120 211,30
213,20 219,10 223,20 229,50
335,771 336,200 337,40 350,9999
351,2702 352,721 353,100
##END=
