##TITLE=Silane, dimethyl(2-methoxyethoxy)hexadecyloxy-
##JCAMP-DX=4.24
##DATA TYPE=MASS SPECTRUM
##ORIGIN=V.G. Zaikin, R.S.Borisov, TIPS RAS, Moscow, Russia
##OWNER=NIST Mass Spectrometry Data Center
Collection (C) 2014 copyright by the U.S. Secretary of Commerce
on behalf of the United States of America. All rights reserved.
##$NIST MASS SPEC NO=347854
##MOLFORM=C21 H46 O3 Si
##MW=374
##$NIST SOURCE=MSDC
##XUNITS=M/Z
##YUNITS=RELATIVE INTENSITY
##XFACTOR=1
##YFACTOR=1
##FIRSTX=27
##LASTX=362
##FIRSTY=40
##MAXX=362
##MINX=27
##MAXY=9999
##MINY=20
##NPOINTS=82
##PEAK TABLE=(XY..XY)
27,40 29,120 39,50 41,310
42,60 43,510 45,60 54,40
55,420 56,100 57,460 58,90
59,220 61,200 67,110 68,60
69,450 70,80 71,240 75,1111
76,70 77,280 81,130 82,70
83,550 84,50 85,140 87,30
88,50 89,2072 90,170 91,1842
92,110 93,130 95,80 96,40
97,490 98,30 99,30 101,140
103,240 105,390 106,20 107,130
109,40 111,180 115,120 117,420
118,40 119,651 120,50 121,90
125,30 129,50 131,100 132,150
133,6246 134,651 135,320 143,20
145,50 147,100 149,30 159,30
161,70 175,30 189,40 203,30
217,30 231,20 299,370 300,80
301,20 315,150 316,20 329,721
330,180 331,30 359,9999 360,2752
361,731 362,90
##END=
