##TITLE=Silane, dimethyl(3-methylphenoxy)pentyloxy-
##JCAMP-DX=4.24
##DATA TYPE=MASS SPECTRUM
##ORIGIN=V.G. Zaikin, R.S.Borisov, TIPS RAS, Moscow, Russia
##OWNER=NIST Mass Spectrometry Data Center
Collection (C) 2014 copyright by the U.S. Secretary of Commerce
on behalf of the United States of America. All rights reserved.
##$NIST MASS SPEC NO=347337
##MOLFORM=C14 H24 O2 Si
##MW=252
##$NIST SOURCE=MSDC
##XUNITS=M/Z
##YUNITS=RELATIVE INTENSITY
##XFACTOR=1
##YFACTOR=1
##FIRSTX=27
##LASTX=255
##FIRSTY=90
##MAXX=255
##MINX=27
##MAXY=9999
##MINY=20
##NPOINTS=102
##PEAK TABLE=(XY..XY)
27,90 29,130 39,110 41,270
42,70 43,100 45,180 47,120
51,40 53,30 55,60 58,70
59,290 60,30 61,150 63,60
65,240 67,30 68,30 69,591
70,60 74,30 75,1531 76,110
77,400 78,70 79,150 81,20
82,400 83,70 85,30 88,20
89,240 90,90 91,1431 92,130
95,60 97,40 99,70 101,60
103,100 104,40 105,791 106,70
107,100 108,50 109,130 111,30
115,30 119,20 121,50 123,20
129,60 131,30 135,450 136,60
137,100 139,20 145,270 146,20
147,110 148,80 149,931 150,160
151,500 152,80 153,30 161,50
162,20 163,270 164,90 165,5585
166,1011 167,9999 168,1421 169,510
170,40 175,70 177,50 179,330
180,60 181,731 182,2062 183,340
184,80 189,30 191,20 193,70
195,1882 196,290 197,80 205,20
209,30 237,5515 238,1071 239,290
240,20 251,30 252,8848 253,1822
254,480 255,40
##END=
