##TITLE=Silane, dimethyl(2-ethylbutoxy)ethoxy-
##JCAMP-DX=4.24
##DATA TYPE=MASS SPECTRUM
##ORIGIN=V.G. Zaikin, R.S.Borisov, TIPS RAS, Moscow, Russia
##OWNER=NIST Mass Spectrometry Data Center
Collection (C) 2014 copyright by the U.S. Secretary of Commerce
on behalf of the United States of America. All rights reserved.
##$NIST MASS SPEC NO=347572
##MOLFORM=C10 H24 O2 Si
##MW=204
##$NIST SOURCE=MSDC
##XUNITS=M/Z
##YUNITS=RELATIVE INTENSITY
##XFACTOR=1
##YFACTOR=1
##FIRSTX=26
##LASTX=203
##FIRSTY=20
##MAXX=203
##MINX=26
##MAXY=9999
##MINY=20
##NPOINTS=75
##PEAK TABLE=(XY..XY)
26,20 27,220 29,320 39,140
41,370 42,110 43,601 45,561
46,30 47,380 53,60 54,20
55,390 56,150 57,40 58,290
59,841 60,140 61,550 62,60
63,170 67,20 69,160 70,60
71,30 72,40 73,260 74,130
75,3033 76,260 77,2342 78,140
79,90 83,160 84,210 85,70
87,160 88,260 89,3974 90,360
91,280 93,30 99,60 101,210
102,70 103,6116 104,601 105,6866
106,601 107,310 113,20 115,80
117,200 118,90 119,370 120,30
121,140 129,30 131,140 133,5875
134,631 135,621 136,40 143,30
145,70 147,120 159,210 160,20
173,30 175,30 189,9999 190,1511
191,470 192,30 203,40
##END=
