##TITLE=Silane, dimethyldi(3-heptyloxy)-
##JCAMP-DX=4.24
##DATA TYPE=MASS SPECTRUM
##ORIGIN=V.G. Zaikin, R.S.Borisov, TIPS RAS, Moscow, Russia
##OWNER=NIST Mass Spectrometry Data Center
Collection (C) 2014 copyright by the U.S. Secretary of Commerce
on behalf of the United States of America. All rights reserved.
##$NIST MASS SPEC NO=347715
##MOLFORM=C16 H36 O2 Si
##MW=288
##$NIST SOURCE=MSDC
##XUNITS=M/Z
##YUNITS=RELATIVE INTENSITY
##XFACTOR=1
##YFACTOR=1
##FIRSTX=27
##LASTX=287
##FIRSTY=60
##MAXX=287
##MINX=27
##MAXY=9999
##MINY=10
##NPOINTS=82
##PEAK TABLE=(XY..XY)
27,60 29,120 39,40 41,230
42,30 43,200 45,80 47,80
55,170 56,80 57,200 58,50
59,270 60,20 61,150 63,40
69,120 70,30 72,30 73,80
74,80 75,4824 76,390 77,1261
78,70 79,50 80,110 85,70
86,50 87,70 89,30 91,20
93,110 94,30 97,70 98,40
99,110 100,10 101,370 102,30
103,50 105,90 113,30 115,280
116,40 117,1031 118,110 119,60
129,70 131,60 133,280 134,20
143,120 145,1261 146,160 147,60
157,50 159,40 161,150 171,40
173,1451 174,210 175,280 176,30
187,90 188,30 189,130 201,120
202,20 215,20 229,60 231,9999
232,1902 233,550 234,50 259,7547
260,1621 261,430 262,40 273,380
274,70 287,50
##END=
