##TITLE=Silane, dimethyl(1-phenylpropoxy)ethoxy-
##JCAMP-DX=4.24
##DATA TYPE=MASS SPECTRUM
##ORIGIN=V.G. Zaikin, R.S.Borisov, TIPS RAS, Moscow, Russia
##OWNER=NIST Mass Spectrometry Data Center
Collection (C) 2014 copyright by the U.S. Secretary of Commerce
on behalf of the United States of America. All rights reserved.
##$NIST MASS SPEC NO=347277
##MOLFORM=C13 H22 O2 Si
##MW=238
##$NIST SOURCE=MSDC
##XUNITS=M/Z
##YUNITS=RELATIVE INTENSITY
##XFACTOR=1
##YFACTOR=1
##FIRSTX=26
##LASTX=238
##FIRSTY=30
##MAXX=238
##MINX=26
##MAXY=9999
##MINY=20
##NPOINTS=82
##PEAK TABLE=(XY..XY)
26,30 27,80 28,40 29,110
39,90 41,150 43,130 44,20
45,370 47,230 50,30 51,130
52,30 57,20 58,80 59,601
60,80 61,230 62,20 63,110
65,100 73,160 74,300 75,2692
76,80 77,1431 78,200 79,110
82,540 83,200 87,50 88,20
89,150 90,80 91,1531 92,120
97,220 101,60 102,50 103,5805
104,831 105,2652 106,270 107,180
111,110 115,220 116,60 117,460
118,140 119,160 121,20 131,40
133,30 135,380 136,50 137,60
145,20 147,20 148,20 149,290
150,40 151,80 161,40 163,210
164,80 165,3733 166,561 167,160
179,110 181,30 191,40 192,20
193,80 207,30 209,9999 210,1641
211,470 212,40 223,180 224,20
237,40 238,20
##END=
