##TITLE=Silane, dimethyl(2-ethylbutoxy)octyloxy-
##JCAMP-DX=4.24
##DATA TYPE=MASS SPECTRUM
##ORIGIN=V.G. Zaikin, R.S.Borisov, TIPS RAS, Moscow, Russia
##OWNER=NIST Mass Spectrometry Data Center
Collection (C) 2014 copyright by the U.S. Secretary of Commerce
on behalf of the United States of America. All rights reserved.
##$NIST MASS SPEC NO=347578
##MOLFORM=C16 H36 O2 Si
##MW=288
##$NIST SOURCE=MSDC
##XUNITS=M/Z
##YUNITS=RELATIVE INTENSITY
##XFACTOR=1
##YFACTOR=1
##FIRSTX=27
##LASTX=287
##FIRSTY=120
##MAXX=287
##MINX=27
##MAXY=9999
##MINY=20
##NPOINTS=93
##PEAK TABLE=(XY..XY)
27,120 29,210 39,110 41,500
42,120 43,691 45,110 47,100
53,40 54,30 55,711 56,200
57,230 58,110 59,260 60,60
61,240 63,60 67,90 68,40
69,1772 70,210 71,140 74,50
75,3243 76,260 77,2352 78,140
79,100 81,50 82,30 83,420
84,240 85,160 87,120 88,150
89,1341 90,150 91,410 92,20
93,150 97,30 99,120 101,370
102,30 103,420 104,30 105,220
107,400 108,20 109,20 111,260
112,40 113,50 115,290 116,30
117,240 118,20 119,591 120,40
121,20 127,20 129,200 131,190
133,50 143,90 145,160 147,110
159,410 160,40 161,90 171,60
173,40 175,40 185,40 186,20
187,1441 188,230 189,1792 190,270
191,70 201,30 203,70 215,20
217,2532 218,440 219,150 257,30
273,9999 274,2272 275,601 276,70
287,20
##END=
