##TITLE=Silane, dimethyl(2-methoxyethoxy)heptadecyloxy-
##JCAMP-DX=4.24
##DATA TYPE=MASS SPECTRUM
##ORIGIN=V.G. Zaikin, R.S.Borisov, TIPS RAS, Moscow, Russia
##OWNER=NIST Mass Spectrometry Data Center
Collection (C) 2014 copyright by the U.S. Secretary of Commerce
on behalf of the United States of America. All rights reserved.
##$NIST MASS SPEC NO=347855
##MOLFORM=C22 H48 O3 Si
##MW=388
##$NIST SOURCE=MSDC
##XUNITS=M/Z
##YUNITS=RELATIVE INTENSITY
##XFACTOR=1
##YFACTOR=1
##FIRSTX=29
##LASTX=376
##FIRSTY=20
##MAXX=376
##MINX=29
##MAXY=9999
##MINY=10
##NPOINTS=59
##PEAK TABLE=(XY..XY)
29,20 41,80 42,20 43,140
55,140 56,40 57,160 58,20
61,50 67,40 68,20 69,160
70,20 71,110 75,440 76,20
77,80 81,40 82,30 83,230
84,20 85,70 89,931 90,70
91,851 92,40 93,60 95,40
97,210 101,50 103,80 105,130
107,50 111,80 115,50 117,210
119,340 120,20 121,20 129,20
131,50 132,80 133,3894 134,430
135,180 147,30 149,10 161,30
189,20 313,260 314,50 329,100
343,621 344,150 345,20 373,9999
374,2873 375,771 376,90
##END=
