##TITLE=Silane, dimethyl(3-ethylphenoxy)hexyloxy-
##JCAMP-DX=4.24
##DATA TYPE=MASS SPECTRUM
##ORIGIN=V.G. Zaikin, R.S.Borisov, TIPS RAS, Moscow, Russia
##OWNER=NIST Mass Spectrometry Data Center
Collection (C) 2014 copyright by the U.S. Secretary of Commerce
on behalf of the United States of America. All rights reserved.
##$NIST MASS SPEC NO=347465
##MOLFORM=C16 H28 O2 Si
##MW=280
##$NIST SOURCE=MSDC
##XUNITS=M/Z
##YUNITS=RELATIVE INTENSITY
##XFACTOR=1
##YFACTOR=1
##FIRSTX=27
##LASTX=283
##FIRSTY=100
##MAXX=283
##MINX=27
##MAXY=9999
##MINY=20
##NPOINTS=119
##PEAK TABLE=(XY..XY)
27,100 29,150 39,90 41,290
42,50 43,340 45,100 47,80
51,30 53,30 55,460 56,110
58,40 59,310 60,30 61,140
63,30 65,40 67,20 68,20
69,30 73,150 74,40 75,1361
76,100 77,470 78,80 79,130
81,20 82,450 83,480 84,40
85,40 87,30 88,20 89,280
90,80 91,370 92,30 93,20
95,40 97,20 99,60 101,70
102,20 103,170 104,110 105,240
106,20 107,70 109,20 111,20
115,80 117,60 119,220 120,30
121,80 122,30 123,60 131,30
133,30 135,380 136,50 137,140
143,50 145,40 147,110 148,60
149,540 150,110 151,400 152,80
153,110 159,170 160,20 161,370
162,60 163,911 164,160 165,641
166,140 167,110 175,40 177,561
178,190 179,4224 180,761 181,6856
182,1061 183,440 184,40 189,60
191,40 193,240 194,50 195,480
196,2572 197,460 198,120 203,20
205,20 207,70 208,20 209,1141
210,190 211,50 219,50 223,50
237,60 251,30 265,3493 266,761
267,200 268,20 279,30 280,9999
281,2152 282,571 283,70
##END=
