##TITLE=Silane, dimethyl(3-methylpentyloxy)isohexyloxy-
##JCAMP-DX=4.24
##DATA TYPE=MASS SPECTRUM
##ORIGIN=V.G. Zaikin, R.S.Borisov, TIPS RAS, Moscow, Russia
##OWNER=NIST Mass Spectrometry Data Center
Collection (C) 2014 copyright by the U.S. Secretary of Commerce
on behalf of the United States of America. All rights reserved.
##$NIST MASS SPEC NO=347696
##MOLFORM=C14 H32 O2 Si
##MW=260
##$NIST SOURCE=MSDC
##XUNITS=M/Z
##YUNITS=RELATIVE INTENSITY
##XFACTOR=1
##YFACTOR=1
##FIRSTX=27
##LASTX=259
##FIRSTY=140
##MAXX=259
##MINX=27
##MAXY=9999
##MINY=10
##NPOINTS=83
##PEAK TABLE=(XY..XY)
27,140 29,410 39,130 41,621
42,80 43,681 45,150 47,120
53,50 54,20 55,1191 56,510
57,380 58,120 59,360 60,70
61,290 62,20 63,60 67,70
69,420 70,30 72,40 73,30
74,70 75,2272 76,190 77,1141
78,60 79,50 82,30 83,9999
84,1121 85,921 86,40 87,180
88,130 89,1301 90,140 91,571
92,40 93,90 99,90 101,320
102,60 103,310 104,30 105,550
106,40 107,140 113,60 115,200
116,20 117,310 118,20 119,951
120,90 121,30 127,10 129,90
131,130 133,240 143,210 144,20
145,120 157,50 159,400 160,50
161,120 163,30 173,50 175,90
177,140 189,711 190,100 191,20
215,20 229,30 245,7327 246,1531
247,430 248,40 259,30
##END=
