##TITLE=Silane, dimethyl(undec-2-enyloxy)hexadecyloxy-
##JCAMP-DX=4.24
##DATA TYPE=MASS SPECTRUM
##ORIGIN=V.G. Zaikin, R.S.Borisov, TIPS RAS, Moscow, Russia
##OWNER=NIST Mass Spectrometry Data Center
Collection (C) 2014 copyright by the U.S. Secretary of Commerce
on behalf of the United States of America. All rights reserved.
##$NIST MASS SPEC NO=347944
##MOLFORM=C29 H60 O2 Si
##MW=468
##$NIST SOURCE=MSDC
##XUNITS=M/Z
##YUNITS=RELATIVE INTENSITY
##XFACTOR=1
##YFACTOR=1
##FIRSTX=27
##LASTX=471
##FIRSTY=220
##MAXX=471
##MINX=27
##MAXY=9999
##MINY=20
##NPOINTS=200
##PEAK TABLE=(XY..XY)
27,220 29,621 39,190 41,1491
42,230 43,1992 53,50 54,230
55,1181 56,160 57,1131 58,40
59,160 61,250 63,40 66,80
67,811 68,641 69,1722 70,140
71,701 72,40 74,40 75,5525
76,430 77,2883 78,150 79,120
80,110 81,1281 82,1702 83,2402
84,250 85,761 86,40 87,110
88,30 89,1071 90,110 91,470
92,30 93,1621 94,170 95,1782
96,1471 97,2262 98,220 99,310
100,40 101,951 102,80 103,400
104,20 105,941 106,60 107,160
108,40 109,1111 110,781 111,971
112,70 113,420 114,120 115,1631
116,180 117,550 118,70 119,180
121,120 122,20 123,510 124,701
125,350 126,40 127,250 128,60
129,1051 130,140 131,2062 132,210
133,40 137,120 138,40 139,70
140,20 141,180 142,30 143,581
144,120 145,1051 146,100 152,1371
153,150 155,120 156,20 157,380
158,60 159,290 160,30 161,20
169,80 171,340 172,40 173,210
183,60 185,270 186,30 187,170
197,60 199,170 201,110 211,350
212,40 213,711 214,120 215,120
222,120 225,50 226,70 227,350
228,50 229,420 230,60 231,380
232,40 241,50 243,1171 244,210
245,60 247,20 255,50 257,2312
258,450 259,180 269,30 271,20
275,70 277,20 281,110 282,20
283,200 284,40 285,480 286,90
297,230 298,50 299,4174 300,991
301,5035 302,1091 311,30 313,90
314,20 315,180 317,300 318,70
325,40 327,1742 328,390 329,510
330,90 339,20 341,130 342,50
353,40 355,9999 356,2833 357,711
358,80 367,30 369,3183 370,921
371,200 372,20 381,30 383,370
384,90 385,20 397,681 398,200
399,20 411,2883 412,961 413,220
414,20 423,20 425,2362 426,671
427,180 439,360 440,90 453,6206
454,2162 455,661 456,120 467,160
468,3663 469,1291 470,350 471,40
##END=
