##TITLE=Silane, dimethyl(2-heptyloxy)heptyloxy-
##JCAMP-DX=4.24
##DATA TYPE=MASS SPECTRUM
##ORIGIN=V.G. Zaikin, R.S.Borisov, TIPS RAS, Moscow, Russia
##OWNER=NIST Mass Spectrometry Data Center
Collection (C) 2014 copyright by the U.S. Secretary of Commerce
on behalf of the United States of America. All rights reserved.
##$NIST MASS SPEC NO=347657
##MOLFORM=C16 H36 O2 Si
##MW=288
##$NIST SOURCE=MSDC
##XUNITS=M/Z
##YUNITS=RELATIVE INTENSITY
##XFACTOR=1
##YFACTOR=1
##FIRSTX=27
##LASTX=287
##FIRSTY=90
##MAXX=287
##MINX=27
##MAXY=9999
##MINY=20
##NPOINTS=83
##PEAK TABLE=(XY..XY)
27,90 29,180 39,80 41,350
42,100 43,350 45,110 47,80
53,20 54,20 55,821 56,170
57,290 58,80 59,220 60,40
61,200 63,60 67,30 68,30
69,140 70,90 73,40 74,60
75,2933 76,220 77,1601 78,90
79,40 81,50 83,20 85,40
87,160 88,60 89,490 90,60
91,100 93,130 95,20 96,20
97,811 98,120 99,120 101,440
102,70 103,941 104,80 105,150
113,30 115,410 116,40 117,170
119,240 121,50 129,160 131,170
133,140 143,30 145,110 147,40
157,120 159,380 160,40 171,20
172,20 173,3583 174,510 175,1611
176,190 177,50 187,20 189,40
203,921 204,130 205,30 217,9999
218,1661 219,460 220,30 273,2292
274,460 275,100 287,50
##END=
