##TITLE=Silane, dimethyl(4-methoxy-2-methylbutoxy)propoxy-
##JCAMP-DX=4.24
##DATA TYPE=MASS SPECTRUM
##ORIGIN=V.G. Zaikin, R.S.Borisov, TIPS RAS, Moscow, Russia
##OWNER=NIST Mass Spectrometry Data Center
Collection (C) 2014 copyright by the U.S. Secretary of Commerce
on behalf of the United States of America. All rights reserved.
##$NIST MASS SPEC NO=347821
##MOLFORM=C11 H26 O3 Si
##MW=234
##$NIST SOURCE=MSDC
##XUNITS=M/Z
##YUNITS=RELATIVE INTENSITY
##XFACTOR=1
##YFACTOR=1
##FIRSTX=26
##LASTX=221
##FIRSTY=50
##MAXX=221
##MINX=26
##MAXY=9999
##MINY=20
##NPOINTS=103
##PEAK TABLE=(XY..XY)
26,50 27,310 29,450 31,70
33,20 39,320 40,30 41,1341
42,20 43,631 45,3073 46,80
47,591 53,90 54,20 55,210
56,80 57,120 58,3793 59,1712
60,370 61,1351 62,80 63,230
65,20 67,240 68,80 69,1932
70,160 71,380 72,290 73,60
74,210 75,7717 76,601 77,2332
78,110 79,40 85,611 87,390
88,961 89,9909 90,981 91,5275
92,350 93,320 97,30 99,530
101,851 102,120 103,611 104,170
105,4604 106,370 107,390 109,631
110,30 111,20 113,100 114,80
115,851 116,110 117,9999 118,1041
119,3944 120,330 121,390 127,20
129,280 130,40 131,821 132,420
133,9569 134,1001 135,460 141,30
143,110 145,2572 146,7737 147,7607
148,1021 149,520 150,40 151,30
157,20 159,3643 160,490 161,460
162,40 163,7096 164,771 165,260
173,260 174,4014 175,3703 176,581
177,230 187,90 189,160 203,20
219,1501 220,190 221,40
##END=
