##TITLE=Silane, dimethyl(2-propylphenoxy)pentyloxy-
##JCAMP-DX=4.24
##DATA TYPE=MASS SPECTRUM
##ORIGIN=V.G. Zaikin, R.S.Borisov, TIPS RAS, Moscow, Russia
##OWNER=NIST Mass Spectrometry Data Center
Collection (C) 2014 copyright by the U.S. Secretary of Commerce
on behalf of the United States of America. All rights reserved.
##$NIST MASS SPEC NO=347415
##MOLFORM=C16 H28 O2 Si
##MW=280
##$NIST SOURCE=MSDC
##XUNITS=M/Z
##YUNITS=RELATIVE INTENSITY
##XFACTOR=1
##YFACTOR=1
##FIRSTX=26
##LASTX=283
##FIRSTY=30
##MAXX=283
##MINX=26
##MAXY=9999
##MINY=20
##NPOINTS=119
##PEAK TABLE=(XY..XY)
26,30 27,170 29,280 39,150
41,581 42,90 43,1041 45,180
47,180 51,50 55,130 57,30
58,70 59,721 60,40 61,250
63,40 65,80 69,911 70,60
71,210 73,50 74,70 75,2983
76,200 77,460 78,100 79,70
81,20 82,390 83,20 85,50
87,20 89,350 90,80 91,1331
92,90 95,30 97,60 99,40
101,90 102,30 103,140 104,60
105,170 107,190 115,320 116,50
117,100 118,30 119,30 121,120
123,20 129,20 131,40 133,130
134,40 135,951 136,120 137,250
143,60 145,420 146,40 147,450
148,180 149,2042 150,290 151,1041
152,130 153,180 161,681 162,100
163,2772 164,581 165,9078 166,1371
167,761 168,80 175,460 176,70
177,2112 178,370 179,571 180,80
181,1111 182,150 183,190 189,50
191,4194 192,2722 193,1371 194,280
195,1451 196,210 197,50 205,20
207,40 208,20 209,440 210,370
211,70 221,40 223,510 224,80
233,60 235,30 237,40 238,20
251,3083 252,601 253,140 265,1571
266,310 267,110 279,20 280,9999
281,2272 282,561 283,60
##END=
