##TITLE=Silane, dimethyl(4-isopropoxyphenoxy)isohexyloxy-
##JCAMP-DX=4.24
##DATA TYPE=MASS SPECTRUM
##ORIGIN=V.G. Zaikin, R.S.Borisov, TIPS RAS, Moscow, Russia
##OWNER=NIST Mass Spectrometry Data Center
Collection (C) 2014 copyright by the U.S. Secretary of Commerce
on behalf of the United States of America. All rights reserved.
##$NIST MASS SPEC NO=347052
##MOLFORM=C17 H30 O3 Si
##MW=310
##$NIST SOURCE=MSDC
##XUNITS=M/Z
##YUNITS=RELATIVE INTENSITY
##XFACTOR=1
##YFACTOR=1
##FIRSTX=27
##LASTX=312
##FIRSTY=70
##MAXX=312
##MINX=27
##MAXY=9999
##MINY=20
##NPOINTS=40
##PEAK TABLE=(XY..XY)
27,70 29,40 39,60 41,270
42,60 43,561 45,40 47,30
55,90 56,50 57,20 59,40
75,540 76,30 77,40 83,80
85,110 91,40 110,80 135,20
136,180 137,50 149,30 151,961
152,130 153,130 165,30 166,9999
167,2342 168,741 169,130 179,20
193,40 209,160 210,20 252,20
253,90 310,1401 311,320 312,80
##END=
