##TITLE=Silane, dimethyl(4-(2-phenylprop-2-yl)phenoxy)pentyloxy-
##JCAMP-DX=4.24
##DATA TYPE=MASS SPECTRUM
##ORIGIN=V.G. Zaikin, R.S.Borisov, TIPS RAS, Moscow, Russia
##OWNER=NIST Mass Spectrometry Data Center
Collection (C) 2014 copyright by the U.S. Secretary of Commerce
on behalf of the United States of America. All rights reserved.
##$NIST MASS SPEC NO=347189
##MOLFORM=C22 H32 O2 Si
##MW=356
##$NIST SOURCE=MSDC
##XUNITS=M/Z
##YUNITS=RELATIVE INTENSITY
##XFACTOR=1
##YFACTOR=1
##FIRSTX=28
##LASTX=358
##FIRSTY=10
##MAXX=358
##MINX=28
##MAXY=9999
##MINY=10
##NPOINTS=50
##PEAK TABLE=(XY..XY)
28,10 41,40 43,40 59,20
69,30 75,470 76,20 77,50
79,20 88,60 89,50 91,220
103,170 115,20 119,611 120,50
127,591 128,100 135,20 142,50
145,30 151,20 152,20 165,60
177,20 178,70 179,70 181,40
193,20 197,110 212,20 237,20
239,40 253,70 255,70 269,30
271,70 279,400 280,70 281,10
297,20 339,60 340,40 341,9999
342,2973 343,781 344,100 356,1942
357,581 358,140
##END=
