##TITLE=Silane, dimethyl(3-methylbut-2-enyloxy)butoxy-
##JCAMP-DX=4.24
##DATA TYPE=MASS SPECTRUM
##ORIGIN=V.G. Zaikin, R.S.Borisov, TIPS RAS, Moscow, Russia
##OWNER=NIST Mass Spectrometry Data Center
Collection (C) 2014 copyright by the U.S. Secretary of Commerce
on behalf of the United States of America. All rights reserved.
##$NIST MASS SPEC NO=347964
##MOLFORM=C11 H24 O2 Si
##MW=216
##$NIST SOURCE=MSDC
##XUNITS=M/Z
##YUNITS=RELATIVE INTENSITY
##XFACTOR=1
##YFACTOR=1
##FIRSTX=27
##LASTX=218
##FIRSTY=110
##MAXX=218
##MINX=27
##MAXY=9999
##MINY=20
##NPOINTS=101
##PEAK TABLE=(XY..XY)
27,110 29,150 39,160 40,30
41,681 43,100 45,370 47,310
51,20 53,170 54,20 55,160
57,40 58,110 59,360 60,110
61,340 62,30 63,140 64,390
65,40 66,20 67,310 68,801
69,530 72,20 73,40 74,120
75,6816 76,571 77,4224 78,270
79,500 81,540 82,30 85,50
86,20 87,80 88,80 89,781
90,100 91,450 92,30 93,70
99,110 101,310 102,30 103,140
104,20 105,550 106,40 109,120
111,120 113,260 114,20 115,170
116,40 117,450 118,40 119,70
125,50 127,390 128,70 129,1571
130,180 131,4934 132,591 133,3553
134,360 135,150 141,360 142,100
143,340 144,40 145,791 146,100
147,410 155,30 157,70 159,2752
160,350 161,390 162,30 171,50
173,901 174,120 175,30 177,510
178,70 179,210 180,20 185,50
187,20 201,9999 202,1682 203,500
204,30 215,130 216,1241 217,230
218,50
##END=
