##TITLE=Silane, dimethyl(2-propylphenoxy)isobutoxy-
##JCAMP-DX=4.24
##DATA TYPE=MASS SPECTRUM
##ORIGIN=V.G. Zaikin, R.S.Borisov, TIPS RAS, Moscow, Russia
##OWNER=NIST Mass Spectrometry Data Center
Collection (C) 2014 copyright by the U.S. Secretary of Commerce
on behalf of the United States of America. All rights reserved.
##$NIST MASS SPEC NO=347413
##MOLFORM=C15 H26 O2 Si
##MW=266
##$NIST SOURCE=MSDC
##XUNITS=M/Z
##YUNITS=RELATIVE INTENSITY
##XFACTOR=1
##YFACTOR=1
##FIRSTX=26
##LASTX=269
##FIRSTY=50
##MAXX=269
##MINX=26
##MAXY=9999
##MINY=20
##NPOINTS=122
##PEAK TABLE=(XY..XY)
26,50 27,380 29,601 31,40
39,390 40,40 41,1141 42,70
43,961 45,450 47,410 50,20
51,130 52,30 53,40 55,260
56,60 57,1902 58,220 59,1541
60,110 61,490 62,20 63,100
65,190 67,30 68,30 73,90
74,150 75,5985 76,420 77,891
78,190 79,150 81,40 82,871
83,50 85,60 88,40 89,430
90,140 91,2422 92,80 95,60
97,80 102,40 103,190 104,80
105,250 107,220 111,50 115,490
116,90 117,150 118,70 119,50
121,200 123,40 129,240 131,420
132,20 133,180 134,40 135,1041
136,150 137,310 145,30 147,611
148,220 149,2772 150,390 151,1131
152,150 153,180 161,831 162,110
163,3503 164,711 165,9579 166,1421
167,781 168,70 175,510 176,60
177,2612 178,430 179,500 180,60
181,1912 182,280 183,150 189,40
191,6846 192,3043 193,2402 194,420
195,881 196,110 197,20 205,30
207,50 209,641 210,370 211,50
219,1401 220,260 221,200 222,30
223,921 224,170 225,30 233,70
237,2903 238,540 239,130 251,1181
252,230 253,40 266,9999 267,2192
268,571 269,60
##END=
