##TITLE=Silane, dimethyl(3-hexyloxy)butoxy-
##JCAMP-DX=4.24
##DATA TYPE=MASS SPECTRUM
##ORIGIN=V.G. Zaikin, R.S.Borisov, TIPS RAS, Moscow, Russia
##OWNER=NIST Mass Spectrometry Data Center
Collection (C) 2014 copyright by the U.S. Secretary of Commerce
on behalf of the United States of America. All rights reserved.
##$NIST MASS SPEC NO=347639
##MOLFORM=C12 H28 O2 Si
##MW=232
##$NIST SOURCE=MSDC
##XUNITS=M/Z
##YUNITS=RELATIVE INTENSITY
##XFACTOR=1
##YFACTOR=1
##FIRSTX=27
##LASTX=232
##FIRSTY=90
##MAXX=232
##MINX=27
##MAXY=9999
##MINY=10
##NPOINTS=91
##PEAK TABLE=(XY..XY)
27,90 29,130 39,80 41,260
42,70 43,240 44,80 45,230
47,160 55,190 56,90 57,110
58,180 59,430 60,60 61,260
63,60 69,50 72,380 73,40
74,80 75,4654 76,360 77,1732
78,100 79,60 83,30 84,30
85,50 86,20 87,100 88,160
89,661 90,60 91,220 93,90
99,90 101,260 102,270 103,120
104,320 105,270 106,20 107,50
113,20 115,320 116,60 117,1571
118,180 119,70 120,20 129,60
131,7827 132,1011 133,3343 134,340
135,150 145,370 146,2562 147,801
148,601 149,90 150,20 151,40
159,530 160,120 161,140 162,20
163,40 164,70 173,60 177,510
178,90 179,250 180,30 187,40
189,9999 190,1631 191,520 192,40
203,7687 204,1661 205,460 206,40
207,30 209,10 217,1712 218,270
219,130 231,160 232,20
##END=
