##TITLE=Silane, dimethyl(2-methoxyethoxy)dodecyloxy-
##JCAMP-DX=4.24
##DATA TYPE=MASS SPECTRUM
##ORIGIN=V.G. Zaikin, R.S.Borisov, TIPS RAS, Moscow, Russia
##OWNER=NIST Mass Spectrometry Data Center
Collection (C) 2014 copyright by the U.S. Secretary of Commerce
on behalf of the United States of America. All rights reserved.
##$NIST MASS SPEC NO=347851
##MOLFORM=C17 H38 O3 Si
##MW=318
##$NIST SOURCE=MSDC
##XUNITS=M/Z
##YUNITS=RELATIVE INTENSITY
##XFACTOR=1
##YFACTOR=1
##FIRSTX=27
##LASTX=306
##FIRSTY=80
##MAXX=306
##MINX=27
##MAXY=9999
##MINY=10
##NPOINTS=88
##PEAK TABLE=(XY..XY)
27,80 29,210 39,80 41,460
42,80 43,540 45,200 47,40
53,20 54,50 55,561 56,110
57,320 58,180 59,310 60,30
61,400 67,140 68,60 69,721
70,90 71,70 74,40 75,1972
76,120 77,420 81,120 82,70
83,831 84,70 85,80 87,80
88,100 89,3383 90,280 91,3393
92,220 93,190 95,80 96,20
97,731 98,40 99,70 101,260
102,20 103,350 104,30 105,591
106,20 107,140 109,30 111,270
113,20 115,210 117,651 118,50
119,991 120,60 121,70 129,80
131,160 132,160 133,6846 134,721
135,330 143,30 145,60 147,110
157,10 159,30 161,50 175,20
189,30 203,10 243,591 244,90
245,30 259,310 260,40 271,20
273,811 274,150 275,20 302,130
303,9999 304,2402 305,631 306,60
##END=
