##TITLE=Silane, dimethyl(2-biphenyloxy)ethoxy-
##JCAMP-DX=4.24
##DATA TYPE=MASS SPECTRUM
##ORIGIN=V.G. Zaikin, R.S.Borisov, TIPS RAS, Moscow, Russia
##OWNER=NIST Mass Spectrometry Data Center
Collection (C) 2014 copyright by the U.S. Secretary of Commerce
on behalf of the United States of America. All rights reserved.
##$NIST MASS SPEC NO=347344
##MOLFORM=C16 H20 O2 Si
##MW=272
##$NIST SOURCE=MSDC
##XUNITS=M/Z
##YUNITS=RELATIVE INTENSITY
##XFACTOR=1
##YFACTOR=1
##FIRSTX=27
##LASTX=275
##FIRSTY=20
##MAXX=275
##MINX=27
##MAXY=9999
##MINY=20
##NPOINTS=80
##PEAK TABLE=(XY..XY)
27,20 29,20 39,20 43,20
45,130 47,90 51,20 58,20
59,230 61,20 63,30 74,20
75,661 76,80 77,110 87,20
89,20 91,40 92,20 98,20
101,20 102,30 103,340 104,30
105,671 106,550 107,20 113,190
114,50 115,170 126,40 127,40
128,20 135,20 139,110 140,20
141,130 142,20 146,20 150,40
151,120 152,591 153,150 154,130
155,20 165,300 166,90 167,60
168,90 169,120 170,50 181,90
185,20 195,60 196,130 197,200
198,40 211,9999 212,1902 213,1131
214,160 215,30 225,50 226,20
227,540 228,350 229,270 230,50
237,30 239,1461 240,290 241,90
242,20 257,721 258,140 259,30
272,4234 273,971 274,250 275,20
##END=
