##TITLE=Silane, dimethyl(2-hexyloxy)ethoxy-
##JCAMP-DX=4.24
##DATA TYPE=MASS SPECTRUM
##ORIGIN=V.G. Zaikin, R.S.Borisov, TIPS RAS, Moscow, Russia
##OWNER=NIST Mass Spectrometry Data Center
Collection (C) 2014 copyright by the U.S. Secretary of Commerce
on behalf of the United States of America. All rights reserved.
##$NIST MASS SPEC NO=347672
##MOLFORM=C10 H24 O2 Si
##MW=204
##$NIST SOURCE=MSDC
##XUNITS=M/Z
##YUNITS=RELATIVE INTENSITY
##XFACTOR=1
##YFACTOR=1
##FIRSTX=27
##LASTX=203
##FIRSTY=100
##MAXX=203
##MINX=27
##MAXY=9999
##MINY=10
##NPOINTS=60
##PEAK TABLE=(XY..XY)
27,100 29,160 39,60 41,180
42,40 43,200 45,320 47,200
55,110 56,40 57,30 58,120
59,480 60,70 61,300 62,30
63,120 69,40 72,20 73,190
74,70 75,1982 76,180 77,1301
78,70 79,50 84,30 87,150
88,100 89,180 90,10 91,30
99,20 101,160 102,90 103,6976
104,701 105,3263 106,270 107,120
115,60 117,140 121,30 129,20
131,200 132,40 133,60 145,621
146,80 147,9999 148,1211 149,440
150,20 159,170 160,20 173,20
189,2332 190,360 191,110 203,120
##END=
