##TITLE=Silane, dimethyl(2,3-dimethylphenoxy)butoxy-
##JCAMP-DX=4.24
##DATA TYPE=MASS SPECTRUM
##ORIGIN=V.G. Zaikin, R.S.Borisov, TIPS RAS, Moscow, Russia
##OWNER=NIST Mass Spectrometry Data Center
Collection (C) 2014 copyright by the U.S. Secretary of Commerce
on behalf of the United States of America. All rights reserved.
##$NIST MASS SPEC NO=347441
##MOLFORM=C14 H24 O2 Si
##MW=252
##$NIST SOURCE=MSDC
##XUNITS=M/Z
##YUNITS=RELATIVE INTENSITY
##XFACTOR=1
##YFACTOR=1
##FIRSTX=27
##LASTX=255
##FIRSTY=70
##MAXX=255
##MINX=27
##MAXY=9999
##MINY=10
##NPOINTS=101
##PEAK TABLE=(XY..XY)
27,70 29,100 39,90 41,190
43,80 45,130 47,130 51,40
53,40 55,70 57,60 58,60
59,280 60,30 61,120 63,30
65,70 68,10 74,50 75,2242
76,190 77,651 78,130 79,220
80,20 81,120 82,540 83,30
85,20 87,20 88,30 89,631
90,100 91,370 92,40 93,30
99,30 101,40 102,30 103,280
104,160 105,3353 106,330 107,90
115,130 116,20 117,70 119,280
120,20 121,220 122,60 123,20
131,681 132,70 135,130 137,50
145,80 147,230 148,150 149,831
150,130 151,250 152,20 159,20
161,280 162,250 163,3783 164,671
165,1091 166,180 167,60 175,90
177,611 178,4524 179,4284 180,931
181,4154 182,641 183,220 189,20
193,270 194,70 195,1621 196,1201
197,240 198,50 205,20 207,40
209,1341 210,220 211,50 219,70
235,30 237,3964 238,771 239,200
251,50 252,9999 253,2122 254,581
255,70
##END=
