##TITLE=Silane, dimethyl(4-methoxyphenoxy)octyloxy-
##JCAMP-DX=4.24
##DATA TYPE=MASS SPECTRUM
##ORIGIN=V.G. Zaikin, R.S.Borisov, TIPS RAS, Moscow, Russia
##OWNER=NIST Mass Spectrometry Data Center
Collection (C) 2014 copyright by the U.S. Secretary of Commerce
on behalf of the United States of America. All rights reserved.
##$NIST MASS SPEC NO=347146
##MOLFORM=C17 H30 O3 Si
##MW=310
##$NIST SOURCE=MSDC
##XUNITS=M/Z
##YUNITS=RELATIVE INTENSITY
##XFACTOR=1
##YFACTOR=1
##FIRSTX=29
##LASTX=313
##FIRSTY=30
##MAXX=313
##MINX=29
##MAXY=9999
##MINY=20
##NPOINTS=44
##PEAK TABLE=(XY..XY)
29,30 39,20 41,160 43,120
55,250 56,30 57,30 59,70
69,651 70,30 75,971 76,40
77,90 83,30 89,140 90,230
101,60 108,70 109,60 121,160
123,50 124,90 151,120 165,50
166,40 167,160 168,30 179,30
181,1742 182,270 183,1972 184,260
185,90 187,230 195,90 197,70
198,400 199,40 211,210 295,120
310,9999 311,2442 312,651 313,60
##END=
