##TITLE=Silane, dimethyl(4-ethylphenoxy)isobutoxy-
##JCAMP-DX=4.24
##DATA TYPE=MASS SPECTRUM
##ORIGIN=V.G. Zaikin, R.S.Borisov, TIPS RAS, Moscow, Russia
##OWNER=NIST Mass Spectrometry Data Center
Collection (C) 2014 copyright by the U.S. Secretary of Commerce
on behalf of the United States of America. All rights reserved.
##$NIST MASS SPEC NO=347423
##MOLFORM=C14 H24 O2 Si
##MW=252
##$NIST SOURCE=MSDC
##XUNITS=M/Z
##YUNITS=RELATIVE INTENSITY
##XFACTOR=1
##YFACTOR=1
##FIRSTX=27
##LASTX=255
##FIRSTY=10
##MAXX=255
##MINX=27
##MAXY=9999
##MINY=10
##NPOINTS=91
##PEAK TABLE=(XY..XY)
27,10 29,10 39,20 41,80
42,10 43,40 45,20 47,20
51,20 55,10 57,240 58,20
59,250 61,60 65,10 73,210
74,20 75,1672 76,100 77,400
78,40 79,40 82,260 89,100
91,320 92,10 95,10 97,20
102,10 103,140 104,80 105,210
106,10 107,100 115,30 119,50
120,10 121,70 122,10 123,10
129,10 131,260 133,50 135,781
136,70 137,160 147,310 148,80
149,801 150,90 151,651 152,60
153,110 161,771 162,120 163,4434
164,701 165,1772 166,230 167,120
175,10 177,6786 178,4724 179,5015
180,881 181,3163 182,430 183,130
191,30 193,60 194,10 195,2232
196,781 197,140 198,10 207,20
209,1471 210,230 211,40 219,250
220,20 221,10 223,10 237,2072
238,390 239,80 251,10 252,9999
253,2162 254,540 255,30
##END=
