##TITLE=Silane, dimethyl(2-methoxyethoxy)undecyloxy-
##JCAMP-DX=4.24
##DATA TYPE=MASS SPECTRUM
##ORIGIN=V.G. Zaikin, R.S.Borisov, TIPS RAS, Moscow, Russia
##OWNER=NIST Mass Spectrometry Data Center
Collection (C) 2014 copyright by the U.S. Secretary of Commerce
on behalf of the United States of America. All rights reserved.
##$NIST MASS SPEC NO=347850
##MOLFORM=C16 H36 O3 Si
##MW=304
##$NIST SOURCE=MSDC
##XUNITS=M/Z
##YUNITS=RELATIVE INTENSITY
##XFACTOR=1
##YFACTOR=1
##FIRSTX=27
##LASTX=292
##FIRSTY=60
##MAXX=292
##MINX=27
##MAXY=9999
##MINY=10
##NPOINTS=91
##PEAK TABLE=(XY..XY)
27,60 29,160 39,60 41,360
42,60 43,420 45,160 47,30
54,30 55,440 56,90 57,250
58,150 59,360 60,30 61,300
67,90 68,50 69,500 70,60
71,170 74,30 75,1531 76,100
77,340 81,80 82,30 83,681
84,60 85,70 87,70 88,100
89,2652 90,220 91,2692 92,190
93,150 95,50 97,681 98,40
99,70 101,230 102,20 103,330
104,40 105,500 106,20 107,100
109,20 111,140 113,20 115,200
117,530 118,50 119,831 120,60
121,70 127,10 129,80 131,140
132,140 133,5495 134,601 135,300
143,40 145,50 147,80 149,20
152,20 157,20 159,40 161,60
175,20 189,30 193,20 203,20
213,20 217,20 219,20 229,711
230,110 231,40 245,410 246,60
257,20 259,871 260,160 289,9999
290,2152 291,591 292,50
##END=
