##TITLE=Silane, dimethyl(3-methylbut-2-enyloxy)hexadecyloxy-
##JCAMP-DX=4.24
##DATA TYPE=MASS SPECTRUM
##ORIGIN=V.G. Zaikin, R.S.Borisov, TIPS RAS, Moscow, Russia
##OWNER=NIST Mass Spectrometry Data Center
Collection (C) 2014 copyright by the U.S. Secretary of Commerce
on behalf of the United States of America. All rights reserved.
##$NIST MASS SPEC NO=347975
##MOLFORM=C23 H48 O2 Si
##MW=384
##$NIST SOURCE=MSDC
##XUNITS=M/Z
##YUNITS=RELATIVE INTENSITY
##XFACTOR=1
##YFACTOR=1
##FIRSTX=26
##LASTX=386
##FIRSTY=40
##MAXX=386
##MINX=26
##MAXY=9999
##MINY=10
##NPOINTS=159
##PEAK TABLE=(XY..XY)
26,40 27,150 29,280 39,190
40,60 41,1131 42,190 43,1161
45,60 47,40 51,20 53,140
54,120 55,1001 56,210 57,931
58,50 59,170 60,20 61,180
63,40 65,20 66,30 67,440
68,1051 69,2742 70,290 71,591
72,20 73,30 74,40 75,4204
76,300 77,1712 78,90 79,80
80,20 81,571 82,350 83,901
84,110 85,290 87,50 88,20
89,510 90,40 91,270 92,10
93,150 95,280 96,230 97,721
98,70 99,70 101,280 102,20
103,160 105,480 106,40 107,50
109,160 110,80 111,310 112,30
113,120 114,20 115,180 116,30
117,380 118,30 119,130 121,20
123,80 124,40 125,90 127,190
128,40 129,711 130,90 131,280
132,20 133,90 135,30 137,40
138,20 139,20 141,160 142,60
143,280 144,40 145,731 146,70
147,440 148,30 149,430 150,50
151,30 155,30 157,120 158,30
159,3793 160,530 161,200 163,100
165,20 171,80 172,20 173,841
174,110 175,100 177,10 185,80
187,40 199,30 201,550 202,70
203,20 207,20 213,20 215,60
221,10 222,110 223,90 224,20
225,30 227,30 243,40 255,20
257,130 258,20 269,20 271,30
283,100 285,30 297,30 299,741
300,180 301,761 302,170 303,30
313,100 314,20 315,140 316,30
327,1291 328,360 329,260 330,50
341,120 342,30 369,9999 370,3043
371,1331 372,270 373,40 383,100
384,631 385,200 386,40
##END=
