##TITLE=Silane, dimethyl(non-5-yn-3-yloxy)ethoxy-
##JCAMP-DX=4.24
##DATA TYPE=MASS SPECTRUM
##ORIGIN=V.G. Zaikin, R.S.Borisov, TIPS RAS, Moscow, Russia
##OWNER=NIST Mass Spectrometry Data Center
Collection (C) 2014 copyright by the U.S. Secretary of Commerce
on behalf of the United States of America. All rights reserved.
##$NIST MASS SPEC NO=347888
##MOLFORM=C13 H26 O2 Si
##MW=242
##$NIST SOURCE=MSDC
##XUNITS=M/Z
##YUNITS=RELATIVE INTENSITY
##XFACTOR=1
##YFACTOR=1
##FIRSTX=27
##LASTX=228
##FIRSTY=100
##MAXX=228
##MINX=27
##MAXY=9999
##MINY=20
##NPOINTS=73
##PEAK TABLE=(XY..XY)
27,100 29,160 39,80 41,130
43,60 45,210 47,170 51,50
52,60 53,110 55,30 58,90
59,621 60,50 61,250 63,40
65,50 73,170 74,40 75,1892
76,140 77,651 78,50 79,120
81,50 83,40 85,70 87,110
88,20 89,110 91,80 96,20
97,80 98,20 99,80 101,160
102,30 103,6025 104,581 105,540
106,20 107,20 109,20 111,60
113,20 115,50 117,2392 118,240
119,130 123,20 125,200 126,20
127,60 131,110 139,220 140,30
141,40 145,100 147,40 155,30
161,9999 162,1301 163,410 164,20
169,931 170,120 171,30 183,130
197,180 198,20 213,20 227,370
228,50
##END=
