##TITLE=Silane, dimethyl(4-phenoxybenzyloxy)heptyloxy-
##JCAMP-DX=4.24
##DATA TYPE=MASS SPECTRUM
##ORIGIN=V.G. Zaikin, R.S.Borisov, TIPS RAS, Moscow, Russia
##OWNER=NIST Mass Spectrometry Data Center
Collection (C) 2014 copyright by the U.S. Secretary of Commerce
on behalf of the United States of America. All rights reserved.
##$NIST MASS SPEC NO=347403
##MOLFORM=C22 H32 O3 Si
##MW=372
##$NIST SOURCE=MSDC
##XUNITS=M/Z
##YUNITS=RELATIVE INTENSITY
##XFACTOR=1
##YFACTOR=1
##FIRSTX=29
##LASTX=375
##FIRSTY=40
##MAXX=375
##MINX=29
##MAXY=9999
##MINY=20
##NPOINTS=123
##PEAK TABLE=(XY..XY)
29,40 39,50 41,160 42,30
43,210 45,60 47,40 51,120
55,390 56,30 57,711 58,50
59,140 61,80 63,40 64,20
65,50 75,1692 76,150 77,390
78,150 89,440 90,300 91,220
94,20 97,30 101,40 103,40
104,30 105,200 106,30 107,50
115,240 116,30 117,30 120,20
121,30 127,140 128,951 129,581
130,60 135,40 137,30 139,50
141,70 149,80 150,30 151,130
152,200 153,420 154,220 155,300
156,30 163,120 164,110 165,741
166,150 167,70 168,550 169,140
170,30 171,20 173,230 174,20
178,30 179,200 180,70 181,1161
182,480 183,6516 184,1121 185,90
189,30 195,40 196,40 197,270
198,270 199,30 211,681 212,120
213,250 214,20 225,200 226,30
227,941 228,170 229,340 230,50
238,20 239,30 240,30 241,5125
242,1041 243,821 244,120 245,20
255,160 256,691 257,1621 258,390
259,851 260,180 261,40 264,90
273,5105 274,1531 275,380 276,50
279,110 280,20 287,601 288,130
289,20 327,300 328,70 357,641
358,180 359,20 371,100 372,9999
373,2993 374,781 375,110
##END=
