##TITLE=Silane, dimethyl(2-propylphenoxy)isohexyloxy-
##JCAMP-DX=4.24
##DATA TYPE=MASS SPECTRUM
##ORIGIN=V.G. Zaikin, R.S.Borisov, TIPS RAS, Moscow, Russia
##OWNER=NIST Mass Spectrometry Data Center
Collection (C) 2014 copyright by the U.S. Secretary of Commerce
on behalf of the United States of America. All rights reserved.
##$NIST MASS SPEC NO=347416
##MOLFORM=C17 H30 O2 Si
##MW=294
##$NIST SOURCE=MSDC
##XUNITS=M/Z
##YUNITS=RELATIVE INTENSITY
##XFACTOR=1
##YFACTOR=1
##FIRSTX=26
##LASTX=297
##FIRSTY=20
##MAXX=297
##MINX=26
##MAXY=9999
##MINY=20
##NPOINTS=120
##PEAK TABLE=(XY..XY)
26,20 27,160 29,150 39,140
40,20 41,671 42,60 43,1672
44,30 45,140 47,120 51,30
53,20 55,1381 56,270 57,230
58,70 59,631 60,40 61,210
63,30 65,60 67,20 69,260
73,60 74,40 75,2242 76,160
77,340 78,70 79,50 81,30
82,300 83,6426 84,440 85,581
86,20 87,20 88,20 89,230
90,50 91,1111 92,70 95,20
97,20 99,80 101,120 102,20
103,90 104,90 105,120 107,130
115,270 116,50 117,100 118,20
119,20 121,90 131,40 133,70
134,30 135,771 136,100 137,210
143,30 145,20 147,340 148,160
149,1651 150,240 151,831 152,110
153,120 157,100 159,40 161,611
162,90 163,2482 164,510 165,4444
166,681 167,390 168,40 175,350
176,50 177,1061 178,210 179,340
180,50 181,1071 182,180 183,80
189,70 191,4674 192,2582 193,1311
194,280 195,621 196,90 197,20
205,20 207,50 208,20 209,550
210,771 211,190 212,30 223,611
224,90 233,20 237,20 265,781
266,150 267,30 279,300 280,50
294,9999 295,2432 296,641 297,70
##END=
