##TITLE=Silane, dimethyl(3-ethylphenoxy)heptyloxy-
##JCAMP-DX=4.24
##DATA TYPE=MASS SPECTRUM
##ORIGIN=V.G. Zaikin, R.S.Borisov, TIPS RAS, Moscow, Russia
##OWNER=NIST Mass Spectrometry Data Center
Collection (C) 2014 copyright by the U.S. Secretary of Commerce
on behalf of the United States of America. All rights reserved.
##$NIST MASS SPEC NO=347466
##MOLFORM=C17 H30 O2 Si
##MW=294
##$NIST SOURCE=MSDC
##XUNITS=M/Z
##YUNITS=RELATIVE INTENSITY
##XFACTOR=1
##YFACTOR=1
##FIRSTX=27
##LASTX=297
##FIRSTY=70
##MAXX=297
##MINX=27
##MAXY=9999
##MINY=10
##NPOINTS=110
##PEAK TABLE=(XY..XY)
27,70 28,60 29,170 41,420
42,70 43,330 47,30 53,20
55,1041 56,110 57,130 58,40
59,250 60,20 61,110 67,20
68,30 69,180 70,70 73,140
74,30 75,1201 76,90 77,140
78,30 79,80 81,20 82,330
83,40 85,30 87,40 88,20
89,210 90,50 91,200 97,480
98,40 99,70 101,100 102,20
103,130 104,90 105,200 106,10
107,20 109,20 111,20 113,10
115,90 117,60 119,200 123,30
129,20 131,20 135,290 136,30
137,110 145,30 147,100 148,50
149,450 150,90 151,100 152,20
153,80 157,50 159,20 161,330
162,60 163,851 164,160 165,601
166,140 167,130 173,140 175,40
177,550 178,130 179,4334 180,771
181,6556 182,1001 183,420 184,40
189,80 191,50 193,290 194,60
195,530 196,3033 197,561 198,140
203,20 205,30 207,90 208,20
209,1141 210,180 219,20 222,20
223,40 265,20 279,2542 280,561
281,120 293,20 294,9999 295,2172
296,561 297,60
##END=
