##TITLE=Silane, dimethyl(2,5-dimethylphenoxy)heptadecyloxy-
##JCAMP-DX=4.24
##DATA TYPE=MASS SPECTRUM
##ORIGIN=V.G. Zaikin, R.S.Borisov, TIPS RAS, Moscow, Russia
##OWNER=NIST Mass Spectrometry Data Center
Collection (C) 2014 copyright by the U.S. Secretary of Commerce
on behalf of the United States of America. All rights reserved.
##$NIST MASS SPEC NO=347302
##MOLFORM=C27 H50 O2 Si
##MW=434
##$NIST SOURCE=MSDC
##XUNITS=M/Z
##YUNITS=RELATIVE INTENSITY
##XFACTOR=1
##YFACTOR=1
##FIRSTX=27
##LASTX=438
##FIRSTY=50
##MAXX=438
##MINX=27
##MAXY=9999
##MINY=10
##NPOINTS=85
##PEAK TABLE=(XY..XY)
27,50 29,110 39,50 41,350
42,60 43,571 53,20 54,40
55,611 56,100 57,460 59,70
61,40 67,90 68,50 69,530
70,70 71,200 75,791 76,50
77,110 78,20 79,40 81,70
82,50 83,450 84,50 85,120
89,110 91,60 95,50 97,330
98,30 99,30 101,50 103,30
104,20 105,1021 106,90 107,30
111,110 115,40 119,110 121,40
122,30 125,20 147,10 149,170
150,20 151,40 161,50 162,50
163,741 164,140 165,170 166,30
167,20 175,20 177,220 178,1792
179,1862 180,360 181,961 182,150
183,140 191,10 193,100 194,30
195,1021 196,1331 197,480 198,90
205,10 209,470 210,70 211,20
419,150 420,50 432,30 433,20
434,9999 435,3553 436,971 437,160
438,20
##END=
