##TITLE=Silane, dimethyldi(3-methylpentyloxy)-
##JCAMP-DX=4.24
##DATA TYPE=MASS SPECTRUM
##ORIGIN=V.G. Zaikin, R.S.Borisov, TIPS RAS, Moscow, Russia
##OWNER=NIST Mass Spectrometry Data Center
Collection (C) 2014 copyright by the U.S. Secretary of Commerce
on behalf of the United States of America. All rights reserved.
##$NIST MASS SPEC NO=347708
##MOLFORM=C14 H32 O2 Si
##MW=260
##$NIST SOURCE=MSDC
##XUNITS=M/Z
##YUNITS=RELATIVE INTENSITY
##XFACTOR=1
##YFACTOR=1
##FIRSTX=27
##LASTX=247
##FIRSTY=170
##MAXX=247
##MINX=27
##MAXY=9999
##MINY=10
##NPOINTS=56
##PEAK TABLE=(XY..XY)
27,170 28,180 29,450 39,70
43,320 45,50 47,30 53,30
55,410 57,370 58,20 59,110
61,110 66,20 67,10 69,140
74,20 75,751 76,50 77,230
83,9999 84,510 85,410 86,80
87,80 88,80 89,911 90,60
91,170 92,80 93,30 99,20
101,110 102,20 103,110 105,150
107,20 109,20 115,60 117,160
119,200 129,20 131,50 133,40
143,40 145,40 159,120 161,20
173,20 175,20 177,30 189,140
190,10 245,1882 246,370 247,90
##END=
