##TITLE=Silane, dimethyl(undec-2-enyloxy)butoxy-
##JCAMP-DX=4.24
##DATA TYPE=MASS SPECTRUM
##ORIGIN=V.G. Zaikin, R.S.Borisov, TIPS RAS, Moscow, Russia
##OWNER=NIST Mass Spectrometry Data Center
Collection (C) 2014 copyright by the U.S. Secretary of Commerce
on behalf of the United States of America. All rights reserved.
##$NIST MASS SPEC NO=347937
##MOLFORM=C17 H36 O2 Si
##MW=300
##$NIST SOURCE=MSDC
##XUNITS=M/Z
##YUNITS=RELATIVE INTENSITY
##XFACTOR=1
##YFACTOR=1
##FIRSTX=27
##LASTX=302
##FIRSTY=160
##MAXX=302
##MINX=27
##MAXY=9999
##MINY=20
##NPOINTS=147
##PEAK TABLE=(XY..XY)
27,160 29,350 39,190 41,841
42,80 43,420 45,210 47,160
53,130 54,410 55,681 56,80
57,210 58,60 59,370 60,70
61,390 62,20 63,110 65,30
66,80 67,731 68,440 69,340
70,20 74,100 75,6866 76,530
77,4264 78,270 79,200 80,60
81,731 82,831 83,300 84,30
87,120 88,70 89,981 90,110
91,500 92,30 93,571 94,60
95,1251 96,631 97,210 98,50
99,410 100,50 101,611 102,50
103,270 104,20 105,791 106,60
107,40 109,581 110,320 111,140
112,20 113,460 114,100 115,1702
116,180 117,450 118,30 119,150
121,20 123,160 124,290 125,60
127,170 128,80 129,871 130,130
131,8928 132,1031 133,5855 134,611
135,220 141,110 142,20 143,300
144,50 145,811 146,100 147,190
149,470 150,50 151,210 152,440
153,50 155,60 157,230 158,40
159,1201 160,140 161,380 162,30
165,40 169,80 171,190 172,20
173,240 174,50 175,20 183,40
185,140 186,20 187,9999 188,1521
189,450 190,20 199,90 200,20
201,1992 202,310 203,90 211,270
212,40 213,671 214,110 215,240
216,30 227,170 228,20 229,490
230,70 231,20 243,1601 244,290
245,60 255,40 257,1972 258,360
259,90 271,160 272,30 285,2462
286,530 287,170 288,30 299,100
300,881 301,130 302,30
##END=
