##TITLE=Silane, dimethyl(2-decyloxy)ethoxy-
##JCAMP-DX=4.24
##DATA TYPE=MASS SPECTRUM
##ORIGIN=V.G. Zaikin, R.S.Borisov, TIPS RAS, Moscow, Russia
##OWNER=NIST Mass Spectrometry Data Center
Collection (C) 2014 copyright by the U.S. Secretary of Commerce
on behalf of the United States of America. All rights reserved.
##$NIST MASS SPEC NO=347614
##MOLFORM=C14 H32 O2 Si
##MW=260
##$NIST SOURCE=MSDC
##XUNITS=M/Z
##YUNITS=RELATIVE INTENSITY
##XFACTOR=1
##YFACTOR=1
##FIRSTX=27
##LASTX=259
##FIRSTY=90
##MAXX=259
##MINX=27
##MAXY=9999
##MINY=20
##NPOINTS=66
##PEAK TABLE=(XY..XY)
27,90 29,160 39,60 41,310
42,60 43,280 45,120 47,90
53,20 55,210 56,70 57,50
58,50 59,290 60,30 61,200
63,70 67,30 69,110 70,30
73,100 74,40 75,1391 76,110
77,991 78,50 79,30 83,50
87,90 88,40 89,110 91,50
97,20 99,30 101,110 102,60
103,4524 104,440 105,2242 106,170
107,70 113,20 115,70 116,20
117,40 121,60 129,90 131,170
132,20 133,80 143,80 145,60
147,9999 148,1181 149,420 150,20
159,60 173,60 187,60 201,260
202,40 215,60 245,1551 246,290
247,70 259,80
##END=
