##TITLE=Silane, dimethyl(undec-2-enyloxy)octyloxy-
##JCAMP-DX=4.24
##DATA TYPE=MASS SPECTRUM
##ORIGIN=V.G. Zaikin, R.S.Borisov, TIPS RAS, Moscow, Russia
##OWNER=NIST Mass Spectrometry Data Center
Collection (C) 2014 copyright by the U.S. Secretary of Commerce
on behalf of the United States of America. All rights reserved.
##$NIST MASS SPEC NO=347941
##MOLFORM=C21 H44 O2 Si
##MW=356
##$NIST SOURCE=MSDC
##XUNITS=M/Z
##YUNITS=RELATIVE INTENSITY
##XFACTOR=1
##YFACTOR=1
##FIRSTX=26
##LASTX=358
##FIRSTY=30
##MAXX=358
##MINX=26
##MAXY=9999
##MINY=20
##NPOINTS=172
##PEAK TABLE=(XY..XY)
26,30 27,180 29,380 39,200
40,20 41,1091 42,220 43,1722
44,20 45,110 47,70 53,130
54,520 55,1712 56,220 57,591
58,60 59,310 60,40 61,340
63,70 65,40 66,90 67,1001
68,621 69,2903 70,260 71,881
72,40 74,70 75,6546 76,550
77,3663 78,240 79,180 80,70
81,1121 82,1191 83,871 84,120
85,50 87,170 88,60 89,1111
90,110 91,440 92,20 93,951
94,100 95,1361 96,851 97,500
98,30 99,480 100,50 101,951
102,90 103,450 104,30 105,921
106,60 107,70 108,20 109,781
110,601 111,460 112,60 113,440
114,110 115,1692 116,200 117,530
118,60 119,130 121,20 123,250
124,380 125,70 127,200 128,50
129,1011 130,150 131,1802 132,200
133,40 137,30 141,110 142,20
143,380 144,90 145,981 146,110
147,60 152,601 153,70 155,60
157,250 158,30 159,270 160,20
165,20 169,60 171,360 172,40
173,130 175,20 183,30 185,290
186,50 187,6296 188,1031 189,5495
190,771 191,230 193,20 197,20
199,90 201,140 203,120 205,500
206,80 207,150 209,20 211,300
212,40 213,681 214,110 215,981
216,150 217,290 218,40 223,200
224,30 225,70 226,40 227,200
228,30 229,340 230,60 231,180
232,20 241,30 243,9999 244,2062
245,571 255,20 257,3623 258,741
259,220 260,20 271,240 272,40
285,811 286,160 287,40 299,2012
300,480 301,120 311,30 313,1601
314,400 315,80 327,260 328,60
341,3773 342,1001 343,470 344,100
355,30 356,1441 357,370 358,80
##END=
