##TITLE=Silane, dimethyl(4-methoxyphenoxy)propoxy-
##JCAMP-DX=4.24
##DATA TYPE=MASS SPECTRUM
##ORIGIN=V.G. Zaikin, R.S.Borisov, TIPS RAS, Moscow, Russia
##OWNER=NIST Mass Spectrometry Data Center
Collection (C) 2014 copyright by the U.S. Secretary of Commerce
on behalf of the United States of America. All rights reserved.
##$NIST MASS SPEC NO=347140
##MOLFORM=C12 H20 O3 Si
##MW=240
##$NIST SOURCE=MSDC
##XUNITS=M/Z
##YUNITS=RELATIVE INTENSITY
##XFACTOR=1
##YFACTOR=1
##FIRSTX=41
##LASTX=242
##FIRSTY=30
##MAXX=242
##MINX=41
##MAXY=9999
##MINY=20
##NPOINTS=60
##PEAK TABLE=(XY..XY)
41,30 45,70 47,40 58,20
59,130 64,20 65,20 75,2092
76,110 77,260 78,30 79,20
81,40 83,20 85,40 89,40
90,1081 91,320 92,120 95,80
105,110 107,30 108,160 109,170
110,40 117,2072 118,140 119,20
121,270 123,200 124,160 125,20
135,70 137,50 138,50 139,30
149,20 151,220 152,30 153,30
165,140 166,80 167,741 168,130
169,20 179,40 181,2823 182,430
183,5525 184,631 185,170 198,50
211,641 212,50 225,1722 226,210
227,30 240,9999 241,1651 242,390
##END=
