##TITLE=Silane, dimethyl(3-methylbut-2-enyloxy)isohexyloxy-
##JCAMP-DX=4.24
##DATA TYPE=MASS SPECTRUM
##ORIGIN=V.G. Zaikin, R.S.Borisov, TIPS RAS, Moscow, Russia
##OWNER=NIST Mass Spectrometry Data Center
Collection (C) 2014 copyright by the U.S. Secretary of Commerce
on behalf of the United States of America. All rights reserved.
##$NIST MASS SPEC NO=347965
##MOLFORM=C13 H28 O2 Si
##MW=244
##$NIST SOURCE=MSDC
##XUNITS=M/Z
##YUNITS=RELATIVE INTENSITY
##XFACTOR=1
##YFACTOR=1
##FIRSTX=27
##LASTX=246
##FIRSTY=230
##MAXX=246
##MINX=27
##MAXY=9999
##MINY=20
##NPOINTS=104
##PEAK TABLE=(XY..XY)
27,230 29,200 39,320 40,40
41,1421 42,30 43,1231 45,410
47,350 53,230 54,20 55,1381
56,210 57,70 58,170 59,540
60,170 61,510 62,40 63,170
64,130 65,20 67,380 68,1021
69,1181 70,30 74,180 75,8107
76,641 77,3263 78,190 79,130
81,981 82,520 83,8888 84,571
85,200 86,50 87,120 88,160
89,731 90,210 91,260 93,40
95,100 99,230 100,30 101,811
102,70 103,300 104,30 105,741
106,50 107,20 109,30 115,250
116,40 117,641 118,40 119,170
125,70 127,450 128,70 129,1601
130,180 131,400 132,20 137,20
141,500 142,120 143,701 144,90
145,1261 146,130 147,60 155,50
157,180 158,50 159,5685 160,721
161,931 162,90 171,200 172,20
173,1361 174,150 175,661 176,60
185,30 187,490 188,90 189,120
199,20 201,2762 202,390 203,100
229,9999 230,1692 231,460 232,30
243,140 244,821 245,140 246,20
##END=
