##TITLE=Silane, dimethyl(4-ethylphenoxy)butoxy-
##JCAMP-DX=4.24
##DATA TYPE=MASS SPECTRUM
##ORIGIN=V.G. Zaikin, R.S.Borisov, TIPS RAS, Moscow, Russia
##OWNER=NIST Mass Spectrometry Data Center
Collection (C) 2014 copyright by the U.S. Secretary of Commerce
on behalf of the United States of America. All rights reserved.
##$NIST MASS SPEC NO=347424
##MOLFORM=C14 H24 O2 Si
##MW=252
##$NIST SOURCE=MSDC
##XUNITS=M/Z
##YUNITS=RELATIVE INTENSITY
##XFACTOR=1
##YFACTOR=1
##FIRSTX=27
##LASTX=255
##FIRSTY=250
##MAXX=255
##MINX=27
##MAXY=9999
##MINY=10
##NPOINTS=110
##PEAK TABLE=(XY..XY)
27,250 29,400 39,210 41,510
42,20 43,270 45,350 47,330
50,20 51,120 53,70 55,200
56,50 57,480 58,120 59,1121
60,70 61,400 63,80 65,110
68,50 71,10 73,561 74,140
75,4954 76,360 77,1141 78,200
79,160 81,70 82,1121 83,40
85,50 87,20 88,30 89,601
90,90 91,991 92,50 93,20
95,40 97,70 99,10 101,60
102,50 103,350 104,190 105,470
106,20 107,150 115,120 117,10
119,100 120,60 121,180 122,30
123,30 131,1171 132,80 133,190
134,20 135,1361 136,130 137,320
145,20 147,520 148,180 149,1321
150,160 151,1051 152,100 153,360
154,10 161,1171 162,190 163,7387
164,1131 165,4194 166,571 167,320
168,10 175,20 177,6616 178,7767
179,4044 180,761 181,2562 182,290
183,100 191,10 193,80 194,10
195,1682 196,641 197,100 207,20
209,1031 210,120 211,20 219,90
221,10 223,30 237,4374 238,771
239,190 251,20 252,9999 253,2032
254,510 255,50
##END=
