##TITLE=Silane, dimethyl(non-3-enyloxy)heptyloxy-
##JCAMP-DX=4.24
##DATA TYPE=MASS SPECTRUM
##ORIGIN=V.G. Zaikin, R.S.Borisov, TIPS RAS, Moscow, Russia
##OWNER=NIST Mass Spectrometry Data Center
Collection (C) 2014 copyright by the U.S. Secretary of Commerce
on behalf of the United States of America. All rights reserved.
##$NIST MASS SPEC NO=347996
##MOLFORM=C18 H38 O2 Si
##MW=314
##$NIST SOURCE=MSDC
##XUNITS=M/Z
##YUNITS=RELATIVE INTENSITY
##XFACTOR=1
##YFACTOR=1
##FIRSTX=26
##LASTX=314
##FIRSTY=10
##MAXX=314
##MINX=26
##MAXY=9999
##MINY=10
##NPOINTS=142
##PEAK TABLE=(XY..XY)
26,10 27,100 29,230 39,150
40,10 41,621 42,100 43,60
45,140 47,100 51,10 53,110
54,370 55,1822 56,130 57,340
58,150 59,440 60,60 61,300
62,10 63,30 65,30 66,90
67,751 68,1161 69,470 70,120
71,10 72,10 73,30 74,50
75,4894 76,370 77,1321 78,80
79,100 80,40 81,951 82,1251
83,30 86,10 87,180 88,220
89,3904 90,380 91,410 92,20
93,110 94,20 95,751 96,500
97,2062 98,160 99,320 100,50
101,921 102,100 103,400 104,30
105,621 106,40 107,550 108,20
109,120 110,30 111,60 112,20
113,200 114,40 115,641 116,70
117,280 118,30 119,1802 120,160
121,60 123,120 124,2752 125,280
126,10 127,240 128,30 129,370
130,30 131,340 132,30 137,60
139,10 141,60 142,20 143,120
144,10 145,220 146,10 155,70
157,200 158,10 159,110 169,30
171,210 172,30 173,6095 174,991
175,530 176,50 177,60 179,120
180,10 183,240 184,20 185,510
186,60 187,100 189,30 191,50
198,30 199,641 200,90 201,340
202,40 203,9999 204,1732 205,490
206,30 215,20 216,10 229,490
230,80 231,10 243,30 257,110
258,10 269,10 271,80 285,20
299,1131 300,250 301,140 302,50
303,10 314,130
##END=
