##TITLE=Silane, dimethyl(2,5-dimethylphenoxy)tetradecyloxy-
##JCAMP-DX=4.24
##DATA TYPE=MASS SPECTRUM
##ORIGIN=V.G. Zaikin, R.S.Borisov, TIPS RAS, Moscow, Russia
##OWNER=NIST Mass Spectrometry Data Center
Collection (C) 2014 copyright by the U.S. Secretary of Commerce
on behalf of the United States of America. All rights reserved.
##$NIST MASS SPEC NO=347299
##MOLFORM=C24 H44 O2 Si
##MW=392
##$NIST SOURCE=MSDC
##XUNITS=M/Z
##YUNITS=RELATIVE INTENSITY
##XFACTOR=1
##YFACTOR=1
##FIRSTX=29
##LASTX=395
##FIRSTY=20
##MAXX=395
##MINX=29
##MAXY=9999
##MINY=20
##NPOINTS=65
##PEAK TABLE=(XY..XY)
29,20 41,80 43,130 55,170
56,30 57,150 59,20 67,30
69,190 70,30 71,90 75,310
76,20 77,50 79,20 81,20
82,20 83,180 84,20 85,50
89,50 91,30 97,130 101,20
103,20 105,550 106,50 111,50
115,20 119,50 121,20 122,20
149,100 161,40 162,40 163,520
164,100 165,120 166,20 175,20
177,160 178,1331 179,1301 180,270
181,801 182,120 183,100 193,90
194,20 195,851 196,1011 197,310
198,60 207,50 209,380 210,70
223,30 271,20 377,220 378,60
390,20 392,9999 393,3093 394,861
395,140
##END=
