##TITLE=Silane, dimethyl(3-ethylphenoxy)nonyloxy-
##JCAMP-DX=4.24
##DATA TYPE=MASS SPECTRUM
##ORIGIN=V.G. Zaikin, R.S.Borisov, TIPS RAS, Moscow, Russia
##OWNER=NIST Mass Spectrometry Data Center
Collection (C) 2014 copyright by the U.S. Secretary of Commerce
on behalf of the United States of America. All rights reserved.
##$NIST MASS SPEC NO=347468
##MOLFORM=C19 H34 O2 Si
##MW=322
##$NIST SOURCE=MSDC
##XUNITS=M/Z
##YUNITS=RELATIVE INTENSITY
##XFACTOR=1
##YFACTOR=1
##FIRSTX=27
##LASTX=325
##FIRSTY=50
##MAXX=325
##MINX=27
##MAXY=9999
##MINY=20
##NPOINTS=107
##PEAK TABLE=(XY..XY)
27,50 29,130 39,50 41,380
42,50 43,350 45,40 47,40
53,20 54,20 55,540 56,100
57,180 58,20 59,190 61,100
67,50 68,30 69,941 70,100
71,50 73,100 74,20 75,1021
76,80 77,260 78,30 79,70
81,40 82,190 83,611 84,60
85,20 87,30 89,160 90,40
91,190 95,40 97,60 99,60
101,90 103,80 104,50 105,130
113,20 115,80 117,30 119,140
121,30 123,30 125,20 129,20
131,20 135,120 136,20 137,90
145,20 147,60 148,30 149,290
150,50 151,260 152,50 153,80
161,200 162,30 163,601 164,110
165,370 166,90 167,100 177,160
178,90 179,3473 180,641 181,4594
182,751 183,360 184,30 185,40
189,60 193,170 194,30 195,420
196,3053 197,641 198,170 199,20
201,80 203,30 205,20 207,90
208,20 209,951 210,170 211,40
219,20 222,20 223,30 293,20
307,1341 308,330 309,70 322,9999
323,2582 324,691 325,100
##END=
