##TITLE=Silane, dimethyl(3-methylpentyloxy)isobutoxy-
##JCAMP-DX=4.24
##DATA TYPE=MASS SPECTRUM
##ORIGIN=V.G. Zaikin, R.S.Borisov, TIPS RAS, Moscow, Russia
##OWNER=NIST Mass Spectrometry Data Center
Collection (C) 2014 copyright by the U.S. Secretary of Commerce
on behalf of the United States of America. All rights reserved.
##$NIST MASS SPEC NO=347693
##MOLFORM=C12 H28 O2 Si
##MW=232
##$NIST SOURCE=MSDC
##XUNITS=M/Z
##YUNITS=RELATIVE INTENSITY
##XFACTOR=1
##YFACTOR=1
##FIRSTX=27
##LASTX=232
##FIRSTY=130
##MAXX=232
##MINX=27
##MAXY=9999
##MINY=10
##NPOINTS=86
##PEAK TABLE=(XY..XY)
27,130 29,310 39,150 41,581
42,90 43,490 45,260 47,210
53,40 55,1011 56,380 57,510
58,260 59,440 60,120 61,380
62,20 63,100 67,40 69,330
70,20 72,30 73,40 74,110
75,3924 76,320 77,2512 78,140
79,110 83,9579 84,961 85,210
87,140 88,240 89,2272 90,250
91,1251 92,80 93,210 99,110
101,260 102,40 103,470 104,40
105,430 106,20 107,210 113,50
115,240 116,20 117,380 118,30
119,1261 120,110 121,50 129,90
131,1231 132,140 133,871 134,70
135,40 143,180 145,160 147,540
148,50 149,60 157,70 159,470
160,60 161,2412 162,300 163,120
165,40 173,10 175,50 187,20
189,781 190,100 191,20 201,40
217,9999 218,1782 219,480 220,40
231,40 232,20
##END=
