##TITLE=Silane, dimethyl(4-ethylphenoxy)isohexyloxy-
##JCAMP-DX=4.24
##DATA TYPE=MASS SPECTRUM
##ORIGIN=V.G. Zaikin, R.S.Borisov, TIPS RAS, Moscow, Russia
##OWNER=NIST Mass Spectrometry Data Center
Collection (C) 2014 copyright by the U.S. Secretary of Commerce
on behalf of the United States of America. All rights reserved.
##$NIST MASS SPEC NO=347426
##MOLFORM=C16 H28 O2 Si
##MW=280
##$NIST SOURCE=MSDC
##XUNITS=M/Z
##YUNITS=RELATIVE INTENSITY
##XFACTOR=1
##YFACTOR=1
##FIRSTX=26
##LASTX=283
##FIRSTY=20
##MAXX=283
##MINX=26
##MAXY=9999
##MINY=20
##NPOINTS=99
##PEAK TABLE=(XY..XY)
26,20 27,140 29,60 39,150
41,581 42,70 43,1501 45,160
47,150 51,60 53,30 55,1151
56,360 57,80 58,90 59,751
60,40 61,240 63,30 65,50
67,20 69,310 73,410 74,80
75,2722 76,200 77,571 78,120
79,90 81,30 82,400 83,4824
84,330 85,340 87,20 88,30
89,280 90,50 91,520 92,40
95,20 99,80 101,140 102,50
103,230 104,160 105,290 106,20
107,80 115,80 117,30 121,100
123,20 131,20 135,891 136,100
137,250 143,60 145,30 147,390
148,150 149,250 150,50 151,721
152,80 153,120 159,60 161,921
162,180 163,3894 164,641 165,1561
166,220 167,100 175,40 177,6446
178,5525 179,3443 180,651 181,1381
182,200 183,60 191,40 193,80
194,30 195,2282 196,1511 197,350
198,60 209,871 210,150 219,30
223,20 265,540 266,40 280,9999
281,2342 282,601 283,60
##END=
