##TITLE=Silane, dimethyl(2,2-dichloroethoxy)butoxy-
##JCAMP-DX=4.24
##DATA TYPE=MASS SPECTRUM
##ORIGIN=V.G. Zaikin, R.S.Borisov, TIPS RAS, Moscow, Russia
##OWNER=NIST Mass Spectrometry Data Center
Collection (C) 2014 copyright by the U.S. Secretary of Commerce
on behalf of the United States of America. All rights reserved.
##$NIST MASS SPEC NO=347611
##MOLFORM=C8 H18 Cl2 O2 Si
##MW=244
##$NIST SOURCE=MSDC
##XUNITS=M/Z
##YUNITS=RELATIVE INTENSITY
##XFACTOR=1
##YFACTOR=1
##FIRSTX=26
##LASTX=233
##FIRSTY=60
##MAXX=233
##MINX=26
##MAXY=9999
##MINY=20
##NPOINTS=118
##PEAK TABLE=(XY..XY)
26,60 27,601 29,671 39,320
41,811 42,60 43,781 45,1141
46,60 47,561 48,40 49,70
50,30 51,20 53,40 55,1111
56,230 57,631 58,691 59,921
60,230 61,561 62,150 63,340
64,30 65,370 67,80 71,40
72,50 73,20 74,150 75,4594
76,330 77,801 78,130 79,350
80,80 81,420 82,20 83,320
85,170 87,240 88,420 89,1792
90,160 91,110 92,210 93,6015
94,591 95,9999 96,671 97,2973
98,150 99,250 101,250 102,60
103,761 104,50 105,40 107,90
108,20 109,1001 110,70 111,340
112,20 113,681 114,30 115,921
116,50 117,430 118,20 119,250
121,911 122,100 123,400 124,30
125,70 131,2702 132,260 135,420
136,20 137,1091 138,70 139,410
141,40 143,20 145,50 151,3603
152,330 153,1281 154,90 155,100
157,9589 158,741 159,6496 160,450
161,6396 162,671 163,200 167,20
171,5985 172,520 173,4284 174,360
175,841 176,60 177,20 191,70
193,80 195,30 201,440 202,30
203,320 205,50 229,300 230,30
231,220 233,30
##END=
