##TITLE=Silane, dimethyl(tetrahydrofurfuryloxy)hexadecyloxy-
##JCAMP-DX=4.24
##DATA TYPE=MASS SPECTRUM
##ORIGIN=V.G. Zaikin, R.S.Borisov, TIPS RAS, Moscow, Russia
##OWNER=NIST Mass Spectrometry Data Center
Collection (C) 2014 copyright by the U.S. Secretary of Commerce
on behalf of the United States of America. All rights reserved.
##$NIST MASS SPEC NO=347834
##MOLFORM=C23 H48 O3 Si
##MW=400
##$NIST SOURCE=MSDC
##XUNITS=M/Z
##YUNITS=RELATIVE INTENSITY
##XFACTOR=1
##YFACTOR=1
##FIRSTX=26
##LASTX=388
##FIRSTY=40
##MAXX=388
##MINX=26
##MAXY=9999
##MINY=10
##NPOINTS=125
##PEAK TABLE=(XY..XY)
26,40 27,150 29,290 39,140
40,20 41,761 42,220 43,1591
44,20 45,50 47,30 53,50
54,100 55,761 56,220 57,851
58,110 59,210 60,30 61,200
63,20 67,330 68,130 69,771
70,1792 71,9999 72,470 73,20
74,20 75,2312 76,160 77,711
78,30 79,30 81,170 82,120
83,490 84,510 85,571 86,30
87,70 88,100 89,611 90,70
91,320 92,10 93,170 95,130
96,60 97,340 98,50 99,160
100,20 101,370 102,40 103,561
104,50 105,170 107,771 108,50
109,70 110,20 111,120 113,80
114,130 115,250 116,80 117,360
118,60 119,150 121,40 125,30
127,40 129,360 130,1091 131,370
132,490 133,170 134,20 135,20
141,260 142,40 143,210 144,40
145,1241 146,140 147,70 157,170
158,561 159,6916 160,991 161,971
162,80 163,50 171,20 173,120
174,20 175,110 187,20 201,20
215,20 222,20 299,170 300,30
313,20 315,100 316,10 317,30
329,180 330,50 331,140 332,20
341,100 342,20 355,20 356,100
357,50 369,490 370,210 371,50
382,40 385,2752 386,821 387,210
388,30
##END=
