##TITLE=Silane, dimethyl(undec-2-enyloxy)decyloxy-
##JCAMP-DX=4.24
##DATA TYPE=MASS SPECTRUM
##ORIGIN=V.G. Zaikin, R.S.Borisov, TIPS RAS, Moscow, Russia
##OWNER=NIST Mass Spectrometry Data Center
Collection (C) 2014 copyright by the U.S. Secretary of Commerce
on behalf of the United States of America. All rights reserved.
##$NIST MASS SPEC NO=347943
##MOLFORM=C23 H48 O2 Si
##MW=384
##$NIST SOURCE=MSDC
##XUNITS=M/Z
##YUNITS=RELATIVE INTENSITY
##XFACTOR=1
##YFACTOR=1
##FIRSTX=27
##LASTX=386
##FIRSTY=220
##MAXX=386
##MINX=27
##MAXY=9999
##MINY=10
##NPOINTS=176
##PEAK TABLE=(XY..XY)
27,220 29,581 39,210 41,1441
42,210 43,1952 45,100 47,80
53,130 54,390 55,1952 56,210
57,1872 58,160 59,370 60,50
61,420 63,80 65,30 66,110
67,981 68,721 69,1922 70,150
71,530 72,20 74,80 75,7627
76,561 77,4064 78,250 79,270
80,80 81,1221 82,1431 83,3043
84,270 85,150 87,190 88,70
89,1241 90,150 91,550 92,30
93,1211 94,130 95,1561 96,1161
97,1672 98,100 99,571 100,40
101,1171 102,100 103,510 104,30
105,941 106,80 107,430 108,70
109,821 110,611 111,180 112,20
113,470 114,160 115,1892 116,200
117,530 119,120 120,60 121,60
123,300 124,460 125,50 127,250
128,70 129,1211 130,150 131,1772
132,170 137,80 138,130 139,20
141,120 142,20 143,591 144,80
145,1071 146,120 151,190 152,951
153,80 155,50 157,380 159,440
160,40 165,20 169,50 171,210
172,20 173,180 177,20 183,40
185,180 186,20 187,120 189,230
197,30 199,310 200,40 201,110
205,200 206,40 210,70 211,320
212,60 213,871 214,160 215,6206
216,1031 217,5955 218,891 219,230
220,20 226,50 227,240 228,20
229,310 230,70 231,390 232,50
233,420 234,60 235,20 241,30
243,1762 244,350 245,360 246,40
257,1682 258,320 259,120 271,9999
272,2082 273,530 274,50 276,190
277,60 285,3113 286,651 287,180
288,10 299,320 300,90 301,40
313,530 314,110 315,150 316,20
327,2232 328,530 329,70 339,20
341,1842 342,420 355,180 356,30
369,3994 370,1111 371,400 372,80
383,140 384,1631 385,480 386,110
##END=
