##TITLE=Silane, dimethyl(4-heptyloxy)propoxy-
##JCAMP-DX=4.24
##DATA TYPE=MASS SPECTRUM
##ORIGIN=V.G. Zaikin, R.S.Borisov, TIPS RAS, Moscow, Russia
##OWNER=NIST Mass Spectrometry Data Center
Collection (C) 2014 copyright by the U.S. Secretary of Commerce
on behalf of the United States of America. All rights reserved.
##$NIST MASS SPEC NO=347600
##MOLFORM=C12 H28 O2 Si
##MW=232
##$NIST SOURCE=MSDC
##XUNITS=M/Z
##YUNITS=RELATIVE INTENSITY
##XFACTOR=1
##YFACTOR=1
##FIRSTX=26
##LASTX=231
##FIRSTY=40
##MAXX=231
##MINX=26
##MAXY=9999
##MINY=20
##NPOINTS=80
##PEAK TABLE=(XY..XY)
26,40 27,380 29,350 39,240
40,30 41,741 42,110 43,591
45,601 47,480 55,380 56,190
57,140 58,350 59,991 60,120
61,571 62,20 63,180 69,100
70,50 71,20 72,40 73,60
74,150 75,8368 76,621 77,3073
78,130 79,70 83,30 85,60
87,80 88,180 89,751 90,80
91,110 93,90 97,20 98,20
99,130 101,470 102,40 103,180
105,260 113,30 115,270 116,30
117,8047 118,781 119,3253 120,230
121,90 129,60 131,3833 132,430
133,801 134,50 135,20 145,230
146,60 147,530 148,20 149,20
159,190 160,20 161,20 173,390
174,20 175,20 187,40 189,9999
190,1211 191,350 203,3123 204,540
205,120 217,420 218,50 231,70
##END=
