##TITLE=Silane, dimethyl(4-isopropoxyphenoxy)hexyloxy-
##JCAMP-DX=4.24
##DATA TYPE=MASS SPECTRUM
##ORIGIN=V.G. Zaikin, R.S.Borisov, TIPS RAS, Moscow, Russia
##OWNER=NIST Mass Spectrometry Data Center
Collection (C) 2014 copyright by the U.S. Secretary of Commerce
on behalf of the United States of America. All rights reserved.
##$NIST MASS SPEC NO=347053
##MOLFORM=C17 H30 O3 Si
##MW=310
##$NIST SOURCE=MSDC
##XUNITS=M/Z
##YUNITS=RELATIVE INTENSITY
##XFACTOR=1
##YFACTOR=1
##FIRSTX=27
##LASTX=312
##FIRSTY=20
##MAXX=312
##MINX=27
##MAXY=9999
##MINY=20
##NPOINTS=35
##PEAK TABLE=(XY..XY)
27,20 39,20 41,90 42,20
43,190 55,50 56,20 59,20
75,430 76,30 77,70 85,20
89,20 91,30 110,30 135,20
136,160 137,50 149,30 151,881
152,120 153,140 165,30 166,9999
167,1932 168,681 169,230 170,20
193,30 209,90 252,30 253,80
310,1001 311,210 312,50
##END=
