##TITLE=Silane, dimethyl(4-cyanophenoxy)isobutoxy-
##JCAMP-DX=4.24
##DATA TYPE=MASS SPECTRUM
##ORIGIN=V.G. Zaikin, R.S.Borisov, TIPS RAS, Moscow, Russia
##OWNER=NIST Mass Spectrometry Data Center
Collection (C) 2014 copyright by the U.S. Secretary of Commerce
on behalf of the United States of America. All rights reserved.
##$NIST MASS SPEC NO=347097
##MOLFORM=C13 H19 N O2 Si
##MW=249
##$NIST SOURCE=MSDC
##XUNITS=M/Z
##YUNITS=RELATIVE INTENSITY
##XFACTOR=1
##YFACTOR=1
##FIRSTX=27
##LASTX=251
##FIRSTY=60
##MAXX=251
##MINX=27
##MAXY=9999
##MINY=20
##NPOINTS=73
##PEAK TABLE=(XY..XY)
27,60 39,50 41,170 42,30
43,230 44,20 45,50 47,90
53,20 55,60 56,50 57,100
58,30 59,120 60,20 61,60
62,40 65,30 69,60 74,50
75,1782 76,180 77,350 78,20
79,20 83,30 88,160 89,180
99,20 102,300 103,70 104,20
116,410 117,60 119,1381 120,30
122,30 129,30 131,150 132,90
133,40 135,30 146,480 147,60
148,40 159,40 160,460 161,20
162,210 163,20 174,120 175,20
176,9999 177,1571 178,5615 180,300
181,20 188,30 190,150 191,30
192,110 193,200 205,20 206,3763
207,691 208,180 234,2532 235,450
236,120 248,80 249,4584 250,881
251,330
##END=
