##TITLE=Silane, dimethyl(2,5-dimethylphenoxy)ethoxy-
##JCAMP-DX=4.24
##DATA TYPE=MASS SPECTRUM
##ORIGIN=V.G. Zaikin, R.S.Borisov, TIPS RAS, Moscow, Russia
##OWNER=NIST Mass Spectrometry Data Center
Collection (C) 2014 copyright by the U.S. Secretary of Commerce
on behalf of the United States of America. All rights reserved.
##$NIST MASS SPEC NO=347291
##MOLFORM=C12 H20 O2 Si
##MW=224
##$NIST SOURCE=MSDC
##XUNITS=M/Z
##YUNITS=RELATIVE INTENSITY
##XFACTOR=1
##YFACTOR=1
##FIRSTX=26
##LASTX=227
##FIRSTY=30
##MAXX=227
##MINX=26
##MAXY=9999
##MINY=20
##NPOINTS=102
##PEAK TABLE=(XY..XY)
26,30 27,100 29,70 39,110
41,50 43,110 45,380 47,300
50,20 51,110 52,40 53,80
58,70 59,761 60,70 61,240
62,20 63,80 65,130 67,50
68,70 73,120 74,180 75,2242
76,180 77,1071 78,210 79,340
80,60 81,480 82,1251 83,380
85,30 87,60 88,40 89,1181
90,550 91,581 92,70 93,60
95,20 101,40 102,80 103,2302
104,671 105,3423 106,320 107,130
109,20 111,40 115,90 116,20
117,90 118,20 119,360 120,50
121,330 122,70 123,20 133,90
135,160 137,50 145,50 147,240
148,140 149,671 150,110 151,240
152,20 161,420 162,290 163,4604
164,761 165,5055 166,761 167,210
175,80 177,460 178,4734 179,2472
180,661 181,1551 182,210 183,50
189,50 191,150 192,20 193,130
194,50 195,200 196,50 207,180
208,40 209,7427 210,1241 211,350
212,20 223,80 224,9999 225,1762
226,460 227,30
##END=
