##TITLE=Silane, dimethyl(3-phenylprop-2-enyloxy)pentyloxy-
##JCAMP-DX=4.24
##DATA TYPE=MASS SPECTRUM
##ORIGIN=V.G. Zaikin, R.S.Borisov, TIPS RAS, Moscow, Russia
##OWNER=NIST Mass Spectrometry Data Center
Collection (C) 2014 copyright by the U.S. Secretary of Commerce
on behalf of the United States of America. All rights reserved.
##$NIST MASS SPEC NO=347983
##MOLFORM=C16 H26 O2 Si
##MW=278
##$NIST SOURCE=MSDC
##XUNITS=M/Z
##YUNITS=RELATIVE INTENSITY
##XFACTOR=1
##YFACTOR=1
##FIRSTX=26
##LASTX=281
##FIRSTY=20
##MAXX=281
##MINX=26
##MAXY=9999
##MINY=20
##NPOINTS=123
##PEAK TABLE=(XY..XY)
26,20 27,90 29,160 39,200
41,320 42,80 43,641 45,230
47,180 50,20 51,100 52,30
53,20 55,110 57,30 58,140
59,370 60,60 61,270 62,30
63,110 65,160 69,420 70,30
71,130 74,110 75,6796 76,581
77,1561 78,140 82,20 85,40
87,70 88,140 89,1091 90,100
91,1702 92,140 93,260 95,1752
96,470 97,20 99,100 101,370
102,210 103,240 104,380 105,450
110,60 113,40 114,50 115,5295
116,3954 117,9999 118,1712 119,120
121,50 128,40 129,550 130,140
131,480 132,300 133,110 135,200
136,20 137,250 138,20 143,80
144,30 145,1842 146,250 147,1241
148,190 149,380 150,60 151,50
157,40 158,20 159,200 160,200
161,240 162,270 163,130 164,60
165,60 172,20 173,280 174,180
175,701 176,130 177,831 178,130
179,40 181,70 187,90 189,1321
190,1001 191,1621 192,3713 193,1511
194,310 195,60 203,20 205,250
206,50 207,8348 208,1631 209,450
210,40 221,510 222,90 233,40
249,140 250,20 251,20 263,1331
264,320 265,60 277,1621 278,5045
279,1151 280,300 281,80
##END=
