##TITLE=Silane, dimethyl(1-phenylpropoxy)pentyloxy-
##JCAMP-DX=4.24
##DATA TYPE=MASS SPECTRUM
##ORIGIN=V.G. Zaikin, R.S.Borisov, TIPS RAS, Moscow, Russia
##OWNER=NIST Mass Spectrometry Data Center
Collection (C) 2014 copyright by the U.S. Secretary of Commerce
on behalf of the United States of America. All rights reserved.
##$NIST MASS SPEC NO=347278
##MOLFORM=C16 H28 O2 Si
##MW=280
##$NIST SOURCE=MSDC
##XUNITS=M/Z
##YUNITS=RELATIVE INTENSITY
##XFACTOR=1
##YFACTOR=1
##FIRSTX=26
##LASTX=279
##FIRSTY=20
##MAXX=279
##MINX=26
##MAXY=9999
##MINY=10
##NPOINTS=88
##PEAK TABLE=(XY..XY)
26,20 27,70 29,80 39,40
41,170 42,30 43,110 44,70
45,70 47,60 51,30 55,40
57,160 58,30 59,100 61,60
63,20 65,20 69,190 70,20
74,60 75,2222 76,160 77,851
78,90 79,40 82,230 89,310
90,30 91,1301 92,90 97,170
101,90 102,20 103,90 104,110
105,370 106,40 107,30 115,120
116,20 117,320 118,110 119,140
129,20 131,30 133,40 135,240
136,20 137,20 145,2162 146,280
147,991 148,110 149,280 150,30
151,30 159,220 160,20 161,20
163,190 164,60 165,2042 166,290
167,100 177,30 179,70 181,140
191,60 192,80 193,190 194,30
195,90 207,240 208,30 209,70
221,20 223,581 224,90 225,40
233,10 249,20 251,9999 252,2122
253,571 254,60 265,50 279,20
##END=
