##TITLE=Silane, dimethyl(4-phenoxybenzyloxy)butoxy-
##JCAMP-DX=4.24
##DATA TYPE=MASS SPECTRUM
##ORIGIN=V.G. Zaikin, R.S.Borisov, TIPS RAS, Moscow, Russia
##OWNER=NIST Mass Spectrometry Data Center
Collection (C) 2014 copyright by the U.S. Secretary of Commerce
on behalf of the United States of America. All rights reserved.
##$NIST MASS SPEC NO=347400
##MOLFORM=C19 H26 O3 Si
##MW=330
##$NIST SOURCE=MSDC
##XUNITS=M/Z
##YUNITS=RELATIVE INTENSITY
##XFACTOR=1
##YFACTOR=1
##FIRSTX=26
##LASTX=333
##FIRSTY=10
##MAXX=333
##MINX=26
##MAXY=9999
##MINY=10
##NPOINTS=136
##PEAK TABLE=(XY..XY)
26,10 27,50 29,130 39,110
41,170 43,40 45,110 47,70
50,30 51,200 52,20 55,70
56,20 57,270 58,30 59,180
61,110 63,80 64,40 65,80
74,30 75,2282 76,200 77,831
78,230 79,20 89,701 90,400
91,280 93,20 94,30 101,20
103,40 104,30 105,230 106,30
107,70 113,20 114,40 115,350
116,40 117,50 121,80 127,180
128,961 129,961 130,130 131,571
132,50 133,30 135,60 137,40
139,70 140,20 141,100 142,20
145,30 147,120 148,30 149,120
150,40 151,210 152,290 153,530
154,280 155,320 156,30 157,120
158,20 163,150 164,120 165,871
166,160 167,60 168,631 169,170
170,40 178,30 179,190 180,70
181,1251 182,510 183,7006 184,1121
185,90 195,40 196,40 197,280
198,300 199,30 211,911 212,150
213,290 214,40 222,140 223,60
225,410 226,70 227,991 228,180
229,330 230,40 237,170 238,50
239,440 240,100 241,6126 242,1261
243,1211 244,190 245,30 255,170
256,771 257,1852 258,420 259,711
260,120 261,20 273,3233 274,841
275,200 276,20 285,510 286,110
287,731 288,150 289,30 297,20
315,811 316,190 317,40 329,160
330,9999 331,2692 332,701 333,90
##END=
