##TITLE=Silane, dimethyldi(4-phenylphenoxy)-
##JCAMP-DX=4.24
##DATA TYPE=MASS SPECTRUM
##ORIGIN=V.G. Zaikin, R.S.Borisov, TIPS RAS, Moscow, Russia
##OWNER=NIST Mass Spectrometry Data Center
Collection (C) 2014 copyright by the U.S. Secretary of Commerce
on behalf of the United States of America. All rights reserved.
##$NIST MASS SPEC NO=347500
##MOLFORM=C26 H24 O2 Si
##MW=396
##$NIST SOURCE=MSDC
##XUNITS=M/Z
##YUNITS=RELATIVE INTENSITY
##XFACTOR=1
##YFACTOR=1
##FIRSTX=45
##LASTX=400
##FIRSTY=20
##MAXX=400
##MINX=45
##MAXY=9999
##MINY=10
##NPOINTS=73
##PEAK TABLE=(XY..XY)
45,20 59,20 61,20 75,190
76,20 77,60 91,20 102,30
113,30 115,160 121,20 126,20
127,70 128,20 139,70 140,30
141,200 142,40 145,20 149,30
150,30 151,130 152,621 153,210
154,30 165,230 166,60 167,150
168,40 169,160 170,60 171,50
181,50 183,50 195,20 196,20
197,70 198,591 199,60 209,20
211,991 212,210 213,80 225,80
226,40 227,721 228,180 229,40
289,50 302,30 303,30 304,30
343,50 344,20 345,70 346,20
347,80 348,80 349,20 361,20
363,2202 364,741 365,240 366,50
381,100 382,30 394,10 395,30
396,9999 397,3143 398,861 399,160
400,10
##END=
