##TITLE=Silane, dimethyl(tetrahydrofurfuryloxy)ethoxy-
##JCAMP-DX=4.24
##DATA TYPE=MASS SPECTRUM
##ORIGIN=V.G. Zaikin, R.S.Borisov, TIPS RAS, Moscow, Russia
##OWNER=NIST Mass Spectrometry Data Center
Collection (C) 2014 copyright by the U.S. Secretary of Commerce
on behalf of the United States of America. All rights reserved.
##$NIST MASS SPEC NO=347824
##MOLFORM=C9 H20 O3 Si
##MW=204
##$NIST SOURCE=MSDC
##XUNITS=M/Z
##YUNITS=RELATIVE INTENSITY
##XFACTOR=1
##YFACTOR=1
##FIRSTX=27
##LASTX=190
##FIRSTY=270
##MAXX=190
##MINX=27
##MAXY=9999
##MINY=20
##NPOINTS=86
##PEAK TABLE=(XY..XY)
27,270 29,300 31,90 39,170
40,30 41,601 42,230 43,1832
45,510 46,20 47,260 53,40
54,50 55,340 56,310 57,90
58,170 59,731 60,110 61,440
62,30 63,80 67,130 68,70
69,280 70,1561 71,9999 72,450
73,170 74,60 75,1872 76,140
77,1221 78,70 79,40 82,30
83,130 84,340 85,70 87,130
88,130 89,851 90,70 91,170
97,90 98,110 99,130 101,340
102,60 103,2212 104,190 105,1021
106,70 107,80 111,30 113,70
114,60 115,310 116,110 117,310
118,50 119,140 121,150 125,50
127,40 129,240 130,631 131,500
132,160 133,300 134,40 135,530
136,70 141,70 143,110 145,1081
146,110 147,130 157,30 158,310
159,681 160,310 161,110 173,20
189,530 190,50
##END=
