##TITLE=Silane, dimethyl(4-acetylphenoxy)heptyloxy-
##JCAMP-DX=4.24
##DATA TYPE=MASS SPECTRUM
##ORIGIN=V.G. Zaikin, R.S.Borisov, TIPS RAS, Moscow, Russia
##OWNER=NIST Mass Spectrometry Data Center
Collection (C) 2014 copyright by the U.S. Secretary of Commerce
on behalf of the United States of America. All rights reserved.
##$NIST MASS SPEC NO=347313
##MOLFORM=C17 H28 O3 Si
##MW=308
##$NIST SOURCE=MSDC
##XUNITS=M/Z
##YUNITS=RELATIVE INTENSITY
##XFACTOR=1
##YFACTOR=1
##FIRSTX=27
##LASTX=311
##FIRSTY=60
##MAXX=311
##MINX=27
##MAXY=9999
##MINY=10
##NPOINTS=95
##PEAK TABLE=(XY..XY)
27,60 29,120 39,50 41,230
42,30 43,1071 45,70 47,50
55,380 56,30 58,10 59,120
61,50 65,20 69,40 70,20
74,20 75,1111 76,100 77,140
79,20 85,20 87,30 89,360
90,40 91,300 92,30 95,20
97,70 99,40 101,90 104,20
105,40 107,30 115,50 117,120
118,20 119,20 121,20 123,90
133,40 134,20 135,230 137,80
147,10 148,30 149,50 150,120
151,280 152,50 153,250 154,20
161,30 163,100 165,110 166,20
167,80 168,20 173,90 175,20
177,70 179,260 180,40 181,470
182,60 183,10 193,520 194,110
195,1411 196,210 197,240 198,20
207,40 209,40 210,150 211,120
212,20 221,130 222,20 223,140
224,20 235,60 237,40 251,40
265,30 266,20 293,9999 294,2152
295,611 296,70 307,20 308,2642
309,661 310,170 311,20
##END=
