##TITLE=Silane, dimethyl(3-ethylphenoxy)tetradecyloxy-
##JCAMP-DX=4.24
##DATA TYPE=MASS SPECTRUM
##ORIGIN=V.G. Zaikin, R.S.Borisov, TIPS RAS, Moscow, Russia
##OWNER=NIST Mass Spectrometry Data Center
Collection (C) 2014 copyright by the U.S. Secretary of Commerce
on behalf of the United States of America. All rights reserved.
##$NIST MASS SPEC NO=347471
##MOLFORM=C24 H44 O2 Si
##MW=392
##$NIST SOURCE=MSDC
##XUNITS=M/Z
##YUNITS=RELATIVE INTENSITY
##XFACTOR=1
##YFACTOR=1
##FIRSTX=26
##LASTX=395
##FIRSTY=10
##MAXX=395
##MINX=26
##MAXY=9999
##MINY=10
##NPOINTS=114
##PEAK TABLE=(XY..XY)
26,10 27,60 29,150 39,70
41,460 42,80 43,681 45,20
53,20 54,40 55,781 56,150
57,510 58,20 59,130 61,70
67,120 68,60 69,761 70,110
71,210 73,100 75,911 76,60
77,220 78,30 79,60 81,80
82,110 83,1031 84,110 85,150
87,20 89,130 90,20 91,170
93,20 95,60 96,20 97,480
98,40 99,40 101,90 103,60
104,30 105,110 107,90 109,20
111,170 112,20 113,20 115,70
117,30 119,140 121,20 122,50
123,20 125,40 127,20 129,30
131,20 135,150 137,50 143,20
147,30 148,20 149,240 150,40
151,200 152,30 153,60 161,160
162,20 163,460 164,80 165,290
166,70 167,70 177,350 178,130
179,3043 180,540 181,2963 182,470
183,290 184,30 189,60 191,20
193,170 194,40 195,390 196,3013
197,811 198,180 199,20 203,20
205,20 207,70 209,791 210,130
211,30 221,20 223,40 235,30
237,30 255,20 271,20 377,390
378,120 379,20 392,9999 393,3193
394,871 395,130
##END=
