##TITLE=Silane, dimethyl(2-heptyloxy)isohexyloxy-
##JCAMP-DX=4.24
##DATA TYPE=MASS SPECTRUM
##ORIGIN=V.G. Zaikin, R.S.Borisov, TIPS RAS, Moscow, Russia
##OWNER=NIST Mass Spectrometry Data Center
Collection (C) 2014 copyright by the U.S. Secretary of Commerce
on behalf of the United States of America. All rights reserved.
##$NIST MASS SPEC NO=347655
##MOLFORM=C15 H34 O2 Si
##MW=274
##$NIST SOURCE=MSDC
##XUNITS=M/Z
##YUNITS=RELATIVE INTENSITY
##XFACTOR=1
##YFACTOR=1
##FIRSTX=27
##LASTX=273
##FIRSTY=70
##MAXX=273
##MINX=27
##MAXY=9999
##MINY=20
##NPOINTS=81
##PEAK TABLE=(XY..XY)
27,70 29,100 39,70 41,300
42,60 43,430 45,110 47,80
53,20 55,561 56,220 57,80
58,90 59,210 60,50 61,190
63,50 67,40 69,220 70,30
72,40 73,70 74,60 75,2382
76,190 77,981 78,50 79,30
81,20 82,30 83,5405 84,410
85,210 87,80 88,110 89,370
90,50 91,90 93,130 97,20
98,30 99,100 101,520 102,120
103,721 104,100 105,110 113,20
115,130 116,20 117,160 118,20
119,130 121,20 129,70 131,140
132,20 133,80 143,110 145,420
146,1091 147,150 148,170 157,60
159,1211 160,170 161,190 162,20
173,330 174,50 175,40 187,20
189,30 203,9999 204,1651 205,490
206,40 259,2512 260,540 261,160
273,80
##END=
