##TITLE=Silane, dimethyl(2-isopropylphenoxy)isohexyloxy-
##JCAMP-DX=4.24
##DATA TYPE=MASS SPECTRUM
##ORIGIN=V.G. Zaikin, R.S.Borisov, TIPS RAS, Moscow, Russia
##OWNER=NIST Mass Spectrometry Data Center
Collection (C) 2014 copyright by the U.S. Secretary of Commerce
on behalf of the United States of America. All rights reserved.
##$NIST MASS SPEC NO=347246
##MOLFORM=C17 H30 O2 Si
##MW=294
##$NIST SOURCE=MSDC
##XUNITS=M/Z
##YUNITS=RELATIVE INTENSITY
##XFACTOR=1
##YFACTOR=1
##FIRSTX=27
##LASTX=297
##FIRSTY=30
##MAXX=297
##MINX=27
##MAXY=9999
##MINY=10
##NPOINTS=99
##PEAK TABLE=(XY..XY)
27,30 39,60 41,230 42,20
43,971 45,40 47,30 55,460
56,110 57,200 59,260 61,70
65,20 69,150 73,621 74,50
75,1321 76,90 77,160 78,30
79,20 81,30 82,20 83,3984
84,250 85,921 86,40 89,380
90,10 91,350 92,20 99,20
101,70 103,120 104,40 105,70
107,20 111,20 115,160 116,20
117,80 118,50 119,20 121,220
123,20 133,20 135,520 136,110
137,120 147,100 148,40 149,490
150,50 151,1111 152,130 153,130
157,60 159,30 161,841 162,120
163,1121 164,160 165,190 167,70
169,20 175,310 176,30 177,5055
178,931 179,3243 180,480 181,1311
182,160 183,30 191,3283 192,1271
193,741 194,140 195,591 196,80
197,60 205,20 207,60 209,691
210,500 211,80 221,20 223,170
224,20 237,80 251,20 261,30
279,1992 280,430 281,90 294,9999
295,2382 296,591 297,50
##END=
