##TITLE=Silane, dimethyl(3-methylbut-2-enyloxy)tetradecyloxy-
##JCAMP-DX=4.24
##DATA TYPE=MASS SPECTRUM
##ORIGIN=V.G. Zaikin, R.S.Borisov, TIPS RAS, Moscow, Russia
##OWNER=NIST Mass Spectrometry Data Center
Collection (C) 2014 copyright by the U.S. Secretary of Commerce
on behalf of the United States of America. All rights reserved.
##$NIST MASS SPEC NO=347973
##MOLFORM=C21 H44 O2 Si
##MW=356
##$NIST SOURCE=MSDC
##XUNITS=M/Z
##YUNITS=RELATIVE INTENSITY
##XFACTOR=1
##YFACTOR=1
##FIRSTX=26
##LASTX=358
##FIRSTY=30
##MAXX=358
##MINX=26
##MAXY=9999
##MINY=20
##NPOINTS=146
##PEAK TABLE=(XY..XY)
26,30 27,130 29,240 39,180
40,40 41,951 42,160 43,871
44,50 45,60 47,40 53,130
54,90 55,881 56,170 57,721
58,50 59,150 60,20 61,180
63,30 66,20 67,360 68,901
69,2042 70,220 71,440 73,60
74,40 75,3823 76,280 77,1641
78,90 79,90 81,450 82,270
83,801 84,100 85,180 87,40
89,480 90,40 91,240 93,120
95,230 96,190 97,631 98,60
99,80 101,290 102,20 103,160
105,450 106,20 107,40 109,130
110,60 111,270 112,30 113,120
115,180 116,30 117,330 118,40
119,100 123,50 124,40 125,70
127,180 128,40 129,731 130,90
131,270 132,30 133,80 137,30
138,20 139,20 141,170 142,60
143,280 144,40 145,701 146,70
147,410 148,30 149,70 151,30
155,30 157,90 158,20 159,3733
160,500 161,190 163,90 166,20
171,80 173,821 174,130 175,90
185,50 187,30 193,40 194,110
199,30 201,520 202,80 203,20
207,180 208,20 209,20 213,20
215,40 223,190 224,30 225,20
241,20 243,40 255,110 257,140
258,20 269,40 271,971 272,220
273,881 274,190 275,40 277,20
285,100 287,130 288,20 299,1161
300,280 301,230 302,40 313,140
314,20 341,9999 342,2873 343,1081
344,200 345,20 355,100 356,671
357,160 358,40
##END=
