##TITLE=Silane, dimethyl(3-methylpentyloxy)heptyloxy-
##JCAMP-DX=4.24
##DATA TYPE=MASS SPECTRUM
##ORIGIN=V.G. Zaikin, R.S.Borisov, TIPS RAS, Moscow, Russia
##OWNER=NIST Mass Spectrometry Data Center
Collection (C) 2014 copyright by the U.S. Secretary of Commerce
on behalf of the United States of America. All rights reserved.
##$NIST MASS SPEC NO=347697
##MOLFORM=C15 H34 O2 Si
##MW=274
##$NIST SOURCE=MSDC
##XUNITS=M/Z
##YUNITS=RELATIVE INTENSITY
##XFACTOR=1
##YFACTOR=1
##FIRSTX=27
##LASTX=273
##FIRSTY=160
##MAXX=273
##MINX=27
##MAXY=9999
##MINY=20
##NPOINTS=100
##PEAK TABLE=(XY..XY)
27,160 29,400 39,150 40,20
41,741 42,140 43,611 45,170
47,130 53,60 54,50 55,2052
56,520 57,741 58,140 59,390
60,80 61,400 62,20 63,110
67,90 68,70 69,611 70,190
71,30 72,30 73,20 74,80
75,3383 76,260 77,2532 78,140
79,180 81,60 82,20 83,9278
84,1011 85,340 86,20 87,240
88,140 89,1802 90,170 91,851
92,50 93,440 94,20 95,20
97,1201 98,120 99,170 101,510
102,70 103,410 104,40 105,721
106,40 107,220 113,70 115,490
116,40 117,400 118,30 119,991
120,80 121,30 127,20 129,190
130,20 131,210 133,150 143,220
145,250 146,20 147,20 157,130
158,20 159,330 160,30 171,20
173,1181 174,170 175,751 176,80
177,120 187,30 189,921 190,130
191,120 203,1732 204,260 205,50
217,20 229,20 243,70 259,9999
260,2122 261,550 262,50 273,30
##END=
