##TITLE=Silane, dimethyl(4-(2-phenylprop-2-yl)phenoxy)decyloxy-
##JCAMP-DX=4.24
##DATA TYPE=MASS SPECTRUM
##ORIGIN=V.G. Zaikin, R.S.Borisov, TIPS RAS, Moscow, Russia
##OWNER=NIST Mass Spectrometry Data Center
Collection (C) 2014 copyright by the U.S. Secretary of Commerce
on behalf of the United States of America. All rights reserved.
##$NIST MASS SPEC NO=347193
##MOLFORM=C27 H42 O2 Si
##MW=426
##$NIST SOURCE=MSDC
##XUNITS=M/Z
##YUNITS=RELATIVE INTENSITY
##XFACTOR=1
##YFACTOR=1
##FIRSTX=29
##LASTX=428
##FIRSTY=30
##MAXX=428
##MINX=29
##MAXY=9999
##MINY=10
##NPOINTS=46
##PEAK TABLE=(XY..XY)
29,30 41,130 43,140 55,160
56,20 57,20 59,30 69,50
75,520 77,40 79,30 89,50
91,270 96,20 103,140 105,30
117,20 119,811 120,50 127,180
135,20 142,20 165,30 178,20
179,30 181,30 197,210 198,20
212,40 239,10 253,30 255,20
269,20 271,70 283,30 297,10
349,240 350,40 409,50 411,9999
412,3513 413,921 414,110 426,2002
427,651 428,130
##END=
