##TITLE=Silane, dimethyl(2-methoxyethoxy)tetradecyloxy-
##JCAMP-DX=4.24
##DATA TYPE=MASS SPECTRUM
##ORIGIN=V.G. Zaikin, R.S.Borisov, TIPS RAS, Moscow, Russia
##OWNER=NIST Mass Spectrometry Data Center
Collection (C) 2014 copyright by the U.S. Secretary of Commerce
on behalf of the United States of America. All rights reserved.
##$NIST MASS SPEC NO=347853
##MOLFORM=C19 H42 O3 Si
##MW=346
##$NIST SOURCE=MSDC
##XUNITS=M/Z
##YUNITS=RELATIVE INTENSITY
##XFACTOR=1
##YFACTOR=1
##FIRSTX=27
##LASTX=334
##FIRSTY=30
##MAXX=334
##MINX=27
##MAXY=9999
##MINY=20
##NPOINTS=84
##PEAK TABLE=(XY..XY)
27,30 29,100 39,30 41,240
42,40 43,330 45,70 54,30
55,260 56,20 57,330 58,90
59,250 61,190 67,80 68,40
69,370 70,50 71,170 75,1011
76,70 77,130 81,80 82,50
85,20 87,40 88,60 89,2172
90,180 91,2062 92,130 93,100
95,70 96,30 97,440 98,30
99,40 101,140 103,270 104,20
105,430 106,20 107,110 109,30
111,150 113,20 115,130 117,460
118,40 119,701 120,50 121,80
125,30 129,60 131,110 132,140
133,5905 134,621 135,300 143,20
145,40 147,100 149,50 151,40
159,30 161,60 175,20 189,20
203,20 217,30 271,430 272,80
273,20 287,160 288,20 299,20
301,731 302,150 303,20 330,120
331,9999 332,2482 333,631 334,70
##END=
