##TITLE=Silane, dimethyldi(hex-4-yn-3-yloxy)-
##JCAMP-DX=4.24
##DATA TYPE=MASS SPECTRUM
##ORIGIN=V.G. Zaikin, R.S.Borisov, TIPS RAS, Moscow, Russia
##OWNER=NIST Mass Spectrometry Data Center
Collection (C) 2014 copyright by the U.S. Secretary of Commerce
on behalf of the United States of America. All rights reserved.
##$NIST MASS SPEC NO=347928
##MOLFORM=C14 H24 O2 Si
##MW=252
##$NIST SOURCE=MSDC
##XUNITS=M/Z
##YUNITS=RELATIVE INTENSITY
##XFACTOR=1
##YFACTOR=1
##FIRSTX=27
##LASTX=239
##FIRSTY=460
##MAXX=239
##MINX=27
##MAXY=9999
##MINY=20
##NPOINTS=103
##PEAK TABLE=(XY..XY)
27,460 29,581 38,40 39,661
40,40 41,300 45,621 47,470
50,120 51,340 52,230 53,941
58,70 59,90 60,70 61,150
62,40 63,110 65,260 66,170
67,300 68,90 71,30 74,60
75,4124 76,340 77,811 78,100
79,701 80,100 81,330 85,480
91,140 96,90 97,8628 98,931
99,1992 100,170 101,90 104,30
109,80 111,270 113,50 115,1641
116,190 117,200 121,1271 122,150
123,50 125,300 126,70 127,831
128,70 137,40 139,1862 140,250
141,480 142,100 143,200 144,60
149,80 151,60 153,140 155,2082
156,370 157,250 163,110 164,40
165,971 166,140 167,130 169,120
170,60 171,661 172,90 177,70
178,60 179,981 180,601 181,220
182,40 183,190 184,50 193,1131
194,2502 195,1862 196,340 197,250
198,20 205,40 207,30 208,1491
209,380 210,100 221,70 222,30
223,9999 224,1852 225,500 226,40
237,2012 238,360 239,70
##END=
