##TITLE=Silane, dimethyl(2,5-dimethylphenoxy)undecyloxy-
##JCAMP-DX=4.24
##DATA TYPE=MASS SPECTRUM
##ORIGIN=V.G. Zaikin, R.S.Borisov, TIPS RAS, Moscow, Russia
##OWNER=NIST Mass Spectrometry Data Center
Collection (C) 2014 copyright by the U.S. Secretary of Commerce
on behalf of the United States of America. All rights reserved.
##$NIST MASS SPEC NO=347297
##MOLFORM=C21 H38 O2 Si
##MW=350
##$NIST SOURCE=MSDC
##XUNITS=M/Z
##YUNITS=RELATIVE INTENSITY
##XFACTOR=1
##YFACTOR=1
##FIRSTX=27
##LASTX=353
##FIRSTY=20
##MAXX=353
##MINX=27
##MAXY=9999
##MINY=20
##NPOINTS=85
##PEAK TABLE=(XY..XY)
27,20 29,50 39,30 41,180
42,20 43,200 55,330 56,50
57,130 59,70 61,30 67,30
69,310 70,40 71,60 75,681
76,50 77,90 78,20 79,50
81,20 82,40 83,290 84,30
85,30 89,120 91,70 97,270
98,20 99,30 101,50 103,50
104,30 105,1131 106,110 107,20
111,60 115,40 117,20 119,100
121,40 122,30 135,20 147,20
148,20 149,220 150,30 151,50
161,80 162,80 163,901 164,170
165,220 166,40 167,20 175,40
177,290 178,2012 179,1942 180,410
181,1371 182,210 183,140 191,20
193,140 194,30 195,1341 196,1381
197,350 198,80 205,20 207,30
209,540 210,90 211,20 219,110
220,20 229,50 335,370 336,100
337,20 350,9999 351,2702 352,741
353,110
##END=
