##TITLE=Silane, dimethyl(2-heptyloxy)pentyloxy-
##JCAMP-DX=4.24
##DATA TYPE=MASS SPECTRUM
##ORIGIN=V.G. Zaikin, R.S.Borisov, TIPS RAS, Moscow, Russia
##OWNER=NIST Mass Spectrometry Data Center
Collection (C) 2014 copyright by the U.S. Secretary of Commerce
on behalf of the United States of America. All rights reserved.
##$NIST MASS SPEC NO=347654
##MOLFORM=C14 H32 O2 Si
##MW=260
##$NIST SOURCE=MSDC
##XUNITS=M/Z
##YUNITS=RELATIVE INTENSITY
##XFACTOR=1
##YFACTOR=1
##FIRSTX=27
##LASTX=259
##FIRSTY=40
##MAXX=259
##MINX=27
##MAXY=9999
##MINY=10
##NPOINTS=75
##PEAK TABLE=(XY..XY)
27,40 29,80 39,40 41,160
42,50 43,170 45,70 47,50
55,140 56,60 57,60 58,50
59,130 60,20 61,120 63,30
69,290 70,60 71,20 73,10
74,40 75,1962 76,150 77,1121
78,70 79,40 83,20 85,20
87,60 88,50 89,350 90,40
91,130 93,70 97,20 98,20
99,60 101,250 102,40 103,711
104,70 105,110 115,100 117,120
119,150 121,10 129,140 131,140
133,130 143,20 145,3403 146,460
147,1832 148,210 149,100 151,60
159,260 160,30 161,50 173,310
174,40 175,50 187,30 189,9999
190,1651 191,510 192,40 201,30
203,1021 204,170 205,50 245,2552
246,510 247,140 259,80
##END=
