##TITLE=Silane, dimethyl(2-methyloct-5-yn-4-yloxy)heptyloxy-
##JCAMP-DX=4.24
##DATA TYPE=MASS SPECTRUM
##ORIGIN=V.G. Zaikin, R.S.Borisov, TIPS RAS, Moscow, Russia
##OWNER=NIST Mass Spectrometry Data Center
Collection (C) 2014 copyright by the U.S. Secretary of Commerce
on behalf of the United States of America. All rights reserved.
##$NIST MASS SPEC NO=347959
##MOLFORM=C18 H36 O2 Si
##MW=312
##$NIST SOURCE=MSDC
##XUNITS=M/Z
##YUNITS=RELATIVE INTENSITY
##XFACTOR=1
##YFACTOR=1
##FIRSTX=27
##LASTX=312
##FIRSTY=130
##MAXX=312
##MINX=27
##MAXY=9999
##MINY=20
##NPOINTS=142
##PEAK TABLE=(XY..XY)
27,130 29,240 39,160 41,571
42,100 43,571 45,150 47,150
51,30 52,20 53,110 54,40
55,1041 56,110 57,180 58,80
59,360 60,30 61,310 63,50
65,80 66,30 67,210 68,40
69,490 70,80 71,60 74,60
75,5905 76,440 77,1621 78,110
79,370 80,70 81,110 83,160
85,30 87,150 88,40 89,691
90,60 91,340 92,50 93,410
94,40 95,250 96,50 97,571
98,100 99,290 100,20 101,571
102,50 103,140 105,881 106,70
107,711 108,50 109,110 110,30
111,2472 112,290 113,1041 114,110
115,400 116,60 117,170 121,370
122,70 125,260 126,60 127,651
128,80 129,681 130,90 131,240
135,20 137,50 139,290 140,100
141,2172 142,350 143,510 145,180
153,100 155,350 156,150 157,751
158,110 159,80 161,60 163,210
165,20 167,70 169,691 170,190
171,4974 172,691 173,2362 174,320
175,190 181,140 182,20 183,661
184,110 185,220 186,30 187,80
189,40 197,180 198,120 199,190
200,20 201,50 209,210 210,30
211,1371 212,260 213,290 214,50
225,150 226,30 227,220 228,30
241,150 242,20 243,410 244,60
255,9999 256,2162 257,540 258,60
259,20 270,40 283,1371 284,300
285,70 297,1842 298,400 299,110
311,80 312,90
##END=
