##TITLE=Silane, dimethyl(2,3-dimethylphenoxy)isobutoxy-
##JCAMP-DX=4.24
##DATA TYPE=MASS SPECTRUM
##ORIGIN=V.G. Zaikin, R.S.Borisov, TIPS RAS, Moscow, Russia
##OWNER=NIST Mass Spectrometry Data Center
Collection (C) 2014 copyright by the U.S. Secretary of Commerce
on behalf of the United States of America. All rights reserved.
##$NIST MASS SPEC NO=347440
##MOLFORM=C14 H24 O2 Si
##MW=252
##$NIST SOURCE=MSDC
##XUNITS=M/Z
##YUNITS=RELATIVE INTENSITY
##XFACTOR=1
##YFACTOR=1
##FIRSTX=27
##LASTX=255
##FIRSTY=210
##MAXX=255
##MINX=27
##MAXY=9999
##MINY=20
##NPOINTS=112
##PEAK TABLE=(XY..XY)
27,210 29,260 31,20 39,270
40,30 41,550 42,40 43,631
44,30 45,300 47,280 50,20
51,130 52,40 53,110 55,50
56,70 57,360 58,270 59,621
60,80 61,250 62,20 63,70
65,170 68,20 73,90 74,110
75,4424 76,360 77,791 78,250
79,470 80,40 81,140 82,681
85,120 88,90 89,330 90,80
91,631 92,70 95,20 97,40
99,50 102,80 103,751 104,290
105,6946 106,611 107,150 109,30
111,20 115,160 116,30 118,30
121,300 122,70 123,30 128,20
129,40 131,480 132,50 133,120
135,190 137,80 145,120 146,20
148,190 149,1391 150,190 151,30
159,40 161,410 162,420 163,4594
164,751 165,861 166,140 167,60
175,120 176,30 177,1151 178,4644
179,9999 180,1682 181,7267 182,1001
183,300 191,310 192,40 193,370
194,80 195,2542 196,2122 197,360
198,60 207,260 208,40 209,3073
210,470 211,110 219,50 223,100
237,1621 238,280 239,50 251,30
252,9629 253,1852 254,460 255,30
##END=
