##TITLE=Malonic acid, 3,3-dimethylbut-2-yl hexyl ester
##JCAMP-DX=4.24
##DATA TYPE=MASS SPECTRUM
##ORIGIN=V.G. Zaikin, R.S.Borisov, TIPS RAS, Moscow, Russia
##OWNER=NIST Mass Spectrometry Data Center
Collection (C) 2014 copyright by the U.S. Secretary of Commerce
on behalf of the United States of America. All rights reserved.
##$NIST MASS SPEC NO=347207
##MOLFORM=C15 H28 O4
##MW=272
##$NIST SOURCE=MSDC
##XUNITS=M/Z
##YUNITS=RELATIVE INTENSITY
##XFACTOR=1
##YFACTOR=1
##FIRSTX=26
##LASTX=257
##FIRSTY=50
##MAXX=257
##MINX=26
##MAXY=9999
##MINY=20
##NPOINTS=64
##PEAK TABLE=(XY..XY)
26,50 27,470 29,781 39,310
40,40 41,2032 42,961 43,5905
53,110 54,100 55,1051 56,961
57,2232 60,530 61,1451 62,30
67,150 68,70 69,1601 70,140
71,100 81,20 82,100 83,330
84,3703 85,9999 86,751 87,1722
88,50 89,70 99,40 100,90
101,1932 102,70 104,540 105,3033
106,100 107,20 111,631 112,50
113,40 115,230 116,30 125,170
127,40 128,20 129,70 132,1001
133,801 134,50 144,450 145,100
153,60 171,5115 172,480 173,100
189,170 200,30 215,40 216,1261
217,390 218,40 229,20 257,120
##END=
