##TITLE=Silane, dimethyldi(non-3-enyloxy)-
##JCAMP-DX=4.24
##DATA TYPE=MASS SPECTRUM
##ORIGIN=V.G. Zaikin, R.S.Borisov, TIPS RAS, Moscow, Russia
##OWNER=NIST Mass Spectrometry Data Center
Collection (C) 2014 copyright by the U.S. Secretary of Commerce
on behalf of the United States of America. All rights reserved.
##$NIST MASS SPEC NO=347997
##MOLFORM=C20 H40 O2 Si
##MW=340
##$NIST SOURCE=MSDC
##XUNITS=M/Z
##YUNITS=RELATIVE INTENSITY
##XFACTOR=1
##YFACTOR=1
##FIRSTX=26
##LASTX=340
##FIRSTY=60
##MAXX=340
##MINX=26
##MAXY=9999
##MINY=10
##NPOINTS=142
##PEAK TABLE=(XY..XY)
26,60 27,731 29,1361 38,10
39,861 40,100 41,3273 42,631
43,761 45,170 47,150 50,10
51,50 52,30 53,530 54,1031
55,2772 56,440 57,741 58,310
59,901 60,50 61,400 62,10
63,10 65,120 66,150 67,2622
68,1501 69,3163 70,310 71,80
72,20 73,100 74,50 75,7847
76,540 77,1251 78,80 79,340
80,100 81,3964 82,1351 83,1241
84,50 85,210 87,140 88,621
89,2092 90,180 91,270 93,120
94,10 95,2722 96,611 97,430
98,80 99,871 100,150 101,2622
102,230 103,1321 104,100 105,2472
106,170 107,100 109,250 110,50
111,230 112,160 113,701 114,130
115,741 116,60 117,270 118,10
119,711 120,40 121,20 122,20
123,681 124,3213 125,410 126,10
127,971 128,140 129,1451 130,160
131,1762 132,150 133,100 135,10
137,1201 138,110 139,30 141,250
142,180 143,711 144,100 145,761
146,50 147,40 149,10 153,10
155,120 157,240 158,40 159,410
160,20 161,10 163,10 169,330
170,20 171,300 172,20 173,50
177,40 183,140 185,120 187,10
191,20 197,20 198,80 199,9999
200,1772 201,741 202,60 211,110
213,40 214,10 215,80 216,10
227,10 229,4654 230,831 231,340
232,20 255,10 283,10 325,110
326,10 340,30
##END=
