##TITLE=Silane, dimethyl(dimethyl(non-5-yn-3-yloxy)silyloxy)isobutoxy-
##JCAMP-DX=4.24
##DATA TYPE=MASS SPECTRUM
##ORIGIN=V.G. Zaikin, R.S.Borisov, TIPS RAS, Moscow, Russia
##OWNER=NIST Mass Spectrometry Data Center
Collection (C) 2014 copyright by the U.S. Secretary of Commerce
on behalf of the United States of America. All rights reserved.
##$NIST MASS SPEC NO=347900
##MOLFORM=C17 H36 O3 Si2
##MW=344
##$NIST SOURCE=MSDC
##XUNITS=M/Z
##YUNITS=RELATIVE INTENSITY
##XFACTOR=1
##YFACTOR=1
##FIRSTX=28
##LASTX=330
##FIRSTY=10
##MAXX=330
##MINX=28
##MAXY=9999
##MINY=10
##NPOINTS=49
##PEAK TABLE=(XY..XY)
28,10 41,20 57,80 66,20
67,110 73,20 79,30 81,450
82,20 91,20 93,40 95,60
117,90 119,170 123,50 133,1621
134,210 135,350 137,20 147,170
148,20 149,6146 150,931 151,1571
152,100 153,170 159,110 163,310
164,40 177,30 189,50 191,290
192,30 205,9999 206,1982 207,1281
208,160 213,120 215,20 243,320
244,40 263,581 264,80 265,20
271,571 272,110 301,60 329,310
330,60
##END=
