##TITLE=Silane, dimethyl(4-methoxy-2-methylbutoxy)ethoxy-
##JCAMP-DX=4.24
##DATA TYPE=MASS SPECTRUM
##ORIGIN=V.G. Zaikin, R.S.Borisov, TIPS RAS, Moscow, Russia
##OWNER=NIST Mass Spectrometry Data Center
Collection (C) 2014 copyright by the U.S. Secretary of Commerce
on behalf of the United States of America. All rights reserved.
##$NIST MASS SPEC NO=347820
##MOLFORM=C10 H24 O3 Si
##MW=220
##$NIST SOURCE=MSDC
##XUNITS=M/Z
##YUNITS=RELATIVE INTENSITY
##XFACTOR=1
##YFACTOR=1
##FIRSTX=26
##LASTX=206
##FIRSTY=40
##MAXX=206
##MINX=26
##MAXY=9999
##MINY=10
##NPOINTS=107
##PEAK TABLE=(XY..XY)
26,40 27,190 29,440 30,20
31,60 33,10 39,200 40,30
41,941 42,80 43,420 45,2582
46,70 47,460 53,90 54,20
55,230 56,180 57,140 58,2933
59,1571 60,240 61,1021 62,70
63,210 65,20 67,200 68,90
69,1231 70,130 71,370 72,270
73,510 74,210 75,4064 76,340
77,1702 78,80 79,50 81,20
85,460 86,60 87,290 88,681
89,7076 90,641 91,2152 92,130
93,130 97,20 99,250 100,20
101,390 102,140 103,9669 104,981
105,4824 106,380 107,230 109,280
111,20 113,40 114,50 115,320
116,40 117,691 118,220 119,9999
120,961 121,540 122,20 127,20
129,200 130,20 131,1581 132,340
133,5135 134,530 135,540 136,40
137,290 141,20 143,90 145,1171
146,5555 147,711 148,230 149,5225
150,540 151,781 152,80 153,30
159,2402 160,1361 161,561 162,80
163,60 173,210 174,1962 175,841
176,160 177,40 189,20 191,190
192,20 205,1011 206,130
##END=
