##TITLE=Silane, dimethyldi(2-heptyloxy)-
##JCAMP-DX=4.24
##DATA TYPE=MASS SPECTRUM
##ORIGIN=V.G. Zaikin, R.S.Borisov, TIPS RAS, Moscow, Russia
##OWNER=NIST Mass Spectrometry Data Center
Collection (C) 2014 copyright by the U.S. Secretary of Commerce
on behalf of the United States of America. All rights reserved.
##$NIST MASS SPEC NO=347662
##MOLFORM=C16 H36 O2 Si
##MW=288
##$NIST SOURCE=MSDC
##XUNITS=M/Z
##YUNITS=RELATIVE INTENSITY
##XFACTOR=1
##YFACTOR=1
##FIRSTX=27
##LASTX=287
##FIRSTY=120
##MAXX=287
##MINX=27
##MAXY=9999
##MINY=20
##NPOINTS=71
##PEAK TABLE=(XY..XY)
27,120 28,90 29,230 39,90
41,340 42,110 43,460 45,90
47,80 53,20 55,240 56,80
57,150 58,60 59,150 60,30
61,170 63,40 69,50 70,20
73,40 74,80 75,3133 76,240
77,1271 78,70 79,40 83,20
85,20 87,100 89,40 91,20
93,50 97,40 98,20 99,70
101,280 102,130 103,961 104,100
105,90 113,30 115,230 116,30
117,40 119,140 129,170 131,200
132,20 143,20 145,150 147,30
157,90 159,440 160,60 161,20
173,1231 174,180 175,300 176,30
187,20 189,50 201,30 217,9999
218,1742 219,490 220,40 273,1351
274,270 275,70 287,30
##END=
