##TITLE=Silane, dimethyl(4-phenylphenoxy)heptadecyloxy-
##JCAMP-DX=4.24
##DATA TYPE=MASS SPECTRUM
##ORIGIN=V.G. Zaikin, R.S.Borisov, TIPS RAS, Moscow, Russia
##OWNER=NIST Mass Spectrometry Data Center
Collection (C) 2014 copyright by the U.S. Secretary of Commerce
on behalf of the United States of America. All rights reserved.
##$NIST MASS SPEC NO=347498
##MOLFORM=C31 H50 O2 Si
##MW=482
##$NIST SOURCE=MSDC
##XUNITS=M/Z
##YUNITS=RELATIVE INTENSITY
##XFACTOR=1
##YFACTOR=1
##FIRSTX=27
##LASTX=486
##FIRSTY=30
##MAXX=486
##MINX=27
##MAXY=9999
##MINY=10
##NPOINTS=76
##PEAK TABLE=(XY..XY)
27,30 29,50 39,30 41,160
42,30 43,300 54,20 55,290
56,40 57,220 59,30 67,40
69,230 70,30 71,90 75,380
76,30 77,40 81,30 83,170
84,20 85,50 89,30 95,20
97,110 101,20 111,30 113,90
114,20 115,40 141,30 151,20
152,90 153,50 154,70 165,40
167,90 168,20 169,20 170,100
171,20 183,20 197,20 211,621
212,120 213,110 225,60 226,20
227,1071 228,240 229,601 230,120
231,30 239,20 241,30 243,30
244,400 245,110 246,20 255,10
257,70 270,30 326,20 340,20
354,30 368,20 382,20 396,40
467,40 480,70 481,40 482,9999
483,3803 484,1091 485,210 486,20
##END=
