##TITLE=Silane, dimethyl(2,5-dichlorophenyloxy)isobutoxy-
##JCAMP-DX=4.24
##DATA TYPE=MASS SPECTRUM
##ORIGIN=V.G. Zaikin, R.S.Borisov, TIPS RAS, Moscow, Russia
##OWNER=NIST Mass Spectrometry Data Center
Collection (C) 2014 copyright by the U.S. Secretary of Commerce
on behalf of the United States of America. All rights reserved.
##$NIST MASS SPEC NO=347366
##MOLFORM=C12 H18 Cl2 O2 Si
##MW=292
##$NIST SOURCE=MSDC
##XUNITS=M/Z
##YUNITS=RELATIVE INTENSITY
##XFACTOR=1
##YFACTOR=1
##FIRSTX=27
##LASTX=297
##FIRSTY=200
##MAXX=297
##MINX=27
##MAXY=9999
##MINY=20
##NPOINTS=144
##PEAK TABLE=(XY..XY)
27,200 29,310 36,60 38,30
39,220 41,500 42,50 43,480
45,320 47,180 50,30 51,60
53,30 55,70 56,40 57,170
58,340 59,250 60,40 61,90
62,70 63,861 64,30 65,440
67,80 73,60 74,140 75,3393
76,240 77,260 78,50 79,200
81,100 83,20 85,20 88,120
89,160 90,30 91,60 92,80
93,4074 94,320 95,3293 96,200
97,721 98,100 99,130 100,20
101,20 103,40 105,70 109,350
110,220 111,120 112,20 113,130
115,190 117,50 121,20 123,30
125,350 126,120 127,140 128,40
129,20 131,571 132,50 133,60
135,40 141,20 147,110 148,100
149,90 150,50 151,40 155,80
157,50 159,70 161,50 165,50
167,20 168,30 169,250 170,110
171,140 172,20 177,20 179,40
181,50 182,40 183,631 184,190
185,2182 186,400 187,781 188,110
189,300 190,20 191,170 193,40
199,110 200,30 201,40 203,50
204,30 205,360 206,60 207,220
208,20 209,40 213,40 217,20
219,9388 220,1361 221,9999 222,1341
223,3793 224,450 225,510 226,40
233,60 235,100 236,50 237,40
238,20 239,20 249,210 250,20
251,140 257,140 258,20 259,50
277,6676 278,1061 279,4604 280,711
281,851 282,110 292,3103 293,510
294,2142 295,330 296,380 297,40
##END=
