##TITLE=Silane, dimethyl(undec-2-enyloxy)hexyloxy-
##JCAMP-DX=4.24
##DATA TYPE=MASS SPECTRUM
##ORIGIN=V.G. Zaikin, R.S.Borisov, TIPS RAS, Moscow, Russia
##OWNER=NIST Mass Spectrometry Data Center
Collection (C) 2014 copyright by the U.S. Secretary of Commerce
on behalf of the United States of America. All rights reserved.
##$NIST MASS SPEC NO=347940
##MOLFORM=C19 H40 O2 Si
##MW=328
##$NIST SOURCE=MSDC
##XUNITS=M/Z
##YUNITS=RELATIVE INTENSITY
##XFACTOR=1
##YFACTOR=1
##FIRSTX=26
##LASTX=330
##FIRSTY=20
##MAXX=330
##MINX=26
##MAXY=9999
##MINY=20
##NPOINTS=161
##PEAK TABLE=(XY..XY)
26,20 27,90 29,150 39,100
41,611 42,120 43,741 44,20
45,80 47,80 53,80 54,300
55,1001 56,210 57,220 58,30
59,280 60,40 61,290 63,70
65,30 66,70 67,761 68,440
69,460 70,60 73,30 74,80
75,5985 76,480 77,3553 78,220
79,190 80,50 81,951 82,1061
83,1381 84,140 85,130 87,120
88,70 89,1061 90,100 91,440
92,30 93,811 94,80 95,1031
96,691 97,290 98,20 99,390
100,60 101,761 102,80 103,360
104,20 105,881 106,70 107,70
109,561 110,350 111,220 113,410
114,90 115,1501 116,170 117,440
118,60 119,150 121,20 123,270
124,330 125,60 127,180 128,70
129,861 130,120 131,1641 132,170
133,190 137,50 141,110 142,30
143,490 144,100 145,901 146,100
147,80 151,200 152,561 153,70
155,50 157,310 158,70 159,7507
160,1091 161,5905 162,791 163,250
165,40 169,40 171,200 172,20
173,250 174,30 175,140 177,460
178,50 179,20 183,20 185,190
186,20 187,1061 188,150 189,330
190,30 197,40 199,120 201,190
202,30 211,310 212,50 213,721
214,130 215,9999 216,1822 217,561
218,40 226,30 227,200 228,40
229,2342 230,470 231,210 241,30
243,641 244,120 245,20 255,30
257,1641 258,330 259,90 271,1752
272,380 273,90 283,30 285,1732
286,380 287,120 299,270 300,50
313,3343 314,871 315,821 316,200
317,30 327,110 328,1161 329,300
330,40
##END=
