##TITLE=Malonic acid, 3,3-dimethylbut-2-yl isobutyl ester
##JCAMP-DX=4.24
##DATA TYPE=MASS SPECTRUM
##ORIGIN=V.G. Zaikin, R.S.Borisov, TIPS RAS, Moscow, Russia
##OWNER=NIST Mass Spectrometry Data Center
Collection (C) 2014 copyright by the U.S. Secretary of Commerce
on behalf of the United States of America. All rights reserved.
##$NIST MASS SPEC NO=347202
##MOLFORM=C13 H24 O4
##MW=244
##$NIST SOURCE=MSDC
##XUNITS=M/Z
##YUNITS=RELATIVE INTENSITY
##XFACTOR=1
##YFACTOR=1
##FIRSTX=26
##LASTX=229
##FIRSTY=30
##MAXX=229
##MINX=26
##MAXY=9999
##MINY=20
##NPOINTS=64
##PEAK TABLE=(XY..XY)
26,30 27,480 29,1221 30,20
39,480 40,60 41,2612 42,991
43,2963 53,100 54,30 55,470
56,1942 57,9999 58,360 59,20
60,671 61,150 67,70 68,30
69,1501 70,140 71,150 72,50
73,80 83,621 84,1091 85,8578
86,641 87,2632 88,80 89,40
100,50 101,1832 102,80 104,500
105,891 106,30 113,40 115,150
116,510 117,40 118,70 125,260
126,20 127,20 130,50 132,1692
133,971 134,60 143,4894 144,340
145,160 159,20 160,50 161,120
171,50 172,70 173,20 187,40
188,991 189,220 190,20 229,90
##END=
