##TITLE=Silane, dimethyl(2-biphenyloxy)octyloxy-
##JCAMP-DX=4.24
##DATA TYPE=MASS SPECTRUM
##ORIGIN=V.G. Zaikin, R.S.Borisov, TIPS RAS, Moscow, Russia
##OWNER=NIST Mass Spectrometry Data Center
Collection (C) 2014 copyright by the U.S. Secretary of Commerce
on behalf of the United States of America. All rights reserved.
##$NIST MASS SPEC NO=347348
##MOLFORM=C22 H32 O2 Si
##MW=356
##$NIST SOURCE=MSDC
##XUNITS=M/Z
##YUNITS=RELATIVE INTENSITY
##XFACTOR=1
##YFACTOR=1
##FIRSTX=26
##LASTX=359
##FIRSTY=20
##MAXX=359
##MINX=26
##MAXY=9999
##MINY=10
##NPOINTS=95
##PEAK TABLE=(XY..XY)
26,20 27,80 29,170 39,60
41,400 42,50 43,701 45,90
47,60 55,310 56,50 57,1071
58,110 59,140 61,50 67,20
69,290 70,40 71,861 72,40
74,20 75,1201 76,90 77,100
83,30 85,30 87,30 88,20
89,110 91,30 99,50 101,70
102,20 105,170 106,250 113,160
114,40 115,130 126,20 127,30
135,30 139,70 141,100 142,20
150,20 151,90 152,440 153,140
154,170 155,30 165,260 166,80
167,90 168,100 169,110 170,60
171,10 181,80 183,10 185,20
187,60 195,60 196,100 197,210
198,40 199,10 209,20 211,9999
212,1832 213,1051 214,150 215,30
223,20 225,150 226,50 227,2572
228,831 229,911 230,160 231,30
239,20 241,20 242,20 243,20
244,480 245,90 246,20 257,40
323,40 341,130 342,30 356,5525
357,1511 358,390 359,50
##END=
