##TITLE=Silane, dimethyldimethyl((dodec-9-ynyloxy)silyloxy)ethoxy-
##JCAMP-DX=4.24
##DATA TYPE=MASS SPECTRUM
##ORIGIN=V.G. Zaikin, R.S.Borisov, TIPS RAS, Moscow, Russia
##OWNER=NIST Mass Spectrometry Data Center
Collection (C) 2014 copyright by the U.S. Secretary of Commerce
on behalf of the United States of America. All rights reserved.
##$NIST MASS SPEC NO=347881
##MOLFORM=C18 H38 O3 Si2
##MW=358
##$NIST SOURCE=MSDC
##XUNITS=M/Z
##YUNITS=RELATIVE INTENSITY
##XFACTOR=1
##YFACTOR=1
##FIRSTX=27
##LASTX=346
##FIRSTY=70
##MAXX=346
##MINX=27
##MAXY=9999
##MINY=10
##NPOINTS=93
##PEAK TABLE=(XY..XY)
27,70 29,160 39,140 40,20
41,851 42,100 43,240 51,20
53,220 54,100 55,1471 56,90
59,20 61,20 65,120 66,110
67,1351 68,410 69,540 70,20
73,150 75,230 77,190 78,30
79,571 80,130 81,1421 82,430
83,290 85,50 91,150 93,380
94,110 95,1742 96,200 97,110
103,90 105,80 107,290 108,100
109,1421 110,140 115,60 117,170
118,20 119,961 120,80 121,400
122,160 123,300 131,20 133,4254
134,571 135,2532 136,270 137,200
147,160 148,20 149,2322 150,310
151,2642 152,330 153,180 163,641
164,170 165,110 173,10 175,40
176,20 177,8778 178,1411 179,9999
180,1471 181,711 182,30 231,100
233,110 235,20 245,290 246,30
275,100 297,200 298,20 299,480
300,80 312,400 313,380 314,210
315,50 343,4964 344,1361 345,460
346,40
##END=
