##TITLE=Silane, dimethyl(2-propylphenoxy)ethoxy-
##JCAMP-DX=4.24
##DATA TYPE=MASS SPECTRUM
##ORIGIN=V.G. Zaikin, R.S.Borisov, TIPS RAS, Moscow, Russia
##OWNER=NIST Mass Spectrometry Data Center
Collection (C) 2014 copyright by the U.S. Secretary of Commerce
on behalf of the United States of America. All rights reserved.
##$NIST MASS SPEC NO=347411
##MOLFORM=C13 H22 O2 Si
##MW=238
##$NIST SOURCE=MSDC
##XUNITS=M/Z
##YUNITS=RELATIVE INTENSITY
##XFACTOR=1
##YFACTOR=1
##FIRSTX=27
##LASTX=241
##FIRSTY=20
##MAXX=241
##MINX=27
##MAXY=9999
##MINY=10
##NPOINTS=93
##PEAK TABLE=(XY..XY)
27,20 29,50 39,50 41,50
43,110 45,200 47,160 51,40
58,20 59,581 60,40 61,200
63,40 65,70 67,20 68,20
73,70 74,90 75,1261 76,110
77,310 78,90 79,60 81,40
82,550 83,60 87,20 89,150
90,60 91,1031 92,80 95,20
97,110 101,20 102,20 103,901
104,180 105,160 107,90 111,60
115,200 116,40 117,50 118,20
119,20 121,100 131,20 133,70
134,40 135,781 136,80 137,200
147,290 148,160 149,1692 150,250
151,601 152,70 153,100 161,390
162,60 163,1581 164,330 165,9999
166,1651 167,561 168,40 175,290
176,40 177,1591 178,280 179,550
180,70 181,210 182,20 191,591
192,1411 193,761 194,170 195,130
196,20 209,2983 210,540 211,150
221,20 223,1311 224,230 225,60
237,10 238,5815 239,1191 240,330
241,30
##END=
