##TITLE=Silane, dimethyl(1-phenylpropoxy)hexadecyloxy-
##JCAMP-DX=4.24
##DATA TYPE=MASS SPECTRUM
##ORIGIN=V.G. Zaikin, R.S.Borisov, TIPS RAS, Moscow, Russia
##OWNER=NIST Mass Spectrometry Data Center
Collection (C) 2014 copyright by the U.S. Secretary of Commerce
on behalf of the United States of America. All rights reserved.
##$NIST MASS SPEC NO=347284
##MOLFORM=C27 H50 O2 Si
##MW=434
##$NIST SOURCE=MSDC
##XUNITS=M/Z
##YUNITS=RELATIVE INTENSITY
##XFACTOR=1
##YFACTOR=1
##FIRSTX=26
##LASTX=419
##FIRSTY=20
##MAXX=419
##MINX=26
##MAXY=9999
##MINY=10
##NPOINTS=105
##PEAK TABLE=(XY..XY)
26,20 27,80 29,140 39,70
41,370 42,80 43,540 45,20
47,20 51,40 53,20 54,50
55,470 56,90 57,460 59,160
61,110 63,30 65,30 67,150
68,60 69,440 70,70 71,230
74,30 75,2903 76,200 77,841
78,80 79,40 81,150 82,80
83,480 84,50 85,130 87,20
89,370 90,40 91,1722 92,120
93,20 95,140 96,40 97,400
98,40 99,60 101,170 102,20
103,80 104,130 105,400 106,50
109,60 111,170 113,20 115,180
116,30 117,360 118,110 119,280
120,40 123,20 125,40 127,10
129,80 131,180 133,20 135,160
137,20 143,50 145,50 149,140
150,20 151,40 157,20 159,20
163,100 164,70 165,1261 166,160
167,70 179,80 181,410 182,40
191,20 192,40 193,100 194,20
195,130 207,60 209,50 221,50
223,160 224,20 299,450 300,90
301,240 302,40 313,20 403,30
405,9999 406,3273 407,881 408,130
419,20
##END=
