##TITLE=Silane, dimethyl(2-methyloct-5-yn-4-yloxy)ethoxy-
##JCAMP-DX=4.24
##DATA TYPE=MASS SPECTRUM
##ORIGIN=V.G. Zaikin, R.S.Borisov, TIPS RAS, Moscow, Russia
##OWNER=NIST Mass Spectrometry Data Center
Collection (C) 2014 copyright by the U.S. Secretary of Commerce
on behalf of the United States of America. All rights reserved.
##$NIST MASS SPEC NO=347954
##MOLFORM=C13 H26 O2 Si
##MW=242
##$NIST SOURCE=MSDC
##XUNITS=M/Z
##YUNITS=RELATIVE INTENSITY
##XFACTOR=1
##YFACTOR=1
##FIRSTX=27
##LASTX=241
##FIRSTY=100
##MAXX=241
##MINX=27
##MAXY=9999
##MINY=20
##NPOINTS=99
##PEAK TABLE=(XY..XY)
27,100 29,120 39,150 41,290
43,170 45,210 47,170 51,40
52,20 53,90 55,50 57,20
58,40 59,470 60,60 61,240
62,20 63,60 65,80 66,30
67,60 69,60 70,40 73,80
74,30 75,1952 76,150 77,1041
78,90 79,210 80,40 81,80
83,40 84,20 85,140 87,60
89,50 91,150 92,40 93,70
95,20 96,20 97,160 98,40
99,90 101,90 103,3213 104,320
105,561 106,50 107,100 109,40
111,1151 112,150 113,250 114,20
115,50 119,30 121,20 123,20
125,170 126,70 127,350 128,30
129,150 131,70 139,220 140,60
141,3633 142,500 143,390 144,30
145,30 153,20 155,360 156,80
157,50 167,30 169,150 170,30
171,330 172,40 173,180 181,90
183,250 184,40 185,9999 186,1501
187,440 188,30 189,20 200,20
213,591 214,90 215,20 227,771
228,120 229,30 241,40
##END=
