##TITLE=Silane, dimethyl(2,3-dimethylphenoxy)isohexyloxy-
##JCAMP-DX=4.24
##DATA TYPE=MASS SPECTRUM
##ORIGIN=V.G. Zaikin, R.S.Borisov, TIPS RAS, Moscow, Russia
##OWNER=NIST Mass Spectrometry Data Center
Collection (C) 2014 copyright by the U.S. Secretary of Commerce
on behalf of the United States of America. All rights reserved.
##$NIST MASS SPEC NO=347443
##MOLFORM=C16 H28 O2 Si
##MW=280
##$NIST SOURCE=MSDC
##XUNITS=M/Z
##YUNITS=RELATIVE INTENSITY
##XFACTOR=1
##YFACTOR=1
##FIRSTX=27
##LASTX=283
##FIRSTY=130
##MAXX=283
##MINX=27
##MAXY=9999
##MINY=10
##NPOINTS=111
##PEAK TABLE=(XY..XY)
27,130 29,110 39,140 41,520
42,50 43,861 45,120 47,110
51,40 53,50 55,881 56,360
57,110 58,80 59,320 60,30
61,150 63,30 65,70 67,30
69,240 73,30 74,50 75,1822
76,140 77,520 78,110 79,190
81,80 82,270 83,3974 84,270
85,60 87,20 88,40 89,310
90,50 91,310 92,30 93,20
99,80 101,110 102,30 103,250
104,120 105,2993 106,290 107,80
111,20 115,100 116,10 117,70
118,20 119,300 120,40 121,170
122,60 131,20 133,50 135,130
137,40 143,90 145,60 147,160
148,120 149,771 150,110 151,240
152,20 159,70 161,240 162,260
163,2462 164,470 165,631 166,110
167,50 175,90 176,20 177,671
178,3693 179,3853 180,811 181,1962
182,310 183,120 189,40 191,60
193,240 194,60 195,1952 196,2412
197,520 198,120 203,20 205,30
207,120 208,20 209,1391 210,220
211,60 219,80 223,60 224,20
250,80 265,240 266,40 280,9999
281,2322 282,611 283,70
##END=
