##TITLE=Silane, dimethyl(non-3-enyloxy)hexyloxy-
##JCAMP-DX=4.24
##DATA TYPE=MASS SPECTRUM
##ORIGIN=V.G. Zaikin, R.S.Borisov, TIPS RAS, Moscow, Russia
##OWNER=NIST Mass Spectrometry Data Center
Collection (C) 2014 copyright by the U.S. Secretary of Commerce
on behalf of the United States of America. All rights reserved.
##$NIST MASS SPEC NO=347995
##MOLFORM=C17 H36 O2 Si
##MW=300
##$NIST SOURCE=MSDC
##XUNITS=M/Z
##YUNITS=RELATIVE INTENSITY
##XFACTOR=1
##YFACTOR=1
##FIRSTX=28
##LASTX=301
##FIRSTY=10
##MAXX=301
##MINX=28
##MAXY=9999
##MINY=10
##NPOINTS=118
##PEAK TABLE=(XY..XY)
28,10 39,30 41,100 45,30
47,40 53,60 54,210 55,250
58,60 59,210 60,20 61,100
65,20 66,60 67,550 68,831
73,20 74,30 75,2772 76,230
77,20 78,20 79,50 80,30
81,671 82,931 83,941 84,40
87,80 88,150 89,3213 90,320
91,200 92,10 95,550 96,340
97,50 99,230 100,40 101,591
102,70 103,260 104,30 105,420
106,20 107,330 108,20 109,80
110,20 111,50 112,20 113,170
114,30 115,320 116,40 117,150
118,20 119,1561 120,160 121,60
123,110 124,2512 125,260 127,200
128,30 129,210 130,20 131,260
132,30 133,40 137,70 141,60
142,30 143,210 144,20 145,150
146,10 155,40 157,230 158,30
159,6146 160,941 161,440 162,40
169,30 171,30 173,90 175,30
177,60 179,20 183,230 184,20
185,520 186,70 187,240 188,20
189,9999 190,1732 191,530 192,40
198,20 199,591 200,100 201,50
203,20 213,10 215,120 216,10
229,390 230,70 255,10 257,180
258,20 271,20 285,1061 286,230
300,90 301,10
##END=
