##TITLE=Silane, dimethyl(3-ethylphenoxy)isobutoxy-
##JCAMP-DX=4.24
##DATA TYPE=MASS SPECTRUM
##ORIGIN=V.G. Zaikin, R.S.Borisov, TIPS RAS, Moscow, Russia
##OWNER=NIST Mass Spectrometry Data Center
Collection (C) 2014 copyright by the U.S. Secretary of Commerce
on behalf of the United States of America. All rights reserved.
##$NIST MASS SPEC NO=347462
##MOLFORM=C14 H24 O2 Si
##MW=252
##$NIST SOURCE=MSDC
##XUNITS=M/Z
##YUNITS=RELATIVE INTENSITY
##XFACTOR=1
##YFACTOR=1
##FIRSTX=26
##LASTX=255
##FIRSTY=20
##MAXX=255
##MINX=26
##MAXY=9999
##MINY=10
##NPOINTS=116
##PEAK TABLE=(XY..XY)
26,20 27,90 29,150 39,110
41,280 42,60 43,250 45,140
47,100 51,40 52,10 53,30
55,130 56,30 57,90 58,90
59,350 60,40 61,160 63,50
65,60 67,20 68,60 69,60
73,210 74,60 75,1802 76,150
77,831 78,120 79,200 81,20
82,561 83,30 85,40 88,30
89,250 90,90 91,530 92,40
93,50 95,70 97,60 99,40
101,30 102,30 103,260 104,130
105,360 106,40 107,110 109,30
111,30 115,90 117,80 118,40
119,240 120,40 121,110 122,40
123,80 129,20 131,180 133,70
134,30 135,540 136,70 137,150
145,90 147,210 148,120 149,791
150,160 151,550 152,90 153,110
161,380 162,80 163,951 164,200
165,550 166,110 167,70 175,60
176,50 177,1321 178,320 179,8988
180,1541 181,9999 182,1521 183,470
184,20 191,50 193,130 194,30
195,150 196,2132 197,360 198,80
203,40 207,50 209,2813 210,470
211,120 219,160 220,20 237,2492
238,480 239,110 250,20 251,40
252,9028 253,1852 254,450 255,40
##END=
