##TITLE=Silane, dimethyl(2-methoxyethoxy)pentyloxy-
##JCAMP-DX=4.24
##DATA TYPE=MASS SPECTRUM
##ORIGIN=V.G. Zaikin, R.S.Borisov, TIPS RAS, Moscow, Russia
##OWNER=NIST Mass Spectrometry Data Center
Collection (C) 2014 copyright by the U.S. Secretary of Commerce
on behalf of the United States of America. All rights reserved.
##$NIST MASS SPEC NO=347843
##MOLFORM=C10 H24 O3 Si
##MW=220
##$NIST SOURCE=MSDC
##XUNITS=M/Z
##YUNITS=RELATIVE INTENSITY
##XFACTOR=1
##YFACTOR=1
##FIRSTX=26
##LASTX=208
##FIRSTY=20
##MAXX=208
##MINX=26
##MAXY=9999
##MINY=10
##NPOINTS=71
##PEAK TABLE=(XY..XY)
26,20 27,170 29,380 31,30
39,130 41,410 42,120 43,460
45,911 47,320 55,120 58,721
59,1581 60,240 61,1061 62,30
63,50 67,10 69,1011 70,80
71,30 73,30 74,150 75,4784
76,320 77,921 78,10 85,20
87,150 88,390 89,7136 90,631
91,7797 92,530 93,320 99,90
101,400 102,40 103,851 104,90
105,901 106,50 107,90 115,90
117,781 118,60 119,1692 120,130
121,70 129,110 131,240 132,240
133,7737 134,801 135,340 145,3253
146,370 147,340 159,120 161,3343
162,400 163,110 173,80 175,2452
176,330 177,70 189,10 205,9999
206,1551 207,470 208,20
##END=
