##TITLE=Silane, dimethyl(4-cyanophenoxy)tetradecyloxy-
##JCAMP-DX=4.24
##DATA TYPE=MASS SPECTRUM
##ORIGIN=V.G. Zaikin, R.S.Borisov, TIPS RAS, Moscow, Russia
##OWNER=NIST Mass Spectrometry Data Center
Collection (C) 2014 copyright by the U.S. Secretary of Commerce
on behalf of the United States of America. All rights reserved.
##$NIST MASS SPEC NO=347100
##MOLFORM=C23 H39 N O2 Si
##MW=389
##$NIST SOURCE=MSDC
##XUNITS=M/Z
##YUNITS=RELATIVE INTENSITY
##XFACTOR=1
##YFACTOR=1
##FIRSTX=27
##LASTX=392
##FIRSTY=170
##MAXX=392
##MINX=27
##MAXY=9999
##MINY=10
##NPOINTS=181
##PEAK TABLE=(XY..XY)
27,170 29,180 38,20 39,210
40,50 41,1501 42,250 43,561
45,40 47,70 51,20 54,160
55,2162 56,330 57,1411 58,150
59,80 60,20 61,220 64,80
68,270 69,561 70,360 71,601
72,30 73,60 74,40 75,3443
76,240 77,420 79,80 81,260
82,240 83,1101 84,290 87,90
88,120 89,510 90,70 91,30
95,210 96,90 97,30 98,190
99,140 101,380 103,60 104,20
109,70 110,40 111,621 112,80
113,70 115,310 116,470 117,100
118,20 120,90 121,80 122,30
125,150 127,60 129,130 130,30
131,70 132,30 135,40 139,20
141,20 143,100 145,30 146,380
147,50 149,90 150,20 151,50
157,50 159,30 161,100 162,631
163,80 165,20 171,20 172,10
174,190 175,70 176,9999 177,1832
178,3944 179,1021 180,1692 181,250
186,50 188,40 190,290 191,50
193,4174 194,2622 195,500 196,100
200,30 202,20 204,360 205,90
206,1942 207,370 209,50 218,80
220,530 221,270 222,250 223,60
232,220 233,60 234,540 235,300
236,190 246,50 247,20 248,911
249,450 251,140 252,50 255,100
260,20 262,480 263,90 264,120
265,90 271,280 272,150 273,30
274,20 276,631 277,851 278,20
279,120 288,20 290,941 291,1521
292,530 293,30 294,110 302,20
304,1611 305,2392 306,771 307,200
316,20 318,2452 319,2592 320,841
321,220 322,20 330,20 331,60
332,3153 333,2282 334,90 335,230
336,30 344,20 346,3853 347,2542
348,1001 349,210 350,20 360,3143
361,1211 362,190 363,60 372,40
374,1621 375,460 376,110 387,20
388,3143 389,4584 390,510 391,40
392,50
##END=
