##TITLE=Silane, dimethyl(4-acetylphenoxy)propoxy-
##JCAMP-DX=4.24
##DATA TYPE=MASS SPECTRUM
##ORIGIN=V.G. Zaikin, R.S.Borisov, TIPS RAS, Moscow, Russia
##OWNER=NIST Mass Spectrometry Data Center
Collection (C) 2014 copyright by the U.S. Secretary of Commerce
on behalf of the United States of America. All rights reserved.
##$NIST MASS SPEC NO=347308
##MOLFORM=C13 H20 O3 Si
##MW=252
##$NIST SOURCE=MSDC
##XUNITS=M/Z
##YUNITS=RELATIVE INTENSITY
##XFACTOR=1
##YFACTOR=1
##FIRSTX=27
##LASTX=254
##FIRSTY=20
##MAXX=254
##MINX=27
##MAXY=9999
##MINY=20
##NPOINTS=74
##PEAK TABLE=(XY..XY)
27,20 39,20 43,1061 45,130
47,90 50,30 51,20 58,30
59,120 60,30 61,60 62,20
63,30 65,40 74,60 75,1271
76,150 77,50 79,20 82,20
85,30 89,1041 90,110 91,390
92,40 95,20 97,30 103,160
104,250 105,420 106,30 107,60
117,711 118,90 119,70 120,20
121,30 123,100 133,280 134,50
135,330 137,110 149,140 150,110
151,470 152,80 153,440 154,50
163,110 165,70 167,20 177,150
178,20 179,220 180,30 181,540
182,70 183,20 191,20 193,500
194,80 195,1131 196,160 197,50
207,30 223,70 235,30 237,9999
238,1832 239,550 240,50 252,2873
253,561 254,160
##END=
