##TITLE=Silane, dimethyl(hex-4-yn-3-yloxy)pentyloxy-
##JCAMP-DX=4.24
##DATA TYPE=MASS SPECTRUM
##ORIGIN=V.G. Zaikin, R.S.Borisov, TIPS RAS, Moscow, Russia
##OWNER=NIST Mass Spectrometry Data Center
Collection (C) 2014 copyright by the U.S. Secretary of Commerce
on behalf of the United States of America. All rights reserved.
##$NIST MASS SPEC NO=347918
##MOLFORM=C13 H26 O2 Si
##MW=242
##$NIST SOURCE=MSDC
##XUNITS=M/Z
##YUNITS=RELATIVE INTENSITY
##XFACTOR=1
##YFACTOR=1
##FIRSTX=27
##LASTX=241
##FIRSTY=70
##MAXX=241
##MINX=27
##MAXY=9999
##MINY=30
##NPOINTS=107
##PEAK TABLE=(XY..XY)
27,70 29,130 39,130 41,230
45,290 47,290 51,60 52,40
53,230 54,30 58,110 59,350
60,80 61,280 62,30 63,130
65,60 66,60 67,60 69,380
71,80 74,70 75,5685 76,480
77,1802 78,140 79,400 80,80
81,190 85,180 87,110 88,70
89,631 90,60 91,120 93,520
94,40 95,70 97,3423 98,390
99,1962 100,190 101,490 102,40
103,50 105,921 106,70 107,100
109,80 111,140 112,70 113,561
114,70 115,540 116,70 117,430
119,210 121,520 122,40 123,30
125,290 126,160 127,3093 128,400
129,751 130,70 131,150 139,611
140,120 141,2012 142,390 143,891
144,100 145,3823 146,520 147,200
153,70 155,751 156,581 157,2672
158,370 159,220 161,130 167,681
168,100 169,3643 170,591 171,791
172,120 173,200 183,350 184,80
185,1431 186,200 187,1041 188,160
195,50 197,60 199,30 213,9999
214,1842 215,520 216,40 227,3743
228,711 229,180 241,140
##END=
