##TITLE=Silane, dimethyl(3-phenylprop-2-enyloxy)octyloxy-
##JCAMP-DX=4.24
##DATA TYPE=MASS SPECTRUM
##ORIGIN=V.G. Zaikin, R.S.Borisov, TIPS RAS, Moscow, Russia
##OWNER=NIST Mass Spectrometry Data Center
Collection (C) 2014 copyright by the U.S. Secretary of Commerce
on behalf of the United States of America. All rights reserved.
##$NIST MASS SPEC NO=347987
##MOLFORM=C19 H32 O2 Si
##MW=320
##$NIST SOURCE=MSDC
##XUNITS=M/Z
##YUNITS=RELATIVE INTENSITY
##XFACTOR=1
##YFACTOR=1
##FIRSTX=27
##LASTX=323
##FIRSTY=20
##MAXX=323
##MINX=27
##MAXY=9999
##MINY=10
##NPOINTS=116
##PEAK TABLE=(XY..XY)
27,20 29,80 39,140 41,270
42,30 43,240 45,130 47,100
51,40 55,160 57,220 58,90
59,270 60,40 61,170 62,20
63,50 65,90 69,300 71,120
74,80 75,4574 76,370 77,561
78,40 81,20 87,70 88,90
89,540 90,50 91,1171 92,90
95,901 96,200 99,100 101,330
102,130 103,110 104,330 105,270
109,20 110,100 111,40 113,40
114,40 115,4024 116,3443 117,8358
118,2762 119,190 121,20 128,20
129,350 130,120 131,310 132,120
135,160 136,10 137,190 143,50
144,30 145,180 146,20 147,70
148,30 157,30 159,100 161,100
162,180 163,90 164,50 165,40
171,60 173,40 174,80 175,470
176,80 177,671 178,90 179,30
181,60 185,20 187,460 188,70
189,1702 190,931 191,1261 192,2973
193,1411 194,270 195,160 201,60
202,30 203,30 205,20 206,20
207,9999 208,1972 209,530 210,50
215,210 216,40 221,400 222,70
249,220 250,30 275,10 291,30
305,1261 306,300 307,70 319,1371
320,4304 321,1101 322,260 323,20
##END=
