##TITLE=Silane, dimethyldi(4-methoxy-2-methylbutoxy)-
##JCAMP-DX=4.24
##DATA TYPE=MASS SPECTRUM
##ORIGIN=V.G. Zaikin, R.S.Borisov, TIPS RAS, Moscow, Russia
##OWNER=NIST Mass Spectrometry Data Center
Collection (C) 2014 copyright by the U.S. Secretary of Commerce
on behalf of the United States of America. All rights reserved.
##$NIST MASS SPEC NO=347822
##MOLFORM=C14 H32 O4 Si
##MW=292
##$NIST SOURCE=MSDC
##XUNITS=M/Z
##YUNITS=RELATIVE INTENSITY
##XFACTOR=1
##YFACTOR=1
##FIRSTX=26
##LASTX=278
##FIRSTY=40
##MAXX=278
##MINX=26
##MAXY=9999
##MINY=20
##NPOINTS=91
##PEAK TABLE=(XY..XY)
26,40 27,270 28,180 29,711
30,30 31,100 33,40 39,370
40,30 41,1101 42,140 43,360
44,20 45,7647 46,140 47,80
53,100 55,390 56,160 57,80
58,1231 59,931 60,100 61,360
67,210 68,30 69,1651 70,100
71,290 72,30 74,80 75,1742
76,110 77,370 85,410 86,30
87,50 88,480 89,6406 90,561
91,1001 92,50 93,20 99,380
100,20 101,420 103,260 104,140
105,2843 106,210 107,280 113,60
114,20 115,540 116,60 117,270
118,20 119,5535 120,520 121,310
123,150 127,30 129,180 130,20
131,360 132,160 133,110 135,2422
136,200 137,70 143,90 145,310
146,2362 147,310 148,70 149,30
159,851 160,80 161,110 173,50
174,420 175,9999 176,1461 177,450
178,20 189,20 191,871 192,100
193,20 277,510 278,70
##END=
