##TITLE=Silane, dimethyl(2-hexyloxy)heptyloxy-
##JCAMP-DX=4.24
##DATA TYPE=MASS SPECTRUM
##ORIGIN=V.G. Zaikin, R.S.Borisov, TIPS RAS, Moscow, Russia
##OWNER=NIST Mass Spectrometry Data Center
Collection (C) 2014 copyright by the U.S. Secretary of Commerce
on behalf of the United States of America. All rights reserved.
##$NIST MASS SPEC NO=347678
##MOLFORM=C15 H34 O2 Si
##MW=274
##$NIST SOURCE=MSDC
##XUNITS=M/Z
##YUNITS=RELATIVE INTENSITY
##XFACTOR=1
##YFACTOR=1
##FIRSTX=27
##LASTX=273
##FIRSTY=50
##MAXX=273
##MINX=27
##MAXY=9999
##MINY=10
##NPOINTS=79
##PEAK TABLE=(XY..XY)
27,50 29,80 39,50 41,190
42,50 43,30 45,70 47,60
54,20 55,500 56,80 57,100
58,50 59,160 60,30 61,150
63,40 67,30 68,20 69,110
70,30 73,20 74,40 75,2212
76,180 77,1361 78,80 79,50
81,30 84,30 87,120 89,430
90,50 91,150 93,100 97,661
98,60 99,100 101,350 102,50
103,751 104,70 105,130 113,30
115,360 116,40 117,80 119,90
121,40 129,130 131,210 132,20
143,40 145,270 146,30 157,100
159,500 160,70 161,50 171,20
173,3313 174,540 175,1661 176,230
177,20 189,1061 190,160 191,60
201,20 217,9999 218,1872 219,561
220,50 243,20 259,3253 260,731
261,200 262,10 273,80
##END=
