##TITLE=Silane, dimethyl(hex-4-yn-3-yloxy)decyloxy-
##JCAMP-DX=4.24
##DATA TYPE=MASS SPECTRUM
##ORIGIN=V.G. Zaikin, R.S.Borisov, TIPS RAS, Moscow, Russia
##OWNER=NIST Mass Spectrometry Data Center
Collection (C) 2014 copyright by the U.S. Secretary of Commerce
on behalf of the United States of America. All rights reserved.
##$NIST MASS SPEC NO=347922
##MOLFORM=C18 H36 O2 Si
##MW=312
##$NIST SOURCE=MSDC
##XUNITS=M/Z
##YUNITS=RELATIVE INTENSITY
##XFACTOR=1
##YFACTOR=1
##FIRSTX=27
##LASTX=312
##FIRSTY=200
##MAXX=312
##MINX=27
##MAXY=9999
##MINY=30
##NPOINTS=136
##PEAK TABLE=(XY..XY)
27,200 29,350 39,200 41,861
42,120 43,961 45,200 47,160
51,40 52,30 53,270 54,70
55,891 56,120 57,741 58,100
59,320 60,60 61,370 63,80
65,50 66,50 67,220 68,70
69,841 70,110 71,180 74,70
75,5425 76,410 77,1732 78,110
79,360 80,80 81,571 82,70
83,1501 84,100 85,360 87,150
88,50 89,641 90,60 91,200
93,450 94,40 95,250 96,70
97,3063 98,330 99,1782 100,160
101,751 102,70 103,160 105,701
106,60 107,400 109,110 111,140
112,40 113,591 114,70 115,721
116,80 117,460 119,530 120,40
121,160 123,70 125,310 126,130
127,2562 128,330 129,671 130,70
131,240 133,240 135,90 137,40
139,550 140,100 141,1722 142,370
143,961 144,140 145,190 151,50
153,110 154,30 155,751 156,661
157,3593 158,460 159,250 167,60
169,260 170,50 171,941 172,160
173,100 177,30 181,30 183,160
184,30 185,1531 186,220 187,80
191,30 197,120 199,120 211,80
213,170 215,1722 216,290 217,100
225,30 229,30 237,160 239,1962
240,370 241,130 253,40 255,70
257,540 258,90 269,30 283,9999
284,2292 285,591 286,60 297,3743
298,861 299,210 311,130 312,30
##END=
