##TITLE=Silane, dimethyl(2,3-dichlorophenoxy)butoxy-
##JCAMP-DX=4.24
##DATA TYPE=MASS SPECTRUM
##ORIGIN=V.G. Zaikin, R.S.Borisov, TIPS RAS, Moscow, Russia
##OWNER=NIST Mass Spectrometry Data Center
Collection (C) 2014 copyright by the U.S. Secretary of Commerce
on behalf of the United States of America. All rights reserved.
##$NIST MASS SPEC NO=347326
##MOLFORM=C12 H18 Cl2 O2 Si
##MW=292
##$NIST SOURCE=MSDC
##XUNITS=M/Z
##YUNITS=RELATIVE INTENSITY
##XFACTOR=1
##YFACTOR=1
##FIRSTX=27
##LASTX=297
##FIRSTY=30
##MAXX=297
##MINX=27
##MAXY=9999
##MINY=10
##NPOINTS=137
##PEAK TABLE=(XY..XY)
27,30 29,90 39,60 41,160
43,120 45,150 47,110 51,20
55,80 56,20 57,50 58,120
59,190 60,20 61,50 62,30
63,380 64,20 65,170 67,30
74,70 75,2052 76,160 77,150
78,40 79,190 81,70 87,30
88,50 89,280 90,30 91,50
92,30 93,1932 94,170 95,2422
96,160 97,661 98,70 99,80
101,40 103,20 105,70 107,20
109,410 110,270 111,110 113,100
115,240 117,50 121,40 123,30
125,120 126,130 127,80 128,50
129,20 131,871 132,90 133,50
135,40 141,20 143,20 147,60
148,50 149,60 151,120 153,30
155,60 157,200 159,130 161,70
162,30 163,30 164,20 165,20
166,10 169,110 170,50 171,80
175,20 177,20 179,30 181,30
182,20 183,180 184,50 185,1061
186,230 187,410 188,70 189,160
191,90 193,60 195,50 199,70
200,30 201,30 203,40 204,20
205,500 206,60 207,300 208,30
209,50 213,50 215,30 219,3113
220,500 221,4974 222,701 223,2412
224,300 225,400 226,30 233,30
235,30 236,40 238,20 249,100
251,50 257,120 258,20 259,40
277,9999 278,1742 279,6816 280,1151
281,1341 282,180 283,40 292,2332
293,420 294,1611 295,270 296,300
297,40
##END=
