##TITLE=Silane, dimethyl(3-heptyloxy)pentyloxy-
##JCAMP-DX=4.24
##DATA TYPE=MASS SPECTRUM
##ORIGIN=V.G. Zaikin, R.S.Borisov, TIPS RAS, Moscow, Russia
##OWNER=NIST Mass Spectrometry Data Center
Collection (C) 2014 copyright by the U.S. Secretary of Commerce
on behalf of the United States of America. All rights reserved.
##$NIST MASS SPEC NO=347713
##MOLFORM=C14 H32 O2 Si
##MW=260
##$NIST SOURCE=MSDC
##XUNITS=M/Z
##YUNITS=RELATIVE INTENSITY
##XFACTOR=1
##YFACTOR=1
##FIRSTX=26
##LASTX=259
##FIRSTY=20
##MAXX=259
##MINX=26
##MAXY=9999
##MINY=20
##NPOINTS=88
##PEAK TABLE=(XY..XY)
26,20 27,100 29,220 39,80
41,350 42,80 43,280 45,160
47,140 53,20 55,220 56,80
57,110 58,130 59,370 60,60
61,270 63,70 67,20 69,731
70,110 71,130 72,20 73,20
74,70 75,4364 76,330 77,1812
78,100 79,60 83,20 85,70
87,100 88,120 89,721 90,80
91,190 93,120 97,30 98,30
99,150 101,520 102,60 103,160
105,310 106,20 113,20 115,210
116,20 117,1321 118,130 119,80
129,170 130,20 131,200 132,20
133,480 134,40 135,20 143,70
144,20 145,6336 146,811 147,2502
148,280 149,90 159,110 161,410
162,40 173,400 174,50 175,110
187,70 201,70 203,9999 204,1621
205,490 206,30 215,20 229,20
231,6486 232,1231 233,340 234,30
245,1321 246,240 247,60 259,110
##END=
