##TITLE=Silane, dimethyl(4-ethylphenoxy)propoxy-
##JCAMP-DX=4.24
##DATA TYPE=MASS SPECTRUM
##ORIGIN=V.G. Zaikin, R.S.Borisov, TIPS RAS, Moscow, Russia
##OWNER=NIST Mass Spectrometry Data Center
Collection (C) 2014 copyright by the U.S. Secretary of Commerce
on behalf of the United States of America. All rights reserved.
##$NIST MASS SPEC NO=347422
##MOLFORM=C13 H22 O2 Si
##MW=238
##$NIST SOURCE=MSDC
##XUNITS=M/Z
##YUNITS=RELATIVE INTENSITY
##XFACTOR=1
##YFACTOR=1
##FIRSTX=26
##LASTX=241
##FIRSTY=10
##MAXX=241
##MINX=26
##MAXY=9999
##MINY=10
##NPOINTS=89
##PEAK TABLE=(XY..XY)
26,10 27,40 29,10 39,20
45,80 47,70 51,30 52,10
58,10 59,330 60,10 61,100
63,20 65,30 68,20 73,210
74,70 75,1661 76,120 77,140
78,60 79,70 81,60 82,1221
89,70 90,40 91,490 92,20
95,10 97,160 102,10 103,120
104,250 105,220 106,10 107,130
115,30 117,1031 118,80 119,50
120,20 121,110 122,30 123,10
133,70 135,941 136,90 137,230
147,370 148,90 149,1041 150,100
151,671 152,80 153,300 154,10
161,861 162,120 163,6286 164,941
165,4424 166,571 167,260 177,3403
178,6366 179,3223 180,611 181,1661
182,200 183,30 193,60 195,561
196,180 203,10 205,230 206,10
207,130 208,10 209,1051 210,120
211,10 223,5025 224,821 225,200
237,10 238,9999 239,1882 240,440
241,10
##END=
