##TITLE=Silane, dimethyl(2,6-dimethoxyphenoxy)tetradecyloxy-
##JCAMP-DX=4.24
##DATA TYPE=MASS SPECTRUM
##ORIGIN=V.G. Zaikin, R.S.Borisov, TIPS RAS, Moscow, Russia
##OWNER=NIST Mass Spectrometry Data Center
Collection (C) 2014 copyright by the U.S. Secretary of Commerce
on behalf of the United States of America. All rights reserved.
##$NIST MASS SPEC NO=347135
##MOLFORM=C24 H44 O4 Si
##MW=424
##$NIST SOURCE=MSDC
##XUNITS=M/Z
##YUNITS=RELATIVE INTENSITY
##XFACTOR=1
##YFACTOR=1
##FIRSTX=39
##LASTX=427
##FIRSTY=40
##MAXX=427
##MINX=39
##MAXY=9999
##MINY=20
##NPOINTS=68
##PEAK TABLE=(XY..XY)
39,40 41,90 42,20 43,200
44,20 54,20 55,280 56,60
57,180 67,20 68,30 69,270
70,30 71,70 75,390 77,30
78,20 81,20 82,50 83,240
84,50 85,20 89,20 91,60
96,50 97,220 98,40 111,50
121,20 125,20 137,20 138,190
139,180 151,90 153,230 154,330
155,100 165,40 166,110 167,60
168,20 179,20 181,591 182,180
183,200 195,60 196,3093 197,611
198,921 199,230 200,30 209,150
210,50 211,3073 212,561 213,260
225,40 228,110 394,3433 395,971
396,210 409,4294 410,1261 411,300
424,9999 425,3083 426,861 427,80
##END=
