##TITLE=Silane, dimethyl(2-isopropylphenoxy)hexadecyloxy-
##JCAMP-DX=4.24
##DATA TYPE=MASS SPECTRUM
##ORIGIN=V.G. Zaikin, R.S.Borisov, TIPS RAS, Moscow, Russia
##OWNER=NIST Mass Spectrometry Data Center
Collection (C) 2014 copyright by the U.S. Secretary of Commerce
on behalf of the United States of America. All rights reserved.
##$NIST MASS SPEC NO=347252
##MOLFORM=C27 H50 O2 Si
##MW=434
##$NIST SOURCE=MSDC
##XUNITS=M/Z
##YUNITS=RELATIVE INTENSITY
##XFACTOR=1
##YFACTOR=1
##FIRSTX=26
##LASTX=437
##FIRSTY=40
##MAXX=437
##MINX=26
##MAXY=9999
##MINY=10
##NPOINTS=94
##PEAK TABLE=(XY..XY)
26,40 27,110 29,150 39,120
41,691 42,130 43,1231 53,20
54,60 55,1191 56,200 57,1351
58,20 59,140 61,50 65,20
67,180 68,60 69,1141 70,140
71,821 73,360 74,20 75,1461
76,70 77,190 78,40 79,40
81,170 82,70 83,1091 84,100
85,540 89,170 91,280 93,20
95,140 96,30 97,871 98,60
99,40 101,60 103,110 104,20
105,40 107,20 109,40 111,370
115,120 117,40 118,30 119,20
121,500 122,10 125,60 129,30
135,190 136,150 137,40 149,280
151,841 152,70 153,80 161,370
162,40 163,721 164,70 165,150
167,60 169,180 175,140 177,3873
178,661 179,2242 180,270 181,1301
182,120 191,2522 192,1101 193,791
194,100 195,721 196,80 197,350
209,951 210,591 211,80 419,621
420,180 421,20 434,9999 435,3313
436,811 437,90
##END=
