##TITLE=Silane, dimethyl(4-phenylphenoxy)heptyloxy-
##JCAMP-DX=4.24
##DATA TYPE=MASS SPECTRUM
##ORIGIN=V.G. Zaikin, R.S.Borisov, TIPS RAS, Moscow, Russia
##OWNER=NIST Mass Spectrometry Data Center
Collection (C) 2014 copyright by the U.S. Secretary of Commerce
on behalf of the United States of America. All rights reserved.
##$NIST MASS SPEC NO=347490
##MOLFORM=C21 H30 O2 Si
##MW=342
##$NIST SOURCE=MSDC
##XUNITS=M/Z
##YUNITS=RELATIVE INTENSITY
##XFACTOR=1
##YFACTOR=1
##FIRSTX=27
##LASTX=345
##FIRSTY=20
##MAXX=345
##MINX=27
##MAXY=9999
##MINY=20
##NPOINTS=76
##PEAK TABLE=(XY..XY)
27,20 29,40 39,20 41,120
42,20 43,140 45,20 47,20
55,310 56,50 57,70 59,60
61,20 69,70 70,20 75,641
76,50 77,120 83,200 85,30
89,80 97,110 98,20 99,30
101,40 113,460 114,130 115,100
127,20 139,30 141,100 151,60
152,310 153,130 154,140 155,20
165,130 166,40 167,180 168,30
169,70 170,80 171,30 173,50
181,20 183,50 197,70 211,1361
212,270 213,320 214,50 225,50
226,20 227,1511 228,410 229,1882
230,390 231,110 237,30 239,20
241,70 242,20 243,60 244,571
245,120 246,30 255,20 257,110
258,20 270,30 327,150 328,40
342,9999 343,2712 344,751 345,120
##END=
