##TITLE=Silane, dimethyl(4-(2-phenylprop-2-yl)phenoxy)butoxy-
##JCAMP-DX=4.24
##DATA TYPE=MASS SPECTRUM
##ORIGIN=V.G. Zaikin, R.S.Borisov, TIPS RAS, Moscow, Russia
##OWNER=NIST Mass Spectrometry Data Center
Collection (C) 2014 copyright by the U.S. Secretary of Commerce
on behalf of the United States of America. All rights reserved.
##$NIST MASS SPEC NO=347188
##MOLFORM=C21 H30 O2 Si
##MW=342
##$NIST SOURCE=MSDC
##XUNITS=M/Z
##YUNITS=RELATIVE INTENSITY
##XFACTOR=1
##YFACTOR=1
##FIRSTX=41
##LASTX=344
##FIRSTY=20
##MAXX=344
##MINX=41
##MAXY=9999
##MINY=20
##NPOINTS=43
##PEAK TABLE=(XY..XY)
41,20 75,360 76,20 77,30
88,50 89,40 91,170 103,120
115,20 119,470 120,40 127,530
128,150 131,60 135,20 142,40
151,30 152,20 165,60 177,20
178,70 179,60 181,30 197,100
212,20 237,20 239,40 253,80
255,70 265,350 266,70 267,20
269,30 271,40 325,30 326,20
327,9999 328,2783 329,711 330,100
342,2032 343,520 344,140
##END=
