##TITLE=Silane, dimethyl(4-phenylphenoxy)tridecyloxy-
##JCAMP-DX=4.24
##DATA TYPE=MASS SPECTRUM
##ORIGIN=V.G. Zaikin, R.S.Borisov, TIPS RAS, Moscow, Russia
##OWNER=NIST Mass Spectrometry Data Center
Collection (C) 2014 copyright by the U.S. Secretary of Commerce
on behalf of the United States of America. All rights reserved.
##$NIST MASS SPEC NO=347495
##MOLFORM=C27 H42 O2 Si
##MW=426
##$NIST SOURCE=MSDC
##XUNITS=M/Z
##YUNITS=RELATIVE INTENSITY
##XFACTOR=1
##YFACTOR=1
##FIRSTX=29
##LASTX=429
##FIRSTY=20
##MAXX=429
##MINX=29
##MAXY=9999
##MINY=20
##NPOINTS=56
##PEAK TABLE=(XY..XY)
29,20 41,90 43,130 55,160
56,20 57,50 59,30 69,150
75,350 76,20 83,100 89,20
97,60 101,20 111,20 113,140
114,30 115,40 141,40 152,100
153,50 154,80 165,50 167,110
169,30 170,60 183,20 197,40
211,781 212,150 213,140 214,20
225,50 227,1141 228,280 229,781
230,150 231,40 239,20 241,40
243,40 244,460 245,100 246,20
255,20 257,80 258,20 270,30
411,60 412,20 424,40 425,20
426,9999 427,3313 428,931 429,160
##END=
