##TITLE=Silane, dimethyl(4-methylpent-2-yloxy)isobutoxy-
##JCAMP-DX=4.24
##DATA TYPE=MASS SPECTRUM
##ORIGIN=V.G. Zaikin, R.S.Borisov, TIPS RAS, Moscow, Russia
##OWNER=NIST Mass Spectrometry Data Center
Collection (C) 2014 copyright by the U.S. Secretary of Commerce
on behalf of the United States of America. All rights reserved.
##$NIST MASS SPEC NO=347595
##MOLFORM=C12 H28 O2 Si
##MW=232
##$NIST SOURCE=MSDC
##XUNITS=M/Z
##YUNITS=RELATIVE INTENSITY
##XFACTOR=1
##YFACTOR=1
##FIRSTX=27
##LASTX=231
##FIRSTY=130
##MAXX=231
##MINX=27
##MAXY=9999
##MINY=10
##NPOINTS=77
##PEAK TABLE=(XY..XY)
27,130 29,160 39,180 40,20
41,581 42,90 43,540 44,20
45,310 47,250 53,20 55,210
56,90 57,300 58,280 59,430
60,100 61,320 63,100 67,20
69,290 71,60 72,20 73,40
74,150 75,6316 76,480 77,3213
78,180 79,120 83,100 84,120
85,50 87,100 88,230 89,781
90,110 91,100 93,40 99,50
101,240 102,100 103,1651 104,190
105,290 113,20 115,150 117,540
118,30 119,440 120,40 129,50
131,3803 132,410 133,1952 134,170
135,40 143,40 145,180 146,40
147,140 159,480 160,70 161,530
162,60 173,20 174,10 175,9999
176,1311 177,440 188,20 189,1581
190,220 217,1872 218,290 219,60
231,60
##END=
