##TITLE=Silane, dimethyl(2-propylphenoxy)butoxy-
##JCAMP-DX=4.24
##DATA TYPE=MASS SPECTRUM
##ORIGIN=V.G. Zaikin, R.S.Borisov, TIPS RAS, Moscow, Russia
##OWNER=NIST Mass Spectrometry Data Center
Collection (C) 2014 copyright by the U.S. Secretary of Commerce
on behalf of the United States of America. All rights reserved.
##$NIST MASS SPEC NO=347414
##MOLFORM=C15 H26 O2 Si
##MW=266
##$NIST SOURCE=MSDC
##XUNITS=M/Z
##YUNITS=RELATIVE INTENSITY
##XFACTOR=1
##YFACTOR=1
##FIRSTX=27
##LASTX=269
##FIRSTY=90
##MAXX=269
##MINX=27
##MAXY=9999
##MINY=10
##NPOINTS=110
##PEAK TABLE=(XY..XY)
27,90 29,200 39,90 41,310
43,170 45,140 47,140 51,30
55,150 56,20 57,310 58,30
59,530 60,30 61,200 63,30
65,60 73,40 74,60 75,2412
76,180 77,380 78,80 79,60
81,20 82,480 83,20 85,20
87,20 89,300 90,60 91,1171
92,80 95,20 97,70 101,30
102,20 103,100 104,50 105,140
107,160 115,290 116,50 117,90
118,20 119,40 121,110 123,20
129,40 131,500 132,40 133,190
134,50 135,911 136,120 137,220
147,370 148,170 149,1922 150,270
151,931 152,100 153,170 161,601
162,90 163,2482 164,510 165,9999
166,1541 167,791 168,70 175,450
176,540 177,2192 178,410 179,601
180,70 181,801 182,110 183,120
189,30 191,3033 192,2462 193,1231
194,240 195,1061 196,150 197,30
207,80 209,300 210,220 211,30
219,170 220,20 221,80 223,561
224,100 225,30 233,20 237,3733
238,751 239,190 251,1682 252,340
253,80 265,10 266,8978 267,2042
268,540 269,60
##END=
