##TITLE=Silane, dimethyl(3-methylbut-2-enyloxy)pentadecyloxy-
##JCAMP-DX=4.24
##DATA TYPE=MASS SPECTRUM
##ORIGIN=V.G. Zaikin, R.S.Borisov, TIPS RAS, Moscow, Russia
##OWNER=NIST Mass Spectrometry Data Center
Collection (C) 2014 copyright by the U.S. Secretary of Commerce
on behalf of the United States of America. All rights reserved.
##$NIST MASS SPEC NO=347974
##MOLFORM=C22 H46 O2 Si
##MW=370
##$NIST SOURCE=MSDC
##XUNITS=M/Z
##YUNITS=RELATIVE INTENSITY
##XFACTOR=1
##YFACTOR=1
##FIRSTX=26
##LASTX=372
##FIRSTY=30
##MAXX=372
##MINX=26
##MAXY=9999
##MINY=20
##NPOINTS=149
##PEAK TABLE=(XY..XY)
26,30 27,130 29,250 39,180
40,30 41,1141 42,200 43,1341
45,90 47,70 53,160 54,140
55,1311 56,240 57,1141 58,70
59,210 60,30 61,280 63,80
65,20 66,30 67,550 68,1411
69,2692 70,330 71,831 73,120
74,70 75,6306 76,470 77,2652
78,150 79,140 80,30 81,821
82,490 83,1321 84,110 85,410
86,60 87,80 89,821 90,90
91,420 92,30 93,200 94,20
95,420 96,340 97,1131 98,100
99,140 101,470 103,280 105,781
106,50 107,70 109,240 110,110
111,450 112,50 113,220 114,30
115,300 116,40 117,470 118,40
119,120 121,20 123,110 124,70
125,140 126,20 127,280 128,70
129,1171 130,130 131,460 132,40
133,50 137,40 138,60 141,250
142,90 143,430 144,70 145,1111
146,110 147,611 148,60 149,130
151,30 152,20 155,30 157,160
158,30 159,5575 160,761 161,270
163,170 166,20 171,120 172,20
173,1201 174,150 175,140 180,20
185,80 187,50 199,40 201,691
202,90 203,30 208,130 213,20
215,60 223,20 227,20 243,30
257,150 258,20 267,20 269,100
271,40 281,30 283,20 285,911
286,190 287,891 288,170 289,30
299,110 301,150 302,20 313,1261
314,270 315,250 316,40 327,110
328,20 355,9999 356,2823 357,661
358,100 369,90 370,591 371,180
372,30
##END=
