##TITLE=Silane, dimethyl(3-methylphenoxy)propoxy-
##JCAMP-DX=4.24
##DATA TYPE=MASS SPECTRUM
##ORIGIN=V.G. Zaikin, R.S.Borisov, TIPS RAS, Moscow, Russia
##OWNER=NIST Mass Spectrometry Data Center
Collection (C) 2014 copyright by the U.S. Secretary of Commerce
on behalf of the United States of America. All rights reserved.
##$NIST MASS SPEC NO=347335
##MOLFORM=C12 H20 O2 Si
##MW=224
##$NIST SOURCE=MSDC
##XUNITS=M/Z
##YUNITS=RELATIVE INTENSITY
##XFACTOR=1
##YFACTOR=1
##FIRSTX=27
##LASTX=227
##FIRSTY=60
##MAXX=227
##MINX=27
##MAXY=9999
##MINY=20
##NPOINTS=92
##PEAK TABLE=(XY..XY)
27,60 29,20 39,100 41,100
43,110 45,220 47,130 51,50
52,20 53,20 58,60 59,270
60,20 61,130 63,70 65,310
67,50 68,90 74,60 75,1752
76,110 77,460 78,90 79,190
80,20 81,50 82,1391 83,220
85,40 89,160 90,100 91,1591
92,130 95,50 97,310 98,40
99,50 101,40 103,90 104,40
105,801 106,60 107,140 108,40
109,120 111,20 117,410 118,20
119,40 121,60 123,20 135,480
136,60 137,100 139,20 145,20
147,70 148,60 149,1011 150,160
151,861 152,130 153,20 161,30
163,160 164,60 165,5015 166,861
167,9999 168,1381 169,420 170,20
175,30 177,30 179,150 180,20
181,50 182,480 183,50 189,40
193,50 195,1631 196,240 197,60
209,7126 210,1191 211,320 223,50
224,7767 225,1371 226,350 227,20
##END=
