##TITLE=Silane, dimethyl(2,3-dimethylphenoxy)heptyloxy-
##JCAMP-DX=4.24
##DATA TYPE=MASS SPECTRUM
##ORIGIN=V.G. Zaikin, R.S.Borisov, TIPS RAS, Moscow, Russia
##OWNER=NIST Mass Spectrometry Data Center
Collection (C) 2014 copyright by the U.S. Secretary of Commerce
on behalf of the United States of America. All rights reserved.
##$NIST MASS SPEC NO=347445
##MOLFORM=C17 H30 O2 Si
##MW=294
##$NIST SOURCE=MSDC
##XUNITS=M/Z
##YUNITS=RELATIVE INTENSITY
##XFACTOR=1
##YFACTOR=1
##FIRSTX=27
##LASTX=297
##FIRSTY=110
##MAXX=297
##MINX=27
##MAXY=9999
##MINY=20
##NPOINTS=108
##PEAK TABLE=(XY..XY)
27,110 29,190 39,100 41,400
42,60 43,320 45,90 47,90
51,20 53,40 55,891 56,90
57,250 58,50 59,270 60,20
61,110 63,20 65,40 67,20
69,160 70,60 74,30 75,1872
76,140 77,440 78,80 79,160
81,50 82,210 83,30 85,20
87,50 88,30 89,360 90,50
91,240 92,20 93,20 97,350
98,30 99,70 101,110 102,30
103,200 104,90 105,2722 106,260
107,60 115,110 117,50 119,280
120,30 121,140 122,60 129,20
131,20 135,100 137,30 145,50
147,120 148,100 149,530 150,80
151,150 157,30 161,190 162,200
163,2422 164,470 165,641 166,110
167,40 173,250 174,30 175,90
176,20 177,641 178,3773 179,3583
180,781 181,3023 182,480 183,230
184,20 189,50 191,80 193,300
194,70 195,2112 196,2052 197,440
198,100 205,30 207,30 209,1021
210,170 211,50 219,20 223,30
279,1601 280,380 281,90 293,20
294,9999 295,2482 296,661 297,80
##END=
