##TITLE=Silane, dimethyl(oct-3-en-2-yloxy)pentyloxy-
##JCAMP-DX=4.24
##DATA TYPE=MASS SPECTRUM
##ORIGIN=V.G. Zaikin, R.S.Borisov, TIPS RAS, Moscow, Russia
##OWNER=NIST Mass Spectrometry Data Center
Collection (C) 2014 copyright by the U.S. Secretary of Commerce
on behalf of the United States of America. All rights reserved.
##$NIST MASS SPEC NO=347932
##MOLFORM=C15 H32 O2 Si
##MW=272
##$NIST SOURCE=MSDC
##XUNITS=M/Z
##YUNITS=RELATIVE INTENSITY
##XFACTOR=1
##YFACTOR=1
##FIRSTX=27
##LASTX=274
##FIRSTY=110
##MAXX=274
##MINX=27
##MAXY=9999
##MINY=20
##NPOINTS=108
##PEAK TABLE=(XY..XY)
27,110 29,130 39,120 41,460
42,70 43,100 45,120 47,160
53,110 54,50 55,320 56,30
57,150 58,50 59,290 60,50
61,220 62,20 63,70 65,20
66,20 67,250 68,170 69,520
70,20 74,70 75,6015 76,460
77,2442 78,140 79,120 81,200
85,30 87,70 88,50 89,460
90,70 91,210 95,160 99,180
101,310 102,50 103,450 104,30
105,290 109,80 110,70 113,230
114,40 115,300 116,50 117,90
123,50 125,40 126,40 127,300
128,140 129,1441 130,180 131,330
132,70 133,20 141,130 142,50
143,540 144,160 145,6716 146,921
147,2692 148,310 149,50 155,20
157,120 158,20 159,861 160,130
161,80 169,20 171,751 172,110
173,741 174,90 184,50 185,140
187,591 188,80 189,200 190,20
199,40 201,360 202,961 213,50
215,9999 216,1922 217,500 218,50
229,1682 230,380 231,80 243,290
244,50 257,3153 258,621 259,150
271,110 272,781 273,170 274,30
##END=
