##TITLE=Silane, dimethyl(2-methoxyethoxy)butoxy-
##JCAMP-DX=4.24
##DATA TYPE=MASS SPECTRUM
##ORIGIN=V.G. Zaikin, R.S.Borisov, TIPS RAS, Moscow, Russia
##OWNER=NIST Mass Spectrometry Data Center
Collection (C) 2014 copyright by the U.S. Secretary of Commerce
on behalf of the United States of America. All rights reserved.
##$NIST MASS SPEC NO=347842
##MOLFORM=C9 H22 O3 Si
##MW=206
##$NIST SOURCE=MSDC
##XUNITS=M/Z
##YUNITS=RELATIVE INTENSITY
##XFACTOR=1
##YFACTOR=1
##FIRSTX=27
##LASTX=195
##FIRSTY=70
##MAXX=195
##MINX=27
##MAXY=9999
##MINY=20
##NPOINTS=70
##PEAK TABLE=(XY..XY)
27,70 28,70 29,180 31,30
39,50 41,180 42,20 43,170
44,20 45,460 47,170 55,110
56,50 57,40 58,490 59,721
60,150 61,681 62,20 63,30
75,3103 76,250 77,651 87,110
88,250 89,5435 90,490 91,5785
92,420 93,220 99,20 101,160
102,30 103,601 104,70 105,641
106,30 107,50 115,200 116,20
117,671 118,60 119,1391 120,110
121,70 131,3773 132,681 133,6526
134,721 135,460 136,20 145,50
147,4104 148,470 149,991 150,110
151,60 159,180 161,2833 162,200
163,250 174,30 175,30 177,711
178,90 191,9999 192,1411 193,1001
194,110 195,30
##END=
