##TITLE=Malonic acid, butyl 3,3-dimethylbut-2-yl ester
##JCAMP-DX=4.24
##DATA TYPE=MASS SPECTRUM
##ORIGIN=V.G. Zaikin, R.S.Borisov, TIPS RAS, Moscow, Russia
##OWNER=NIST Mass Spectrometry Data Center
Collection (C) 2014 copyright by the U.S. Secretary of Commerce
on behalf of the United States of America. All rights reserved.
##$NIST MASS SPEC NO=347204
##MOLFORM=C13 H24 O4
##MW=244
##$NIST SOURCE=MSDC
##XUNITS=M/Z
##YUNITS=RELATIVE INTENSITY
##XFACTOR=1
##YFACTOR=1
##FIRSTX=26
##LASTX=229
##FIRSTY=60
##MAXX=229
##MINX=26
##MAXY=9999
##MINY=20
##NPOINTS=62
##PEAK TABLE=(XY..XY)
26,60 27,621 29,1802 30,30
39,510 40,60 41,3263 42,1081
43,3313 45,40 53,130 54,50
55,701 56,3503 57,9358 58,330
60,1041 61,440 67,80 68,40
69,2162 70,190 71,170 72,60
73,50 83,691 84,1742 85,7607
86,631 87,4614 88,150 89,100
99,20 100,90 101,2823 102,150
104,510 105,1611 106,50 113,50
114,40 115,240 116,1902 117,160
125,180 132,601 133,811 134,40
143,9999 144,741 145,200 159,20
160,130 161,390 162,20 171,50
172,120 187,80 188,1782 189,691
190,70 229,120
##END=
