##TITLE=D-Alanine, N-(4-anisoyl)-, hexyl ester
##JCAMP-DX=4.24
##DATA TYPE=MASS SPECTRUM
##ORIGIN=V.G. Zaikin, R.S.Borisov, TIPS RAS, Moscow, Russia
##OWNER=NIST Mass Spectrometry Data Center
Collection (C) 2014 copyright by the U.S. Secretary of Commerce
on behalf of the United States of America. All rights reserved.
##$NIST MASS SPEC NO=348491
##MOLFORM=C17 H25 N O4
##MW=307
##$NIST SOURCE=MSDC
##XUNITS=M/Z
##YUNITS=RELATIVE INTENSITY
##XFACTOR=1
##YFACTOR=1
##FIRSTX=27
##LASTX=307
##FIRSTY=40
##MAXX=307
##MINX=27
##MAXY=9999
##MINY=20
##NPOINTS=34
##PEAK TABLE=(XY..XY)
27,40 28,20 29,50 39,30
41,90 42,50 43,150 44,100
51,50 55,30 56,20 63,30
64,50 65,20 76,40 77,641
78,70 79,30 92,270 93,20
105,70 120,80 121,90 133,20
134,40 135,9999 136,881 137,60
174,30 178,2953 179,350 180,30
206,60 307,50
##END=
