##TITLE=Fumaric acid, 2-hexyl isobutyl ester
##JCAMP-DX=4.24
##DATA TYPE=MASS SPECTRUM
##ORIGIN=L.N.Kulikova, V.G. Zaikin, RPFU, Moscow, Russia
##OWNER=NIST Mass Spectrometry Data Center
Collection (C) 2014 copyright by the U.S. Secretary of Commerce
on behalf of the United States of America. All rights reserved.
##$NIST MASS SPEC NO=348741
##MOLFORM=C14 H24 O4
##MW=256
##$NIST SOURCE=MSDC
##XUNITS=M/Z
##YUNITS=RELATIVE INTENSITY
##XFACTOR=1
##YFACTOR=1
##FIRSTX=26
##LASTX=241
##FIRSTY=140
##MAXX=241
##MINX=26
##MAXY=9999
##MINY=10
##NPOINTS=70
##PEAK TABLE=(XY..XY)
26,140 27,540 29,641 30,40
31,20 39,260 40,50 41,1131
42,581 43,1581 44,40 45,90
53,190 54,561 55,1401 56,1631
57,2532 58,130 59,20 67,40
68,20 69,470 70,40 71,120
72,80 73,40 81,410 82,981
83,130 84,2072 85,861 86,50
95,10 97,50 99,4114 100,2082
101,220 109,70 110,40 111,360
112,40 113,20 114,100 115,80
117,1842 118,90 119,20 125,20
126,30 127,50 128,20 137,30
138,150 139,30 140,20 142,30
154,70 155,9999 156,1181 157,160
170,40 171,20 173,500 174,50
182,20 183,2622 184,300 185,30
201,90 241,20
##END=
