##TITLE=Fumaric acid, hexyl 2-methylpent-3-yl ester
##JCAMP-DX=4.24
##DATA TYPE=MASS SPECTRUM
##ORIGIN=L.N.Kulikova, V.G. Zaikin, RPFU, Moscow, Russia
##OWNER=NIST Mass Spectrometry Data Center
Collection (C) 2014 copyright by the U.S. Secretary of Commerce
on behalf of the United States of America. All rights reserved.
##$NIST MASS SPEC NO=348763
##MOLFORM=C16 H28 O4
##MW=284
##$NIST SOURCE=MSDC
##XUNITS=M/Z
##YUNITS=RELATIVE INTENSITY
##XFACTOR=1
##YFACTOR=1
##FIRSTX=26
##LASTX=255
##FIRSTY=120
##MAXX=255
##MINX=26
##MAXY=9999
##MINY=10
##NPOINTS=59
##PEAK TABLE=(XY..XY)
26,120 27,440 29,380 39,200
40,30 41,921 42,250 43,2052
44,50 45,50 53,160 54,490
55,1211 56,490 57,270 58,20
59,70 67,70 68,30 69,961
71,100 72,50 81,250 82,841
83,280 84,2082 85,1892 86,130
97,70 98,20 99,1802 100,1692
101,230 102,10 109,30 112,110
114,90 115,20 117,270 118,30
128,30 129,20 137,20 141,20
142,290 143,110 154,30 155,90
157,40 182,30 183,9999 184,1351
185,130 201,190 202,20 213,20
227,40 228,20 255,70
##END=
