##TITLE=Fumaric acid, 3-methylbut-2-yl propyl ester
##JCAMP-DX=4.24
##DATA TYPE=MASS SPECTRUM
##ORIGIN=V.G. Zaikin, R.S.Borisov, TIPS RAS, Moscow, Russia
##OWNER=NIST Mass Spectrometry Data Center
Collection (C) 2014 copyright by the U.S. Secretary of Commerce
on behalf of the United States of America. All rights reserved.
##$NIST MASS SPEC NO=348075
##MOLFORM=C12 H20 O4
##MW=228
##$NIST SOURCE=MSDC
##XUNITS=M/Z
##YUNITS=RELATIVE INTENSITY
##XFACTOR=1
##YFACTOR=1
##FIRSTX=26
##LASTX=213
##FIRSTY=140
##MAXX=213
##MINX=26
##MAXY=9999
##MINY=20
##NPOINTS=47
##PEAK TABLE=(XY..XY)
26,140 27,440 29,150 31,20
39,180 40,30 41,520 42,250
43,1201 44,50 45,240 53,170
54,450 55,921 56,40 59,40
67,20 69,60 70,2122 71,851
72,90 73,40 81,290 82,601
87,110 95,20 97,100 99,2582
100,1331 101,70 112,20 113,60
114,70 117,270 123,20 140,20
141,9999 142,1441 143,170 155,80
159,60 169,1381 170,140 184,20
185,30 187,90 213,30
##END=
