##TITLE=Fumaric acid, isobutyl myrtenyl ester
##JCAMP-DX=4.24
##DATA TYPE=MASS SPECTRUM
##ORIGIN=L.N.Kulikova, V.G. Zaikin, RPFU, Moscow, Russia
##OWNER=NIST Mass Spectrometry Data Center
Collection (C) 2014 copyright by the U.S. Secretary of Commerce
on behalf of the United States of America. All rights reserved.
##$NIST MASS SPEC NO=348811
##MOLFORM=C18 H26 O4
##MW=306
##$NIST SOURCE=MSDC
##XUNITS=M/Z
##YUNITS=RELATIVE INTENSITY
##XFACTOR=1
##YFACTOR=1
##FIRSTX=26
##LASTX=233
##FIRSTY=50
##MAXX=233
##MINX=26
##MAXY=9999
##MINY=20
##NPOINTS=99
##PEAK TABLE=(XY..XY)
26,50 27,150 28,20 29,50
36,20 39,190 40,40 41,751
42,60 43,530 44,80 45,30
51,70 52,50 53,300 54,200
55,550 56,300 57,1171 58,50
63,30 65,210 66,70 67,270
68,160 69,280 70,20 71,90
72,50 73,30 77,681 78,430
79,1211 80,180 81,350 82,320
83,60 85,50 89,20 90,20
91,9999 92,3703 93,1351 94,140
95,110 96,30 97,30 99,2082
100,1221 101,90 102,20 103,100
104,90 105,1011 106,490 107,500
108,100 109,160 110,20 111,20
115,100 116,40 117,540 118,100
119,4404 120,450 121,320 122,30
123,20 127,30 128,20 129,20
131,50 132,40 133,340 134,2272
135,520 136,80 137,20 144,20
145,70 147,40 149,50 151,70
152,50 155,891 156,190 157,40
159,60 161,170 162,110 163,40
173,60 177,40 187,30 188,20
191,20 205,70 233,70
##END=
