##TITLE=Malonic acid, butyl 3-methylbutyl ester
##JCAMP-DX=4.24
##DATA TYPE=MASS SPECTRUM
##ORIGIN=L.N.Kulikova, V.G. Zaikin, RPFU, Moscow, Russia
##OWNER=NIST Mass Spectrometry Data Center
Collection (C) 2014 copyright by the U.S. Secretary of Commerce
on behalf of the United States of America. All rights reserved.
##$NIST MASS SPEC NO=348979
##MOLFORM=C12 H22 O4
##MW=230
##$NIST SOURCE=MSDC
##XUNITS=M/Z
##YUNITS=RELATIVE INTENSITY
##XFACTOR=1
##YFACTOR=1
##FIRSTX=26
##LASTX=201
##FIRSTY=60
##MAXX=201
##MINX=26
##MAXY=9999
##MINY=20
##NPOINTS=63
##PEAK TABLE=(XY..XY)
26,60 27,661 28,571 29,1431
30,80 31,100 39,460 40,60
41,2222 42,1301 43,3113 44,390
45,120 46,20 53,100 54,40
55,2442 56,1792 57,2953 58,110
60,400 61,150 70,6666 71,8327
72,510 73,180 85,20 86,120
87,3053 88,110 89,110 90,20
99,40 100,50 101,90 103,60
104,80 105,9999 106,350 107,70
113,120 114,80 115,100 116,80
117,60 118,90 129,20 131,220
132,240 133,150 141,40 143,1501
144,100 157,1842 158,170 159,120
160,20 161,881 162,50 175,230
187,490 188,50 201,30
##END=
