##TITLE=Fumaric acid, 3-heptyl undecyl ester
##JCAMP-DX=4.24
##DATA TYPE=MASS SPECTRUM
##ORIGIN=V.G. Zaikin, R.S.Borisov, TIPS RAS, Moscow, Russia
##OWNER=NIST Mass Spectrometry Data Center
Collection (C) 2014 copyright by the U.S. Secretary of Commerce
on behalf of the United States of America. All rights reserved.
##$NIST MASS SPEC NO=348688
##MOLFORM=C22 H40 O4
##MW=368
##$NIST SOURCE=MSDC
##XUNITS=M/Z
##YUNITS=RELATIVE INTENSITY
##XFACTOR=1
##YFACTOR=1
##FIRSTX=25
##LASTX=339
##FIRSTY=30
##MAXX=339
##MINX=25
##MAXY=9999
##MINY=20
##NPOINTS=147
##PEAK TABLE=(XY..XY)
25,30 26,310 27,1111 29,1802
30,40 31,60 39,681 40,140
41,4184 42,1051 43,5135 45,100
53,510 54,1341 55,7277 56,4234
57,9278 58,470 59,140 65,40
66,60 67,751 68,881 69,6836
70,3063 71,3053 72,290 73,100
77,20 79,20 80,50 81,1091
82,2923 83,5955 84,1161 85,2112
86,150 87,20 91,40 93,60
94,50 95,410 96,520 97,6105
98,6206 99,5695 100,6726 101,1221
102,100 107,30 108,40 109,240
110,350 111,2182 112,410 113,450
114,90 115,370 116,140 117,3303
118,1301 119,330 120,20 121,30
122,40 123,160 124,250 125,200
126,330 127,200 128,200 129,150
130,60 136,50 137,90 138,300
139,290 140,170 141,190 142,50
143,40 145,30 150,80 151,140
152,480 153,350 154,460 155,1271
156,250 157,711 158,90 164,20
165,30 166,70 167,100 168,210
169,430 170,110 171,971 172,140
173,20 178,60 179,40 180,30
181,100 182,120 183,60 184,40
185,30 192,30 193,30 195,110
196,200 197,1231 198,230 199,70
206,30 209,60 210,60 211,170
212,20 213,30 215,1061 216,130
223,80 224,180 225,130 226,30
234,90 235,20 241,20 252,400
253,9999 254,2162 255,330 256,30
268,40 269,30 270,140 271,891
272,160 273,20 283,80 284,70
310,40 311,60 339,20
##END=
