##TITLE=Fumaric acid, 2-ethylbutyl isobutyl ester
##JCAMP-DX=4.24
##DATA TYPE=MASS SPECTRUM
##ORIGIN=V.G. Zaikin, R.S.Borisov, TIPS RAS, Moscow, Russia
##OWNER=NIST Mass Spectrometry Data Center
Collection (C) 2014 copyright by the U.S. Secretary of Commerce
on behalf of the United States of America. All rights reserved.
##$NIST MASS SPEC NO=348293
##MOLFORM=C14 H24 O4
##MW=256
##$NIST SOURCE=MSDC
##XUNITS=M/Z
##YUNITS=RELATIVE INTENSITY
##XFACTOR=1
##YFACTOR=1
##FIRSTX=26
##LASTX=241
##FIRSTY=110
##MAXX=241
##MINX=26
##MAXY=9999
##MINY=20
##NPOINTS=79
##PEAK TABLE=(XY..XY)
26,110 27,470 29,721 30,60
31,50 37,20 39,490 40,90
41,2192 42,761 43,4094 44,220
45,100 51,20 53,410 54,1191
55,2913 56,3894 57,3523 58,170
59,80 67,110 68,70 69,3323
70,370 71,460 72,230 73,90
79,20 81,711 82,1902 83,390
84,9999 85,3733 86,290 95,30
96,20 97,120 98,30 99,6266
100,4984 101,390 102,40 109,170
110,30 111,60 112,60 113,90
114,80 117,2342 118,150 119,30
123,20 125,80 126,80 127,220
128,60 131,140 137,90 140,20
141,100 142,100 153,20 154,130
155,6636 156,1091 157,130 164,20
172,20 173,330 174,20 182,50
183,6816 184,801 185,100 201,280
202,30 227,80 241,70
##END=
