##TITLE=Fumaric acid, pentyl 4-phenylphenyl ester
##JCAMP-DX=4.24
##DATA TYPE=MASS SPECTRUM
##ORIGIN=V.G. Zaikin, R.S.Borisov, TIPS RAS, Moscow, Russia
##OWNER=NIST Mass Spectrometry Data Center
Collection (C) 2014 copyright by the U.S. Secretary of Commerce
on behalf of the United States of America. All rights reserved.
##$NIST MASS SPEC NO=348210
##MOLFORM=C21 H22 O4
##MW=338
##$NIST SOURCE=MSDC
##XUNITS=M/Z
##YUNITS=RELATIVE INTENSITY
##XFACTOR=1
##YFACTOR=1
##FIRSTX=26
##LASTX=340
##FIRSTY=40
##MAXX=340
##MINX=26
##MAXY=9999
##MINY=20
##NPOINTS=65
##PEAK TABLE=(XY..XY)
26,40 27,100 29,100 39,60
41,170 42,60 43,741 44,30
51,20 53,90 54,160 55,310
63,60 65,30 69,110 70,30
71,2813 72,160 75,20 76,30
77,30 81,210 82,230 83,40
88,20 89,60 91,30 99,1782
100,100 101,40 102,40 113,30
114,30 115,661 116,70 126,20
127,30 139,280 140,70 141,801
142,120 151,50 152,200 153,100
154,30 165,40 167,50 168,30
169,1321 170,9999 171,1301 172,90
178,40 179,30 181,20 223,290
224,60 240,150 241,20 251,330
252,70 268,40 338,1081 339,250
340,30
##END=
