##TITLE=Fumaric acid, hexadecyl 4-methylpent-2-yl ester
##JCAMP-DX=4.24
##DATA TYPE=MASS SPECTRUM
##ORIGIN=V.G. Zaikin, R.S.Borisov, TIPS RAS, Moscow, Russia
##OWNER=NIST Mass Spectrometry Data Center
Collection (C) 2014 copyright by the U.S. Secretary of Commerce
on behalf of the United States of America. All rights reserved.
##$NIST MASS SPEC NO=348330
##MOLFORM=C26 H48 O4
##MW=424
##$NIST SOURCE=MSDC
##XUNITS=M/Z
##YUNITS=RELATIVE INTENSITY
##XFACTOR=1
##YFACTOR=1
##FIRSTX=26
##LASTX=410
##FIRSTY=80
##MAXX=410
##MINX=26
##MAXY=9999
##MINY=10
##NPOINTS=222
##PEAK TABLE=(XY..XY)
26,80 27,240 28,120 29,320
31,20 37,20 39,250 40,70
41,1752 42,460 43,3583 44,500
45,100 50,30 52,40 53,220
54,480 55,3083 56,1331 57,3233
58,180 59,40 64,20 65,40
66,40 67,691 68,661 69,5305
70,1191 71,1992 72,120 73,90
77,40 78,40 80,60 81,681
82,1211 83,4154 84,6806 85,9999
86,671 87,20 91,50 92,40
93,70 94,50 95,550 96,751
97,3673 98,651 99,2762 100,4114
101,1001 102,80 104,40 105,80
107,50 108,60 109,370 110,430
111,2382 112,490 113,360 114,70
115,40 116,70 117,1862 118,1371
119,801 120,40 121,80 122,50
123,350 124,320 125,1041 126,270
127,300 128,60 129,50 130,20
131,20 132,20 133,40 135,70
136,90 137,290 138,310 139,420
140,270 141,390 142,90 143,90
145,20 149,80 150,60 151,140
152,210 153,460 154,320 155,290
156,120 157,520 158,100 159,60
160,30 161,50 163,40 164,50
165,130 166,180 167,260 168,190
169,150 170,50 171,651 172,120
173,20 178,50 179,90 180,120
181,180 182,230 183,991 184,240
185,50 186,20 187,30 189,20
191,30 192,30 193,40 194,120
195,160 196,160 197,190 198,20
199,60 201,1091 202,140 203,30
206,50 208,30 209,120 210,140
211,150 212,70 213,40 214,30
217,20 220,30 221,70 222,571
223,300 224,220 225,410 226,120
227,60 229,20 230,10 231,40
232,20 233,40 234,10 235,30
236,30 237,210 238,200 239,240
240,60 241,140 242,30 243,30
247,20 249,20 251,220 252,240
253,80 254,30 255,70 256,20
259,30 261,20 262,40 263,30
265,240 266,280 267,120 268,50
269,110 275,10 276,30 277,130
278,40 279,170 280,360 281,230
282,70 283,100 293,70 294,270
295,130 296,20 297,40 298,20
304,140 305,160 306,20 311,20
321,30 322,861 323,1872 324,571
325,70 339,50 340,180 341,370
342,70 343,20 365,20 381,80
409,340 410,50
##END=
