##TITLE=Malonic acid, isohexyl 3-methylpentyl ester
##JCAMP-DX=4.24
##DATA TYPE=MASS SPECTRUM
##ORIGIN=V.G. Zaikin, R.S.Borisov, TIPS RAS, Moscow, Russia
##OWNER=NIST Mass Spectrometry Data Center
Collection (C) 2014 copyright by the U.S. Secretary of Commerce
on behalf of the United States of America. All rights reserved.
##$NIST MASS SPEC NO=348675
##MOLFORM=C15 H28 O4
##MW=272
##$NIST SOURCE=MSDC
##XUNITS=M/Z
##YUNITS=RELATIVE INTENSITY
##XFACTOR=1
##YFACTOR=1
##FIRSTX=26
##LASTX=257
##FIRSTY=30
##MAXX=257
##MINX=26
##MAXY=9999
##MINY=20
##NPOINTS=59
##PEAK TABLE=(XY..XY)
26,30 27,370 29,741 30,40
39,260 40,50 41,1361 42,691
43,4954 45,20 53,110 54,150
55,2112 56,1521 57,1351 59,40
60,90 67,160 68,50 69,2793
70,200 71,230 72,50 82,110
83,360 84,6796 85,9999 86,671
87,661 90,30 99,80 100,60
101,170 104,20 105,4024 106,140
107,30 111,80 113,20 114,40
118,430 119,80 125,20 129,40
131,50 132,360 133,30 141,30
147,60 153,20 159,220 171,591
172,50 189,260 202,80 215,200
216,20 243,130 257,20
##END=
