##TITLE=Malonic acid, isohexyl 3-methylbutyl ester
##JCAMP-DX=4.24
##DATA TYPE=MASS SPECTRUM
##ORIGIN=L.N.Kulikova, V.G. Zaikin, RPFU, Moscow, Russia
##OWNER=NIST Mass Spectrometry Data Center
Collection (C) 2014 copyright by the U.S. Secretary of Commerce
on behalf of the United States of America. All rights reserved.
##$NIST MASS SPEC NO=348980
##MOLFORM=C14 H26 O4
##MW=258
##$NIST SOURCE=MSDC
##XUNITS=M/Z
##YUNITS=RELATIVE INTENSITY
##XFACTOR=1
##YFACTOR=1
##FIRSTX=26
##LASTX=243
##FIRSTY=80
##MAXX=243
##MINX=26
##MAXY=9999
##MINY=20
##NPOINTS=79
##PEAK TABLE=(XY..XY)
26,80 27,851 28,500 29,1251
30,30 31,70 39,550 40,100
41,2472 42,1862 43,9999 44,701
45,70 53,210 54,250 55,3803
56,2392 57,991 58,30 59,120
60,260 61,70 67,140 68,110
69,3633 70,3683 71,9509 72,621
73,30 82,50 83,210 84,8237
85,5325 86,470 87,1331 88,50
89,20 90,120 98,60 99,200
100,130 101,290 104,30 105,6276
106,220 107,50 111,260 112,20
113,40 114,60 115,40 116,20
117,30 118,1341 119,270 125,90
129,30 130,70 131,180 132,530
133,30 141,70 143,40 153,60
157,1742 158,170 159,290 160,20
161,40 171,290 172,30 174,80
175,601 176,40 188,330 189,60
215,280 216,30 243,80
##END=
