##TITLE=Fumaric acid, 3,4-dimethoxyphenyl tridecyl ester
##JCAMP-DX=4.24
##DATA TYPE=MASS SPECTRUM
##ORIGIN=V.G. Zaikin, R.S.Borisov, TIPS RAS, Moscow, Russia
##OWNER=NIST Mass Spectrometry Data Center
Collection (C) 2014 copyright by the U.S. Secretary of Commerce
on behalf of the United States of America. All rights reserved.
##$NIST MASS SPEC NO=348175
##MOLFORM=C25 H38 O6
##MW=434
##$NIST SOURCE=MSDC
##XUNITS=M/Z
##YUNITS=RELATIVE INTENSITY
##XFACTOR=1
##YFACTOR=1
##FIRSTX=26
##LASTX=436
##FIRSTY=30
##MAXX=436
##MINX=26
##MAXY=9999
##MINY=10
##NPOINTS=85
##PEAK TABLE=(XY..XY)
26,30 27,60 29,110 39,60
41,330 42,80 43,581 51,20
53,60 54,110 55,601 56,140
57,881 58,30 65,30 67,80
68,50 69,350 70,100 71,651
72,30 77,20 79,60 80,20
81,90 82,180 83,260 84,50
85,490 86,30 93,50 95,90
96,20 97,180 98,20 99,390
100,70 101,30 107,30 108,20
109,30 110,110 111,150 112,20
113,100 123,40 124,20 125,210
126,20 127,70 137,40 138,70
139,881 140,140 141,40 148,20
151,70 153,420 154,9999 155,1511
156,140 164,20 165,20 176,40
177,10 179,20 183,40 191,40
193,20 206,70 207,150 208,80
235,110 236,90 237,20 252,370
253,70 281,50 336,380 337,90
390,110 391,20 434,1261 435,340
436,50
##END=
