##TITLE=Fumaric acid, isohexyl myrtenyl ester
##JCAMP-DX=4.24
##DATA TYPE=MASS SPECTRUM
##ORIGIN=L.N.Kulikova, V.G. Zaikin, RPFU, Moscow, Russia
##OWNER=NIST Mass Spectrometry Data Center
Collection (C) 2014 copyright by the U.S. Secretary of Commerce
on behalf of the United States of America. All rights reserved.
##$NIST MASS SPEC NO=348814
##MOLFORM=C20 H30 O4
##MW=334
##$NIST SOURCE=MSDC
##XUNITS=M/Z
##YUNITS=RELATIVE INTENSITY
##XFACTOR=1
##YFACTOR=1
##FIRSTX=26
##LASTX=234
##FIRSTY=120
##MAXX=234
##MINX=26
##MAXY=9999
##MINY=10
##NPOINTS=96
##PEAK TABLE=(XY..XY)
26,120 27,370 28,120 29,310
39,310 40,60 41,1081 42,160
43,1982 44,210 45,30 50,20
51,80 52,50 53,320 54,230
55,921 56,260 57,210 59,20
63,20 65,190 66,70 67,270
68,140 69,530 70,60 71,90
72,50 77,591 78,410 79,1211
80,180 81,290 82,330 83,120
84,330 85,1231 86,70 90,20
91,9999 92,3783 93,1311 94,120
95,50 96,20 98,30 99,1591
100,1191 101,80 103,90 104,70
105,921 106,510 107,440 108,110
109,110 110,20 111,10 115,80
116,30 117,420 118,90 119,4284
120,460 121,250 122,30 123,20
126,40 127,20 129,20 131,50
132,50 133,280 134,2632 135,561
136,40 144,90 145,60 147,20
151,60 152,70 155,20 159,40
161,130 162,130 163,20 171,20
183,430 184,60 188,20 189,10
201,30 205,20 233,20 234,30
##END=
