##TITLE=D-Alanine, N-(4-anisoyl)-, butyl ester
##JCAMP-DX=4.24
##DATA TYPE=MASS SPECTRUM
##ORIGIN=V.G. Zaikin, R.S.Borisov, TIPS RAS, Moscow, Russia
##OWNER=NIST Mass Spectrometry Data Center
Collection (C) 2014 copyright by the U.S. Secretary of Commerce
on behalf of the United States of America. All rights reserved.
##$NIST MASS SPEC NO=348488
##MOLFORM=C15 H21 N O4
##MW=279
##$NIST SOURCE=MSDC
##XUNITS=M/Z
##YUNITS=RELATIVE INTENSITY
##XFACTOR=1
##YFACTOR=1
##FIRSTX=27
##LASTX=279
##FIRSTY=40
##MAXX=279
##MINX=27
##MAXY=9999
##MINY=10
##NPOINTS=35
##PEAK TABLE=(XY..XY)
27,40 28,40 29,100 39,40
41,80 42,40 43,10 44,100
50,20 51,70 56,20 57,40
63,40 64,70 65,30 76,60
77,781 78,80 79,40 89,20
92,340 93,30 105,80 120,90
121,90 134,40 135,9999 136,771
137,60 146,50 178,2662 179,310
180,20 206,90 279,30
##END=
