##TITLE=Fumaric acid, dodecyl 3-methylbut-2-yl ester
##JCAMP-DX=4.24
##DATA TYPE=MASS SPECTRUM
##ORIGIN=V.G. Zaikin, R.S.Borisov, TIPS RAS, Moscow, Russia
##OWNER=NIST Mass Spectrometry Data Center
Collection (C) 2014 copyright by the U.S. Secretary of Commerce
on behalf of the United States of America. All rights reserved.
##$NIST MASS SPEC NO=348084
##MOLFORM=C21 H38 O4
##MW=354
##$NIST SOURCE=MSDC
##XUNITS=M/Z
##YUNITS=RELATIVE INTENSITY
##XFACTOR=1
##YFACTOR=1
##FIRSTX=26
##LASTX=340
##FIRSTY=150
##MAXX=340
##MINX=26
##MAXY=9999
##MINY=10
##NPOINTS=157
##PEAK TABLE=(XY..XY)
26,150 27,480 28,290 29,721
31,20 39,390 40,90 41,2152
42,811 43,4574 44,340 45,140
51,20 53,300 54,821 55,4684
56,1641 57,2933 58,130 65,20
66,50 67,571 68,661 69,4324
70,7697 71,9999 72,591 73,80
77,20 79,70 80,40 81,711
82,2042 83,4134 84,1041 85,1341
86,110 87,240 91,20 93,30
94,40 95,350 96,510 97,4154
98,811 99,3263 100,5275 101,891
102,70 107,30 108,20 109,220
110,280 111,2252 112,450 113,290
114,170 115,50 117,1501 118,1021
119,290 120,20 121,20 122,30
123,220 124,210 125,500 126,260
127,260 128,50 136,30 137,110
138,210 139,230 140,320 141,490
142,530 143,280 144,100 145,40
150,50 151,60 152,100 153,290
154,240 155,160 156,70 157,540
158,60 159,90 164,40 165,50
166,430 167,150 168,350 169,1361
170,280 171,731 172,120 173,60
178,30 179,30 180,40 181,110
182,150 183,190 184,50 185,220
186,50 187,1231 188,140 189,20
193,30 194,20 195,120 196,70
197,80 198,40 199,50 200,20
201,20 206,30 207,20 209,100
210,60 211,80 212,40 213,70
220,30 221,70 222,20 223,100
224,110 225,200 226,30 227,70
237,90 238,180 239,150 240,30
241,30 248,90 249,30 255,20
265,20 266,420 267,3964 268,1041
269,150 283,20 284,110 285,120
286,10 310,150 311,50 339,100
340,10
##END=
