##TITLE=Silane, dimethyl(dec-4-enyloxy)hexyloxy-
##JCAMP-DX=4.24
##DATA TYPE=MASS SPECTRUM
##ORIGIN=V.G. Zaikin, R.S.Borisov, TIPS RAS, Moscow, Russia
##OWNER=NIST Mass Spectrometry Data Center
Collection (C) 2014 copyright by the U.S. Secretary of Commerce
on behalf of the United States of America. All rights reserved.
##$NIST MASS SPEC NO=348010
##MOLFORM=C18 H38 O2 Si
##MW=314
##$NIST SOURCE=MSDC
##XUNITS=M/Z
##YUNITS=RELATIVE INTENSITY
##XFACTOR=1
##YFACTOR=1
##FIRSTX=26
##LASTX=315
##FIRSTY=80
##MAXX=315
##MINX=26
##MAXY=9999
##MINY=10
##NPOINTS=154
##PEAK TABLE=(XY..XY)
26,80 27,190 29,380 31,20
38,10 39,370 40,30 41,1591
42,380 43,1251 45,90 47,60
50,10 51,30 53,290 54,1952
55,2512 56,550 57,420 58,50
59,781 60,30 61,771 63,60
65,70 66,520 67,4574 68,9999
69,1702 70,270 71,100 72,30
73,10 74,50 75,8197 76,561
77,4294 78,200 79,811 80,360
81,7867 82,5965 83,2412 84,300
85,360 86,20 87,420 88,120
89,2953 90,210 91,811 92,20
93,821 94,120 95,4574 96,5565
97,931 98,50 99,561 100,30
101,2092 102,180 103,931 104,50
105,2022 106,120 107,150 108,10
109,3053 110,3273 111,300 112,20
113,530 114,120 115,1621 116,130
117,550 118,60 119,510 121,30
123,250 124,20 125,30 127,611
128,220 129,991 130,80 131,1601
132,110 133,290 136,40 137,420
138,8388 139,821 141,400 142,20
143,1021 144,70 145,811 146,80
147,40 151,20 153,10 155,210
156,10 157,310 158,70 159,4634
160,490 161,3713 162,360 163,100
169,120 171,190 173,210 175,90
177,410 178,10 179,10 183,70
185,80 187,1481 188,120 189,1191
190,50 197,871 198,110 199,1641
200,160 201,100 202,30 203,20
212,160 213,1762 214,200 215,3263
216,470 217,140 227,10 229,400
230,40 243,1241 244,180 257,270
271,1191 272,220 273,30 281,10
285,110 299,3003 300,671 301,130
314,691 315,120
##END=
