##TITLE=Fumaric acid, pent-4-en-2-yl undecyl ester
##JCAMP-DX=4.24
##DATA TYPE=MASS SPECTRUM
##ORIGIN=L.N.Kulikova, V.G. Zaikin, RPFU, Moscow, Russia
##OWNER=NIST Mass Spectrometry Data Center
Collection (C) 2014 copyright by the U.S. Secretary of Commerce
on behalf of the United States of America. All rights reserved.
##$NIST MASS SPEC NO=348930
##MOLFORM=C20 H34 O4
##MW=338
##$NIST SOURCE=MSDC
##XUNITS=M/Z
##YUNITS=RELATIVE INTENSITY
##XFACTOR=1
##YFACTOR=1
##FIRSTX=25
##LASTX=294
##FIRSTY=20
##MAXX=294
##MINX=25
##MAXY=9999
##MINY=20
##NPOINTS=101
##PEAK TABLE=(XY..XY)
25,20 26,220 27,641 29,841
30,20 31,20 37,20 39,651
40,190 41,3433 42,741 43,3353
45,90 51,20 53,480 54,881
55,4934 56,1291 57,3033 58,120
65,60 66,70 67,1101 68,4304
69,9999 70,1551 71,1942 72,150
73,30 79,30 80,20 81,711
82,1742 83,5205 84,791 85,991
86,70 91,70 93,90 94,30
95,460 96,210 97,5425 98,621
99,3003 100,1401 101,911 102,40
105,20 107,20 108,20 109,140
110,100 111,1371 112,290 113,90
118,200 119,70 121,30 122,20
123,90 124,80 125,90 126,160
137,20 138,30 139,60 140,370
143,60 151,50 152,110 153,140
154,120 155,140 157,180 158,20
165,20 166,20 167,691 168,230
169,30 171,270 172,30 181,20
182,20 185,280 186,50 195,30
209,30 211,80 223,20 224,40
225,40 234,20 235,20 251,20
252,80 253,7407 254,1261 255,130
294,20
##END=
