##TITLE=Fumaric acid, 4-methylpent-2-yl undecyl ester
##JCAMP-DX=4.24
##DATA TYPE=MASS SPECTRUM
##ORIGIN=V.G. Zaikin, R.S.Borisov, TIPS RAS, Moscow, Russia
##OWNER=NIST Mass Spectrometry Data Center
Collection (C) 2014 copyright by the U.S. Secretary of Commerce
on behalf of the United States of America. All rights reserved.
##$NIST MASS SPEC NO=348325
##MOLFORM=C21 H38 O4
##MW=354
##$NIST SOURCE=MSDC
##XUNITS=M/Z
##YUNITS=RELATIVE INTENSITY
##XFACTOR=1
##YFACTOR=1
##FIRSTX=26
##LASTX=340
##FIRSTY=120
##MAXX=340
##MINX=26
##MAXY=9999
##MINY=10
##NPOINTS=145
##PEAK TABLE=(XY..XY)
26,120 27,410 28,250 29,631
30,30 37,20 39,410 40,100
41,2552 42,791 43,5225 44,470
45,130 51,20 53,310 54,801
55,4054 56,2002 57,3263 58,180
59,60 65,30 66,40 67,631
68,661 69,7116 70,1732 71,1802
72,170 73,70 77,20 79,90
80,40 81,751 82,1812 83,4514
84,9659 85,9999 86,691 87,20
91,20 93,40 94,50 95,330
96,460 97,4094 98,701 99,3513
100,5275 101,891 102,70 107,20
108,30 109,190 110,290 111,1641
112,330 113,320 114,60 115,30
116,110 117,1571 118,921 119,270
120,20 121,30 122,20 123,130
124,190 125,220 126,300 127,160
128,50 135,20 136,30 137,90
138,150 139,250 140,180 141,230
142,40 143,60 150,30 151,40
152,390 153,310 154,450 155,470
156,110 157,651 158,100 159,30
164,30 165,40 166,60 167,70
168,70 169,140 170,40 171,761
172,110 173,20 179,20 181,90
182,150 183,1051 184,210 185,40
192,30 193,20 195,90 196,50
197,50 198,20 199,40 201,1021
202,120 206,20 207,30 209,50
210,50 211,150 212,30 213,20
223,50 224,140 225,120 226,20
227,20 234,70 241,50 251,10
252,290 253,4804 254,1031 255,140
268,20 269,20 270,70 271,470
272,100 295,20 311,90 339,190
340,30
##END=
