##TITLE=D-Alanine, N-(4-anisoyl)-, undecyl ester
##JCAMP-DX=4.24
##DATA TYPE=MASS SPECTRUM
##ORIGIN=V.G. Zaikin, R.S.Borisov, TIPS RAS, Moscow, Russia
##OWNER=NIST Mass Spectrometry Data Center
Collection (C) 2014 copyright by the U.S. Secretary of Commerce
on behalf of the United States of America. All rights reserved.
##$NIST MASS SPEC NO=348495
##MOLFORM=C22 H35 N O4
##MW=377
##$NIST SOURCE=MSDC
##XUNITS=M/Z
##YUNITS=RELATIVE INTENSITY
##XFACTOR=1
##YFACTOR=1
##FIRSTX=27
##LASTX=378
##FIRSTY=40
##MAXX=378
##MINX=27
##MAXY=9999
##MINY=20
##NPOINTS=44
##PEAK TABLE=(XY..XY)
27,40 28,20 29,70 39,40
41,170 42,70 43,230 44,150
51,30 55,130 56,60 57,110
63,20 64,30 65,20 67,20
69,40 70,20 71,30 76,30
77,520 78,50 79,40 92,200
93,20 104,20 105,80 106,20
120,80 121,110 134,50 135,9999
136,871 137,70 150,20 178,4494
179,571 180,50 205,50 206,70
224,30 244,30 377,90 378,20
##END=
