##TITLE=Fumaric acid, 2-methylpent-3-yl octadecyl ester
##JCAMP-DX=4.24
##DATA TYPE=MASS SPECTRUM
##ORIGIN=L.N.Kulikova, V.G. Zaikin, RPFU, Moscow, Russia
##OWNER=NIST Mass Spectrometry Data Center
Collection (C) 2014 copyright by the U.S. Secretary of Commerce
on behalf of the United States of America. All rights reserved.
##$NIST MASS SPEC NO=348774
##MOLFORM=C28 H52 O4
##MW=452
##$NIST SOURCE=MSDC
##XUNITS=M/Z
##YUNITS=RELATIVE INTENSITY
##XFACTOR=1
##YFACTOR=1
##FIRSTX=26
##LASTX=437
##FIRSTY=150
##MAXX=437
##MINX=26
##MAXY=9999
##MINY=10
##NPOINTS=219
##PEAK TABLE=(XY..XY)
26,150 27,470 28,260 29,661
39,370 40,90 41,2112 42,561
43,5205 44,250 45,70 53,200
54,561 55,3523 56,1531 57,4084
58,220 59,120 65,30 66,50
67,711 68,611 69,4604 70,1021
71,2312 72,190 73,80 77,20
79,70 80,70 81,711 82,1541
83,3994 84,5915 85,9999 86,691
87,20 91,40 93,60 94,60
95,530 96,711 97,3894 98,561
99,2122 100,4034 101,1141 102,80
105,30 107,50 108,40 109,380
110,330 111,2132 112,380 113,360
114,120 115,60 116,20 117,1251
118,1141 119,731 120,50 121,60
122,60 123,250 124,250 125,1051
126,270 127,300 128,60 129,50
130,20 131,20 133,20 135,40
136,60 137,260 138,210 139,480
140,160 141,330 142,260 143,200
144,100 145,20 147,20 149,40
150,40 151,120 152,150 153,390
154,210 155,330 156,80 157,300
158,30 161,20 163,30 164,50
165,90 166,130 167,230 168,130
169,150 170,40 171,500 172,80
177,20 178,30 179,60 180,90
181,200 182,200 183,520 184,120
185,30 192,20 193,50 194,80
195,160 196,110 197,100 198,30
199,40 201,621 202,80 203,20
205,10 206,20 208,30 209,110
210,100 211,120 212,30 213,30
220,20 221,40 222,90 223,120
224,130 225,120 226,30 227,30
229,30 233,10 235,30 236,30
237,160 238,140 239,120 240,30
241,50 247,20 248,30 249,50
250,400 251,310 252,220 253,390
254,90 255,60 256,20 261,20
263,20 264,20 265,170 266,230
267,170 268,50 269,130 270,20
275,20 277,30 279,160 280,250
281,40 282,30 283,60 287,40
290,40 291,40 293,130 294,210
295,90 296,40 297,70 304,30
305,160 306,50 307,110 308,180
309,180 310,40 311,40 321,50
322,190 323,110 324,30 325,20
332,120 333,300 334,60 348,10
349,20 350,781 351,1682 352,631
353,120 367,20 368,180 369,130
370,30 394,170 395,80 396,30
423,80 424,20 437,40
##END=
