##TITLE=Fumaric acid, 2,4-dimethylpent-3-yl pentyl ester
##JCAMP-DX=4.24
##DATA TYPE=MASS SPECTRUM
##ORIGIN=V.G. Zaikin, R.S.Borisov, TIPS RAS, Moscow, Russia
##OWNER=NIST Mass Spectrometry Data Center
Collection (C) 2014 copyright by the U.S. Secretary of Commerce
on behalf of the United States of America. All rights reserved.
##$NIST MASS SPEC NO=348545
##MOLFORM=C16 H28 O4
##MW=284
##$NIST SOURCE=MSDC
##XUNITS=M/Z
##YUNITS=RELATIVE INTENSITY
##XFACTOR=1
##YFACTOR=1
##FIRSTX=26
##LASTX=242
##FIRSTY=60
##MAXX=242
##MINX=26
##MAXY=9999
##MINY=20
##NPOINTS=54
##PEAK TABLE=(XY..XY)
26,60 27,240 29,190 39,110
40,20 41,530 42,160 43,951
44,40 45,30 53,90 54,290
55,631 56,160 57,621 58,30
67,30 68,20 69,210 70,180
71,691 72,70 73,80 81,160
82,530 83,671 84,50 95,20
97,160 98,350 99,1641 100,1221
101,80 112,40 114,100 115,70
117,90 125,30 141,30 142,270
143,120 155,20 169,9999 170,1281
171,140 187,20 197,350 198,30
212,20 213,110 214,80 215,40
241,340 242,40
##END=
