##TITLE=Fumaric acid, butyl 3-oxobut-2-yl ester
##JCAMP-DX=4.24
##DATA TYPE=MASS SPECTRUM
##ORIGIN=L.N.Kulikova, V.G. Zaikin, RPFU, Moscow, Russia
##OWNER=NIST Mass Spectrometry Data Center
Collection (C) 2014 copyright by the U.S. Secretary of Commerce
on behalf of the United States of America. All rights reserved.
##$NIST MASS SPEC NO=348819
##MOLFORM=C12 H18 O5
##MW=242
##$NIST SOURCE=MSDC
##XUNITS=M/Z
##YUNITS=RELATIVE INTENSITY
##XFACTOR=1
##YFACTOR=1
##FIRSTX=26
##LASTX=200
##FIRSTY=160
##MAXX=200
##MINX=26
##MAXY=9999
##MINY=20
##NPOINTS=34
##PEAK TABLE=(XY..XY)
26,160 27,360 29,330 39,110
41,480 42,30 43,1752 45,40
53,180 54,561 55,681 56,40
57,681 58,20 71,1171 72,140
81,230 82,360 87,70 98,50
99,1021 100,2252 101,50 125,20
155,9999 156,5215 157,460 158,40
169,290 170,20 187,20 198,200
199,30 200,40
##END=
