##TITLE=Fumaric acid, di(pent-4-enyl) ester
##JCAMP-DX=4.24
##DATA TYPE=MASS SPECTRUM
##ORIGIN=L.N.Kulikova, V.G. Zaikin, RPFU, Moscow, Russia
##OWNER=NIST Mass Spectrometry Data Center
Collection (C) 2014 copyright by the U.S. Secretary of Commerce
on behalf of the United States of America. All rights reserved.
##$NIST MASS SPEC NO=348858
##MOLFORM=C14 H20 O4
##MW=252
##$NIST SOURCE=MSDC
##XUNITS=M/Z
##YUNITS=RELATIVE INTENSITY
##XFACTOR=1
##YFACTOR=1
##FIRSTX=26
##LASTX=211
##FIRSTY=150
##MAXX=211
##MINX=26
##MAXY=9999
##MINY=20
##NPOINTS=53
##PEAK TABLE=(XY..XY)
26,150 27,390 29,190 39,681
40,250 41,2002 42,210 43,100
45,40 51,20 53,761 54,611
55,390 65,80 66,100 67,3013
68,9999 69,1581 70,90 71,4604
72,220 81,280 82,611 83,30
84,180 85,90 93,60 94,20
95,30 97,100 98,60 99,821
100,230 109,50 110,30 111,50
112,20 113,30 117,30 121,40
138,90 139,1131 140,120 143,30
165,20 166,210 167,80 168,60
169,50 181,50 183,260 184,50
211,30
##END=
