##TITLE=Fumaric acid, dodecyl 2-methylpent-3-yl ester
##JCAMP-DX=4.24
##DATA TYPE=MASS SPECTRUM
##ORIGIN=L.N.Kulikova, V.G. Zaikin, RPFU, Moscow, Russia
##OWNER=NIST Mass Spectrometry Data Center
Collection (C) 2014 copyright by the U.S. Secretary of Commerce
on behalf of the United States of America. All rights reserved.
##$NIST MASS SPEC NO=348769
##MOLFORM=C22 H40 O4
##MW=368
##$NIST SOURCE=MSDC
##XUNITS=M/Z
##YUNITS=RELATIVE INTENSITY
##XFACTOR=1
##YFACTOR=1
##FIRSTX=25
##LASTX=353
##FIRSTY=20
##MAXX=353
##MINX=25
##MAXY=9999
##MINY=20
##NPOINTS=151
##PEAK TABLE=(XY..XY)
25,20 26,250 27,881 29,1241
30,30 31,20 39,571 40,120
41,3453 42,841 43,6666 44,220
45,120 53,380 54,1071 55,5475
56,1992 57,4314 58,240 59,220
65,30 66,50 67,701 68,661
69,7427 70,1461 71,2062 72,230
73,80 80,40 81,851 82,2582
83,4994 84,7937 85,9999 86,701
87,20 93,40 94,40 95,370
96,470 97,5105 98,761 99,3633
100,5975 101,1261 102,90 107,30
108,30 109,240 110,250 111,2833
112,430 113,320 114,210 115,60
117,1051 118,931 119,250 120,20
121,20 122,40 123,140 124,170
125,540 126,200 127,220 128,70
129,70 130,20 136,40 137,170
138,200 139,190 140,220 141,220
142,520 143,330 144,100 150,20
151,30 152,70 153,230 154,230
155,340 156,80 157,470 158,40
164,50 165,60 166,360 167,140
168,220 169,571 170,70 171,671
172,100 178,20 179,20 180,30
181,80 182,160 183,951 184,170
185,220 186,30 194,40 195,90
196,50 197,40 198,20 199,40
201,851 202,100 203,20 206,20
209,60 210,40 211,50 212,60
213,40 220,20 221,50 222,20
223,70 224,80 225,140 226,30
227,20 237,70 238,150 239,120
240,20 241,40 248,70 249,20
266,330 267,5055 268,1351 269,200
284,110 285,170 286,40 297,30
298,20 310,150 311,110 312,60
339,140 340,20 353,40
##END=
