##TITLE=Fumaric acid, 3-methylbut-2-yl pentyl ester
##JCAMP-DX=4.24
##DATA TYPE=MASS SPECTRUM
##ORIGIN=V.G. Zaikin, R.S.Borisov, TIPS RAS, Moscow, Russia
##OWNER=NIST Mass Spectrometry Data Center
Collection (C) 2014 copyright by the U.S. Secretary of Commerce
on behalf of the United States of America. All rights reserved.
##$NIST MASS SPEC NO=348077
##MOLFORM=C14 H24 O4
##MW=256
##$NIST SOURCE=MSDC
##XUNITS=M/Z
##YUNITS=RELATIVE INTENSITY
##XFACTOR=1
##YFACTOR=1
##FIRSTX=26
##LASTX=241
##FIRSTY=180
##MAXX=241
##MINX=26
##MAXY=9999
##MINY=10
##NPOINTS=57
##PEAK TABLE=(XY..XY)
26,180 27,631 29,540 30,20
31,10 39,280 40,40 41,971
42,681 43,2222 44,60 45,120
53,200 54,581 55,1551 56,70
57,40 67,40 68,50 69,370
70,3793 71,2262 72,140 73,20
81,310 82,801 83,20 84,40
85,20 87,130 95,60 97,120
98,60 99,2512 100,2062 101,120
112,60 114,110 115,20 117,420
118,30 123,50 127,20 140,30
141,170 142,310 143,90 157,40
168,40 169,9999 170,1221 171,120
183,50 187,240 188,20 213,20
241,20
##END=
