##TITLE=Malonic acid, 2-ethylbutyl undecyl ester
##JCAMP-DX=4.24
##DATA TYPE=MASS SPECTRUM
##ORIGIN=L.N.Kulikova, V.G. Zaikin, RPFU, Moscow, Russia
##OWNER=NIST Mass Spectrometry Data Center
Collection (C) 2014 copyright by the U.S. Secretary of Commerce
on behalf of the United States of America. All rights reserved.
##$NIST MASS SPEC NO=348962
##MOLFORM=C20 H38 O4
##MW=342
##$NIST SOURCE=MSDC
##XUNITS=M/Z
##YUNITS=RELATIVE INTENSITY
##XFACTOR=1
##YFACTOR=1
##FIRSTX=26
##LASTX=313
##FIRSTY=70
##MAXX=313
##MINX=26
##MAXY=9999
##MINY=10
##NPOINTS=84
##PEAK TABLE=(XY..XY)
26,70 27,420 28,340 29,851
30,50 31,40 36,30 39,330
40,80 41,2002 42,1001 43,5345
44,410 45,30 53,120 54,320
55,2742 56,2042 57,3123 58,130
59,50 60,140 61,120 65,20
66,20 67,360 68,430 69,2632
70,1261 71,1672 72,110 73,20
79,50 81,170 82,581 83,1361
84,4184 85,6956 86,460 87,851
88,20 89,30 90,90 91,20
95,90 96,190 97,1041 98,390
99,330 100,90 101,140 102,20
104,40 105,9999 106,340 107,90
109,30 110,70 111,470 112,180
113,110 114,20 118,1031 119,330
120,20 124,40 125,180 126,420
127,40 132,40 141,30 142,10
152,10 153,70 154,400 155,120
159,70 171,50 189,270 190,20
229,20 241,60 259,100 313,40
##END=
