##TITLE=Silane, dimethyl(but-2-enyloxy)heptyloxy-
##JCAMP-DX=4.24
##DATA TYPE=MASS SPECTRUM
##ORIGIN=V.G. Zaikin, R.S.Borisov, TIPS RAS, Moscow, Russia
##OWNER=NIST Mass Spectrometry Data Center
Collection (C) 2014 copyright by the U.S. Secretary of Commerce
on behalf of the United States of America. All rights reserved.
##$NIST MASS SPEC NO=348057
##MOLFORM=C13 H28 O2 Si
##MW=244
##$NIST SOURCE=MSDC
##XUNITS=M/Z
##YUNITS=RELATIVE INTENSITY
##XFACTOR=1
##YFACTOR=1
##FIRSTX=26
##LASTX=246
##FIRSTY=30
##MAXX=246
##MINX=26
##MAXY=9999
##MINY=20
##NPOINTS=115
##PEAK TABLE=(XY..XY)
26,30 27,250 29,420 39,300
40,30 41,761 42,120 43,701
45,410 47,330 51,20 53,170
54,230 55,2863 56,270 57,821
58,190 59,581 60,150 61,641
62,30 63,190 67,210 68,150
69,400 70,110 71,80 72,70
73,50 74,190 75,9999 76,761
77,7307 78,450 79,310 81,300
85,170 87,330 88,160 89,1922
90,210 91,771 92,40 93,160
95,310 96,641 97,1541 98,150
99,550 100,60 101,1101 102,110
103,571 104,30 105,540 106,30
109,100 111,120 112,30 113,811
114,120 115,2823 116,340 117,1081
118,100 119,120 127,200 128,440
129,2482 130,340 131,2372 132,270
133,1241 134,120 135,40 141,140
143,280 144,40 145,7627 146,1131
147,430 148,20 149,80 151,130
155,30 157,550 158,60 159,7156
160,851 161,831 162,60 171,150
172,80 173,3523 174,571 175,1071
176,120 185,60 187,2162 188,310
189,170 199,280 200,30 201,4564
202,761 203,290 215,130 229,7156
230,1311 231,350 232,30 243,150
244,1191 245,200 246,40
##END=
