##TITLE=Adipic acid, 3-methylbutyl pentadecyl ester
##JCAMP-DX=4.24
##DATA TYPE=MASS SPECTRUM
##ORIGIN=L.N.Kulikova, V.G. Zaikin, RPFU, Moscow, Russia
##OWNER=NIST Mass Spectrometry Data Center
Collection (C) 2014 copyright by the U.S. Secretary of Commerce
on behalf of the United States of America. All rights reserved.
##$NIST MASS SPEC NO=348977
##MOLFORM=C26 H50 O4
##MW=426
##$NIST SOURCE=MSDC
##XUNITS=M/Z
##YUNITS=RELATIVE INTENSITY
##XFACTOR=1
##YFACTOR=1
##FIRSTX=26
##LASTX=411
##FIRSTY=30
##MAXX=411
##MINX=26
##MAXY=9999
##MINY=20
##NPOINTS=121
##PEAK TABLE=(XY..XY)
26,30 27,170 29,350 39,160
40,30 41,961 42,330 43,2362
44,70 45,30 53,60 54,180
55,1832 56,591 57,1411 58,70
59,100 60,20 61,40 67,250
68,260 69,1001 70,1541 71,3053
72,170 73,190 81,160 82,300
83,991 84,430 85,571 86,140
87,671 88,20 95,110 96,150
97,581 98,230 99,240 100,641
101,1351 102,240 103,90 109,60
110,80 111,2162 112,400 113,150
114,20 115,60 123,20 124,40
125,110 126,150 127,160 128,240
129,9999 130,691 131,110 137,20
138,40 139,80 140,70 141,60
143,40 144,50 145,30 147,190
152,20 153,20 154,50 155,60
156,90 157,681 158,60 166,20
168,30 169,30 170,871 171,110
172,20 182,50 183,50 184,100
185,220 186,20 197,30 198,40
199,7206 200,881 201,90 203,30
210,80 211,60 212,20 213,50
214,30 217,1011 218,110 226,20
240,60 254,80 255,160 256,20
257,20 268,50 282,30 296,90
297,130 298,20 310,60 337,30
338,80 339,1471 340,340 341,40
353,70 357,60 383,140 384,20
411,70
##END=
