##TITLE=Fumaric acid, cis-hex-3-enyl isobutyl ester
##JCAMP-DX=4.24
##DATA TYPE=MASS SPECTRUM
##ORIGIN=L.N.Kulikova, V.G. Zaikin, RPFU, Moscow, Russia
##OWNER=NIST Mass Spectrometry Data Center
Collection (C) 2014 copyright by the U.S. Secretary of Commerce
on behalf of the United States of America. All rights reserved.
##$NIST MASS SPEC NO=348860
##MOLFORM=C14 H22 O4
##MW=254
##$NIST SOURCE=MSDC
##XUNITS=M/Z
##YUNITS=RELATIVE INTENSITY
##XFACTOR=1
##YFACTOR=1
##FIRSTX=26
##LASTX=239
##FIRSTY=150
##MAXX=239
##MINX=26
##MAXY=9999
##MINY=20
##NPOINTS=55
##PEAK TABLE=(XY..XY)
26,150 27,440 29,520 30,20
39,420 40,70 41,1481 42,120
43,290 45,30 51,20 53,310
54,791 55,1331 56,370 57,1151
58,50 65,60 66,60 67,4924
68,290 69,100 71,100 72,40
77,30 79,50 80,20 81,1892
82,9999 83,1091 84,30 85,50
93,20 95,40 97,20 98,20
99,2392 100,500 101,60 107,60
109,110 111,20 117,230 123,30
125,20 135,50 153,70 155,2062
156,180 157,20 163,30 173,50
181,380 182,40 239,30
##END=
