##TITLE=Silane, dimethyl(but-3-enyloxy)heptadecyloxy-
##JCAMP-DX=4.24
##DATA TYPE=MASS SPECTRUM
##ORIGIN=V.G. Zaikin, R.S.Borisov, TIPS RAS, Moscow, Russia
##OWNER=NIST Mass Spectrometry Data Center
Collection (C) 2014 copyright by the U.S. Secretary of Commerce
on behalf of the United States of America. All rights reserved.
##$NIST MASS SPEC NO=348032
##MOLFORM=C23 H48 O2 Si
##MW=384
##$NIST SOURCE=MSDC
##XUNITS=M/Z
##YUNITS=RELATIVE INTENSITY
##XFACTOR=1
##YFACTOR=1
##FIRSTX=27
##LASTX=372
##FIRSTY=30
##MAXX=372
##MINX=27
##MAXY=9999
##MINY=10
##NPOINTS=121
##PEAK TABLE=(XY..XY)
27,30 29,70 39,80 41,280
42,80 43,480 45,40 53,30
54,90 55,721 56,140 57,721
58,50 59,130 61,230 67,230
68,140 69,751 70,130 71,540
72,20 75,1982 76,150 77,601
78,20 79,50 81,270 82,180
83,1191 84,120 85,440 86,10
87,110 88,50 89,1541 90,140
91,230 93,40 95,260 96,130
97,1301 98,110 99,430 100,60
101,1441 102,120 103,430 104,30
105,681 106,40 107,631 108,40
109,140 110,40 111,651 112,70
113,190 114,30 115,1922 116,200
117,410 118,30 119,671 120,50
121,30 123,60 125,210 126,20
127,70 128,10 129,1561 130,190
131,530 132,50 133,270 134,20
135,10 137,20 139,60 141,60
143,100 145,500 146,50 147,90
149,30 151,100 153,20 155,20
157,50 159,1051 160,130 171,40
185,30 187,140 199,30 213,20
227,20 229,20 243,40 257,30
271,20 297,60 311,70 313,1872
314,440 315,130 327,120 328,20
329,50 339,130 340,20 341,190
342,30 343,9999 344,2833 345,731
346,80 369,3873 370,1171 371,310
372,50
##END=
