##TITLE=Fumaric acid, dec-4-enyl propyl ester
##JCAMP-DX=4.24
##DATA TYPE=MASS SPECTRUM
##ORIGIN=L.N.Kulikova, V.G. Zaikin, RPFU, Moscow, Russia
##OWNER=NIST Mass Spectrometry Data Center
Collection (C) 2014 copyright by the U.S. Secretary of Commerce
on behalf of the United States of America. All rights reserved.
##$NIST MASS SPEC NO=348936
##MOLFORM=C17 H28 O4
##MW=296
##$NIST SOURCE=MSDC
##XUNITS=M/Z
##YUNITS=RELATIVE INTENSITY
##XFACTOR=1
##YFACTOR=1
##FIRSTX=25
##LASTX=237
##FIRSTY=20
##MAXX=237
##MINX=25
##MAXY=9999
##MINY=20
##NPOINTS=70
##PEAK TABLE=(XY..XY)
25,20 26,270 27,1021 29,861
30,30 31,80 39,641 40,130
41,2943 42,611 43,1441 45,90
51,30 53,771 54,3883 55,3413
56,280 57,110 59,60 65,160
66,460 67,5185 68,9999 69,1802
70,60 71,1561 72,130 77,190
78,30 79,851 80,380 81,7807
82,4474 83,811 84,50 85,20
91,100 93,160 94,90 95,3623
96,3373 97,571 99,2282 100,821
101,70 107,40 108,30 109,1812
110,2162 111,150 113,170 117,691
118,20 123,160 136,20 137,220
138,3083 139,350 141,1441 142,801
143,80 153,50 159,250 181,1011
182,110 209,1081 210,150 219,20
236,80 237,70
##END=
