##TITLE=Fumaric acid, 4-methylpent-2-yl octadecyl ester
##JCAMP-DX=4.24
##DATA TYPE=MASS SPECTRUM
##ORIGIN=V.G. Zaikin, R.S.Borisov, TIPS RAS, Moscow, Russia
##OWNER=NIST Mass Spectrometry Data Center
Collection (C) 2014 copyright by the U.S. Secretary of Commerce
on behalf of the United States of America. All rights reserved.
##$NIST MASS SPEC NO=348331
##MOLFORM=C28 H52 O4
##MW=452
##$NIST SOURCE=MSDC
##XUNITS=M/Z
##YUNITS=RELATIVE INTENSITY
##XFACTOR=1
##YFACTOR=1
##FIRSTX=26
##LASTX=438
##FIRSTY=110
##MAXX=438
##MINX=26
##MAXY=9999
##MINY=20
##NPOINTS=225
##PEAK TABLE=(XY..XY)
26,110 27,420 29,520 31,30
35,20 37,40 39,350 40,80
41,1832 42,661 43,4604 44,591
45,130 51,80 53,200 54,591
55,3423 56,1391 57,3803 58,200
59,40 63,20 65,40 66,80
67,881 68,691 69,5065 70,1071
71,1972 72,130 73,50 77,70
78,50 79,130 80,70 81,761
82,1221 83,3853 84,6376 85,9999
86,601 87,30 91,30 92,20
93,80 94,80 95,571 96,380
97,3253 98,581 99,2232 100,3443
101,1041 102,70 105,70 106,50
107,30 108,30 109,430 110,410
111,2022 112,380 113,320 114,70
115,50 116,70 117,1792 118,1241
119,1021 120,40 121,60 122,70
123,240 124,270 125,881 126,190
127,220 128,70 129,50 131,30
133,30 134,30 135,110 136,80
137,280 138,290 139,410 140,270
141,420 142,60 143,70 144,30
146,20 147,20 149,30 150,40
151,120 152,180 153,390 154,280
155,280 156,80 157,440 158,110
161,50 163,30 164,30 165,140
166,150 167,210 168,140 169,180
170,60 171,510 172,70 173,30
174,40 177,40 178,50 179,50
180,100 181,200 182,190 183,661
184,150 185,70 191,40 192,30
193,60 194,90 195,150 196,90
197,110 198,20 199,40 201,791
202,140 203,60 205,20 206,30
207,200 208,80 209,110 210,100
211,140 212,40 213,40 214,20
217,30 220,20 221,40 222,90
223,130 224,160 225,160 226,40
227,60 229,60 233,30 235,40
237,190 238,160 239,130 240,20
241,80 247,20 248,20 250,470
251,320 252,250 253,240 254,50
255,110 261,30 264,20 265,210
266,240 267,180 268,40 269,140
270,20 275,20 279,180 280,280
281,120 282,50 283,80 285,30
287,30 290,30 291,30 293,140
294,230 295,90 296,20 297,70
304,20 305,100 306,30 307,120
308,170 309,190 310,30 311,30
321,50 322,210 323,100 324,20
329,20 332,100 333,200 334,30
349,20 350,801 351,1271 352,430
353,70 367,30 368,130 369,230
370,40 371,20 409,60 437,220
438,50
##END=
