##TITLE=Fumaric acid, 2-decyl ethyl ester
##JCAMP-DX=4.24
##DATA TYPE=MASS SPECTRUM
##ORIGIN=V.G. Zaikin, R.S.Borisov, TIPS RAS, Moscow, Russia
##OWNER=NIST Mass Spectrometry Data Center
Collection (C) 2014 copyright by the U.S. Secretary of Commerce
on behalf of the United States of America. All rights reserved.
##$NIST MASS SPEC NO=348584
##MOLFORM=C16 H28 O4
##MW=284
##$NIST SOURCE=MSDC
##XUNITS=M/Z
##YUNITS=RELATIVE INTENSITY
##XFACTOR=1
##YFACTOR=1
##FIRSTX=26
##LASTX=240
##FIRSTY=90
##MAXX=240
##MINX=26
##MAXY=9999
##MINY=20
##NPOINTS=77
##PEAK TABLE=(XY..XY)
26,90 27,340 29,641 39,150
40,30 41,891 42,350 43,1071
44,30 45,140 47,20 53,230
54,390 55,1561 56,1111 57,641
58,80 67,140 68,150 69,951
70,1001 71,250 72,50 73,20
81,280 82,571 83,751 84,591
85,190 95,50 96,190 97,1051
98,561 99,1661 100,520 101,80
109,30 110,60 111,550 112,330
113,20 114,40 117,651 118,30
123,40 124,70 125,40 126,20
127,9999 128,1902 129,190 137,60
138,40 139,20 140,981 141,110
142,260 143,40 145,1511 146,220
147,30 151,20 152,20 153,50
157,40 159,30 166,20 167,300
168,50 169,30 170,70 171,40
193,20 199,50 211,60 239,450
240,70
##END=
