##TITLE=Silane, dimethyl(but-2-enyloxy)isohexyloxy-
##JCAMP-DX=4.24
##DATA TYPE=MASS SPECTRUM
##ORIGIN=V.G. Zaikin, R.S.Borisov, TIPS RAS, Moscow, Russia
##OWNER=NIST Mass Spectrometry Data Center
Collection (C) 2014 copyright by the U.S. Secretary of Commerce
on behalf of the United States of America. All rights reserved.
##$NIST MASS SPEC NO=348056
##MOLFORM=C12 H26 O2 Si
##MW=230
##$NIST SOURCE=MSDC
##XUNITS=M/Z
##YUNITS=RELATIVE INTENSITY
##XFACTOR=1
##YFACTOR=1
##FIRSTX=26
##LASTX=231
##FIRSTY=30
##MAXX=231
##MINX=26
##MAXY=9999
##MINY=20
##NPOINTS=108
##PEAK TABLE=(XY..XY)
26,30 27,300 29,390 39,390
40,40 41,991 42,110 43,1521
45,601 46,20 47,410 50,20
51,30 52,20 53,200 54,170
55,2772 56,581 57,530 58,250
59,651 60,200 61,631 62,40
63,200 67,300 68,40 69,791
70,70 71,50 72,60 73,60
74,190 75,8608 76,691 77,4884
78,290 79,210 81,220 82,1391
83,9999 84,681 85,480 86,40
87,180 88,210 89,1451 90,200
91,420 92,20 93,180 95,220
97,60 98,50 99,540 100,70
101,1041 102,100 103,470 104,30
105,490 106,20 111,130 112,40
113,641 114,120 115,1872 116,220
117,540 118,40 119,140 123,30
127,180 128,350 129,2032 130,270
131,1862 132,190 133,160 141,200
142,20 143,450 144,50 145,5465
146,871 147,450 148,30 157,160
158,110 159,6636 160,791 161,3363
162,400 163,110 171,40 173,70
174,80 175,30 185,130 187,4514
188,671 189,210 215,2923 216,460
217,120 229,100 230,571 231,90
##END=
