##TITLE=Fumaric acid, decyl 2-methylpent-3-yl ester
##JCAMP-DX=4.24
##DATA TYPE=MASS SPECTRUM
##ORIGIN=L.N.Kulikova, V.G. Zaikin, RPFU, Moscow, Russia
##OWNER=NIST Mass Spectrometry Data Center
Collection (C) 2014 copyright by the U.S. Secretary of Commerce
on behalf of the United States of America. All rights reserved.
##$NIST MASS SPEC NO=348767
##MOLFORM=C20 H36 O4
##MW=340
##$NIST SOURCE=MSDC
##XUNITS=M/Z
##YUNITS=RELATIVE INTENSITY
##XFACTOR=1
##YFACTOR=1
##FIRSTX=25
##LASTX=325
##FIRSTY=20
##MAXX=325
##MINX=25
##MAXY=9999
##MINY=20
##NPOINTS=125
##PEAK TABLE=(XY..XY)
25,20 26,250 27,901 29,1211
30,30 31,40 39,520 40,110
41,3103 42,801 43,5855 44,200
45,120 53,390 54,1131 55,5125
56,1872 57,3443 58,200 59,220
65,30 66,30 67,490 68,490
69,6456 70,1451 71,1802 72,220
73,80 80,20 81,801 82,2662
83,5975 84,7647 85,8378 86,581
93,20 94,30 95,240 96,240
97,3213 98,540 99,3873 100,5935
101,1161 102,90 108,20 109,150
110,180 111,400 112,350 113,160
114,240 115,60 117,861 118,621
119,130 123,50 124,40 125,50
126,100 127,120 128,80 129,70
130,20 136,40 137,110 138,300
139,200 140,300 141,781 142,731
143,390 144,90 151,20 152,40
153,180 154,200 155,360 156,80
157,631 158,60 164,30 165,30
166,20 167,30 168,40 169,40
170,20 171,550 172,90 178,20
181,70 182,120 183,981 184,170
185,40 193,50 195,40 196,40
197,110 199,20 201,781 202,80
209,30 210,90 211,110 212,20
220,50 238,180 239,9999 240,2172
241,310 242,20 256,60 257,180
258,40 269,50 270,20 282,100
283,130 284,70 311,150 312,20
325,30
##END=
