##TITLE=Adipic acid, hexyl 3-methylbutyl ester
##JCAMP-DX=4.24
##DATA TYPE=MASS SPECTRUM
##ORIGIN=L.N.Kulikova, V.G. Zaikin, RPFU, Moscow, Russia
##OWNER=NIST Mass Spectrometry Data Center
Collection (C) 2014 copyright by the U.S. Secretary of Commerce
on behalf of the United States of America. All rights reserved.
##$NIST MASS SPEC NO=348968
##MOLFORM=C17 H32 O4
##MW=300
##$NIST SOURCE=MSDC
##XUNITS=M/Z
##YUNITS=RELATIVE INTENSITY
##XFACTOR=1
##YFACTOR=1
##FIRSTX=26
##LASTX=301
##FIRSTY=50
##MAXX=301
##MINX=26
##MAXY=9999
##MINY=20
##NPOINTS=77
##PEAK TABLE=(XY..XY)
26,50 27,390 29,611 30,20
31,30 39,290 40,60 41,1351
42,601 43,3894 44,130 45,60
53,90 54,140 55,2182 56,891
57,280 58,50 59,200 60,60
61,150 67,50 68,100 69,420
70,2102 71,3473 72,180 73,330
74,30 83,591 84,741 85,550
86,80 87,1401 88,50 99,110
100,1171 101,1631 102,320 103,110
110,90 111,2803 112,520 113,50
115,70 126,20 127,60 128,220
129,9999 130,661 131,80 143,30
147,30 155,30 156,20 157,881
158,80 170,921 171,881 172,100
183,40 184,661 185,50 186,60
199,4404 200,550 201,50 212,20
213,3423 214,460 215,40 217,160
231,90 257,240 258,30 285,30
301,20
##END=
