##TITLE=Fumaric acid, 4-heptyl tridecyl ester
##JCAMP-DX=4.24
##DATA TYPE=MASS SPECTRUM
##ORIGIN=V.G. Zaikin, R.S.Borisov, TIPS RAS, Moscow, Russia
##OWNER=NIST Mass Spectrometry Data Center
Collection (C) 2014 copyright by the U.S. Secretary of Commerce
on behalf of the United States of America. All rights reserved.
##$NIST MASS SPEC NO=348523
##MOLFORM=C24 H44 O4
##MW=396
##$NIST SOURCE=MSDC
##XUNITS=M/Z
##YUNITS=RELATIVE INTENSITY
##XFACTOR=1
##YFACTOR=1
##FIRSTX=25
##LASTX=326
##FIRSTY=40
##MAXX=326
##MINX=25
##MAXY=9999
##MINY=20
##NPOINTS=184
##PEAK TABLE=(XY..XY)
25,40 26,300 27,1011 29,1081
30,50 31,50 37,30 39,641
40,120 41,3873 42,1051 43,5555
44,40 45,80 50,20 51,30
52,20 53,400 54,1111 55,6836
56,3833 57,9999 58,430 59,30
65,50 66,80 67,881 68,931
69,6986 70,2682 71,2943 72,300
73,170 74,20 77,20 78,30
79,90 80,80 81,881 82,2762
83,5465 84,961 85,1822 86,110
91,50 93,70 94,60 95,520
96,721 97,5535 98,5365 99,4384
100,6005 101,1261 102,90 104,20
105,60 107,50 108,60 109,320
110,350 111,2833 112,480 113,500
114,150 115,400 116,70 117,2923
118,1431 119,520 120,40 121,60
122,40 123,270 124,400 125,1181
126,340 127,440 128,60 129,30
131,20 135,40 136,50 137,210
138,190 139,300 140,160 141,300
142,150 143,270 144,130 145,30
147,20 149,30 150,110 151,170
152,250 153,330 154,340 155,250
156,60 157,480 158,50 159,20
161,20 163,20 164,30 165,70
166,110 167,90 168,240 169,330
170,110 171,771 172,120 173,40
177,20 178,90 179,100 180,480
181,240 182,270 183,1091 184,160
185,40 186,20 192,30 193,30
194,40 195,150 196,180 197,1031
198,200 199,240 200,30 201,20
205,20 208,20 209,120 210,70
211,80 212,40 213,60 215,911
216,110 217,30 219,20 220,40
221,40 223,150 224,110 225,70
226,40 227,50 233,20 234,30
235,80 236,30 237,190 238,190
239,220 240,40 241,40 251,130
252,250 253,90 254,20 255,50
262,130 263,60 269,20 270,20
279,30 280,681 281,5075 282,1381
283,200 297,20 298,200 299,631
300,130 324,30 325,140 326,120
##END=
