##TITLE=Silane, dimethyl(dimethyl(but-3-enyloxy)silyloxy)isohexyloxy-
##JCAMP-DX=4.24
##DATA TYPE=MASS SPECTRUM
##ORIGIN=V.G. Zaikin, R.S.Borisov, TIPS RAS, Moscow, Russia
##OWNER=NIST Mass Spectrometry Data Center
Collection (C) 2014 copyright by the U.S. Secretary of Commerce
on behalf of the United States of America. All rights reserved.
##$NIST MASS SPEC NO=348038
##MOLFORM=C14 H32 O3 Si2
##MW=304
##$NIST SOURCE=MSDC
##XUNITS=M/Z
##YUNITS=RELATIVE INTENSITY
##XFACTOR=1
##YFACTOR=1
##FIRSTX=27
##LASTX=292
##FIRSTY=50
##MAXX=292
##MINX=27
##MAXY=9999
##MINY=20
##NPOINTS=81
##PEAK TABLE=(XY..XY)
27,50 29,110 39,80 41,390
42,60 43,1591 53,60 54,220
55,3543 56,520 57,460 59,40
61,30 66,160 67,70 69,190
73,290 74,20 75,100 81,130
82,30 83,230 84,40 85,1011
86,40 88,40 94,20 103,70
104,20 105,30 115,90 117,240
118,60 119,550 120,70 121,90
131,70 132,30 133,4744 134,611
135,1011 136,70 137,40 145,50
147,230 148,30 149,7166 150,1021
151,3533 152,400 153,240 159,110
163,921 164,120 165,140 173,200
174,30 175,290 176,50 177,200
179,50 187,941 188,140 189,310
190,30 191,40 203,4344 204,761
205,1461 206,240 207,110 233,9999
234,2132 235,1071 236,130 259,200
260,40 289,4244 290,1041 291,550
292,80
##END=
