##TITLE=Fumaric acid, butyl trans-hex-3-enyl ester
##JCAMP-DX=4.24
##DATA TYPE=MASS SPECTRUM
##ORIGIN=L.N.Kulikova, V.G. Zaikin, RPFU, Moscow, Russia
##OWNER=NIST Mass Spectrometry Data Center
Collection (C) 2014 copyright by the U.S. Secretary of Commerce
on behalf of the United States of America. All rights reserved.
##$NIST MASS SPEC NO=348885
##MOLFORM=C14 H22 O4
##MW=254
##$NIST SOURCE=MSDC
##XUNITS=M/Z
##YUNITS=RELATIVE INTENSITY
##XFACTOR=1
##YFACTOR=1
##FIRSTX=26
##LASTX=182
##FIRSTY=180
##MAXX=182
##MINX=26
##MAXY=9999
##MINY=10
##NPOINTS=60
##PEAK TABLE=(XY..XY)
26,180 27,500 29,561 30,20
31,20 39,370 40,50 41,1501
42,130 43,270 45,40 51,20
53,330 54,711 55,1441 56,340
57,841 58,30 65,60 66,60
67,4904 68,510 69,320 70,50
71,300 72,50 77,30 79,30
80,40 81,771 82,9999 83,1081
84,50 85,100 91,210 93,80
95,20 97,70 98,60 99,1922
100,390 101,20 105,60 107,70
109,110 111,50 112,20 117,420
118,20 119,30 125,10 127,40
139,20 153,20 155,2312 156,230
157,20 173,70 181,520 182,50
##END=
