##TITLE=Malonic acid, tridecyl 3-methylbutyl ester
##JCAMP-DX=4.24
##DATA TYPE=MASS SPECTRUM
##ORIGIN=L.N.Kulikova, V.G. Zaikin, RPFU, Moscow, Russia
##OWNER=NIST Mass Spectrometry Data Center
Collection (C) 2014 copyright by the U.S. Secretary of Commerce
on behalf of the United States of America. All rights reserved.
##$NIST MASS SPEC NO=348986
##MOLFORM=C21 H40 O4
##MW=356
##$NIST SOURCE=MSDC
##XUNITS=M/Z
##YUNITS=RELATIVE INTENSITY
##XFACTOR=1
##YFACTOR=1
##FIRSTX=26
##LASTX=313
##FIRSTY=50
##MAXX=313
##MINX=26
##MAXY=9999
##MINY=10
##NPOINTS=76
##PEAK TABLE=(XY..XY)
26,50 27,270 28,230 29,591
30,30 31,20 39,250 40,60
41,1521 42,651 43,3603 44,260
45,30 53,90 54,270 55,2402
56,1091 57,2102 58,80 60,50
61,40 66,20 67,350 68,420
69,1742 70,2823 71,9999 72,550
79,20 81,170 82,420 83,1241
84,540 85,681 86,80 87,500
89,20 91,20 95,100 96,160
97,871 98,280 99,150 100,10
104,20 105,4894 106,170 107,40
109,30 110,70 111,360 112,160
113,100 114,20 115,30 124,30
125,160 126,80 127,50 131,50
132,110 133,60 139,30 140,30
141,20 154,80 157,170 159,60
175,2122 176,180 177,10 181,20
182,60 183,40 287,40 313,80
##END=
