##TITLE=Fumaric acid, propyl tridecyl ester
##JCAMP-DX=4.24
##DATA TYPE=MASS SPECTRUM
##ORIGIN=L.N.Kulikova, V.G. Zaikin, RPFU, Moscow, Russia
##OWNER=NIST Mass Spectrometry Data Center
Collection (C) 2014 copyright by the U.S. Secretary of Commerce
on behalf of the United States of America. All rights reserved.
##$NIST MASS SPEC NO=348802
##MOLFORM=C20 H36 O4
##MW=340
##$NIST SOURCE=MSDC
##XUNITS=M/Z
##YUNITS=RELATIVE INTENSITY
##XFACTOR=1
##YFACTOR=1
##FIRSTX=26
##LASTX=341
##FIRSTY=100
##MAXX=341
##MINX=26
##MAXY=9999
##MINY=20
##NPOINTS=185
##PEAK TABLE=(XY..XY)
26,100 27,400 28,210 29,540
30,20 31,60 39,340 40,100
41,2482 42,961 43,4244 44,270
45,70 53,330 54,941 55,5035
56,2542 57,3863 58,200 59,90
61,280 65,30 66,80 67,971
68,1191 69,5595 70,2873 71,2002
72,220 73,130 77,20 79,90
80,60 81,971 82,2132 83,5565
84,1992 85,1381 86,120 87,20
91,30 93,50 94,60 95,611
96,1111 97,4704 98,1331 99,4574
100,4454 101,1792 102,120 103,20
104,20 105,30 107,40 108,50
109,350 110,581 111,2532 112,861
113,891 114,210 115,110 116,40
117,9999 118,891 119,200 120,20
121,50 122,60 123,310 124,430
125,1041 126,490 127,270 128,70
129,60 130,30 135,40 136,80
137,270 138,310 139,611 140,430
141,4594 142,3293 143,1822 144,160
145,40 149,40 150,100 151,190
152,380 153,871 154,711 155,290
156,80 157,100 158,100 159,7156
160,1742 161,681 162,60 163,40
164,80 165,110 166,180 167,150
168,250 169,300 170,70 171,70
173,60 177,50 178,90 179,100
180,280 181,280 182,751 183,881
184,130 185,100 186,20 191,40
192,50 193,60 194,80 195,250
196,190 197,470 198,100 199,661
200,90 205,30 206,30 207,30
208,30 209,240 210,120 211,260
212,60 213,460 214,120 215,20
217,20 219,30 220,60 221,120
222,20 223,310 224,140 225,240
226,50 227,40 228,20 233,30
234,70 235,140 236,40 237,310
238,190 239,591 240,100 241,60
243,20 251,200 252,220 253,210
254,50 255,60 262,160 263,40
265,20 269,60 279,30 280,370
281,1091 282,200 283,70 297,40
299,771 300,130 311,20 340,70
341,20
##END=
