##TITLE=Fumaric acid, decyl 2-methylpentyl ester
##JCAMP-DX=4.24
##DATA TYPE=MASS SPECTRUM
##ORIGIN=V.G. Zaikin, R.S.Borisov, TIPS RAS, Moscow, Russia
##OWNER=NIST Mass Spectrometry Data Center
Collection (C) 2014 copyright by the U.S. Secretary of Commerce
on behalf of the United States of America. All rights reserved.
##$NIST MASS SPEC NO=348728
##MOLFORM=C20 H36 O4
##MW=340
##$NIST SOURCE=MSDC
##XUNITS=M/Z
##YUNITS=RELATIVE INTENSITY
##XFACTOR=1
##YFACTOR=1
##FIRSTX=25
##LASTX=325
##FIRSTY=20
##MAXX=325
##MINX=25
##MAXY=9999
##MINY=20
##NPOINTS=120
##PEAK TABLE=(XY..XY)
25,20 26,270 27,941 29,1141
30,30 31,70 39,561 40,40
41,3363 42,831 43,5945 44,20
45,130 53,400 54,1151 55,5375
56,1922 57,3633 58,210 59,210
65,30 66,40 67,561 68,490
69,6726 70,1511 71,1762 72,220
73,70 80,30 81,831 82,2712
83,5985 84,7757 85,8338 86,591
93,20 94,30 95,250 96,240
97,3143 98,510 99,3783 100,6105
101,1101 102,80 109,150 110,170
111,360 112,320 113,140 114,230
115,50 117,561 118,571 119,120
123,50 124,30 125,40 126,80
127,90 128,70 129,50 130,20
136,40 137,90 138,300 139,180
140,290 141,741 142,711 143,360
144,80 151,20 152,40 153,130
154,180 155,300 156,60 157,601
158,60 164,20 166,20 168,30
169,20 170,20 171,530 172,80
178,20 181,60 183,941 184,160
185,30 193,40 195,40 196,30
197,100 199,20 201,711 202,80
210,90 211,90 212,20 220,50
238,180 239,9999 240,2202 241,310
242,20 256,70 257,180 258,40
269,50 270,20 282,110 283,130
284,70 311,160 312,20 325,30
##END=
