##TITLE=Fumaric acid, butyl 2-butyl ester
##JCAMP-DX=4.24
##DATA TYPE=MASS SPECTRUM
##ORIGIN=V.G. Zaikin, R.S.Borisov, TIPS RAS, Moscow, Russia
##OWNER=NIST Mass Spectrometry Data Center
Collection (C) 2014 copyright by the U.S. Secretary of Commerce
on behalf of the United States of America. All rights reserved.
##$NIST MASS SPEC NO=348640
##MOLFORM=C12 H20 O4
##MW=228
##$NIST SOURCE=MSDC
##XUNITS=M/Z
##YUNITS=RELATIVE INTENSITY
##XFACTOR=1
##YFACTOR=1
##FIRSTX=26
##LASTX=185
##FIRSTY=190
##MAXX=185
##MINX=26
##MAXY=9999
##MINY=20
##NPOINTS=46
##PEAK TABLE=(XY..XY)
26,190 27,591 29,1021 30,20
31,40 39,250 40,30 41,1221
42,80 43,210 45,140 53,210
54,571 55,961 56,2292 57,1862
58,80 59,40 71,260 72,90
73,220 81,380 82,691 83,70
97,30 98,90 99,2222 100,1271
101,70 108,30 109,70 117,3433
118,160 119,30 126,50 127,290
128,120 133,40 154,100 155,9999
156,1141 157,120 172,20 173,1281
174,110 185,20
##END=
