##TITLE=Fumaric acid, 3-oxobut-2-yl tridecyl ester
##JCAMP-DX=4.24
##DATA TYPE=MASS SPECTRUM
##ORIGIN=L.N.Kulikova, V.G. Zaikin, RPFU, Moscow, Russia
##OWNER=NIST Mass Spectrometry Data Center
Collection (C) 2014 copyright by the U.S. Secretary of Commerce
on behalf of the United States of America. All rights reserved.
##$NIST MASS SPEC NO=348827
##MOLFORM=C21 H36 O5
##MW=368
##$NIST SOURCE=MSDC
##XUNITS=M/Z
##YUNITS=RELATIVE INTENSITY
##XFACTOR=1
##YFACTOR=1
##FIRSTX=25
##LASTX=326
##FIRSTY=20
##MAXX=326
##MINX=25
##MAXY=9999
##MINY=10
##NPOINTS=136
##PEAK TABLE=(XY..XY)
25,20 26,260 27,711 29,1021
39,370 40,20 41,2722 42,651
43,6476 45,210 53,400 54,1121
55,5455 56,1321 57,4434 58,200
65,10 66,40 67,691 68,581
69,5815 70,1171 71,4324 72,1531
73,70 80,50 81,851 82,4054
83,5205 84,440 85,1051 86,80
87,230 88,40 89,781 90,30
93,50 94,50 95,470 96,450
97,4594 98,691 99,3273 100,9999
101,1201 102,100 107,40 108,30
109,260 110,240 111,2372 112,370
113,160 114,30 117,70 121,40
122,80 123,200 124,180 125,961
126,220 127,130 128,30 130,20
136,40 137,130 138,190 139,310
140,90 141,60 142,80 143,130
149,20 150,40 151,60 152,200
153,400 154,250 155,40 163,20
164,30 165,70 166,100 167,70
168,110 169,240 170,410 171,270
172,20 177,20 178,40 179,60
180,130 181,130 182,260 183,370
184,40 187,1531 188,160 189,20
192,20 193,30 194,60 195,100
196,80 197,100 199,20 209,60
210,50 211,90 220,20 221,30
223,60 224,60 225,30 227,60
234,20 235,60 236,60 237,100
238,90 239,100 251,70 252,130
253,70 262,50 263,100 264,20
279,50 280,270 281,1772 282,8087
283,1471 284,170 324,60 326,40
##END=
