##TITLE=Fumaric acid, 2-decyl hexyl ester
##JCAMP-DX=4.24
##DATA TYPE=MASS SPECTRUM
##ORIGIN=V.G. Zaikin, R.S.Borisov, TIPS RAS, Moscow, Russia
##OWNER=NIST Mass Spectrometry Data Center
Collection (C) 2014 copyright by the U.S. Secretary of Commerce
on behalf of the United States of America. All rights reserved.
##$NIST MASS SPEC NO=348589
##MOLFORM=C20 H36 O4
##MW=340
##$NIST SOURCE=MSDC
##XUNITS=M/Z
##YUNITS=RELATIVE INTENSITY
##XFACTOR=1
##YFACTOR=1
##FIRSTX=26
##LASTX=297
##FIRSTY=160
##MAXX=297
##MINX=26
##MAXY=9999
##MINY=20
##NPOINTS=118
##PEAK TABLE=(XY..XY)
26,160 27,631 29,831 31,20
39,380 40,80 41,2082 42,871
43,3783 44,180 45,80 53,250
54,621 55,3283 56,2232 57,2342
58,150 59,20 65,20 66,20
67,320 68,280 69,1792 70,1451
71,1291 72,120 73,70 81,440
82,1161 83,1541 84,1481 85,3073
86,210 91,80 93,40 95,100
96,290 97,1551 98,801 99,3083
100,2492 101,380 102,30 105,30
107,20 108,30 109,90 110,100
111,821 112,520 113,100 114,90
115,70 116,30 117,2102 118,220
119,110 123,70 124,100 125,90
126,50 127,70 128,30 129,20
135,80 137,130 138,90 139,80
140,1551 141,410 142,70 143,30
145,40 151,30 152,50 153,260
154,70 155,200 156,80 157,220
158,30 159,30 164,20 165,20
166,40 167,460 168,80 171,30
173,20 182,60 183,9999 184,1601
185,190 187,20 193,40 194,40
197,60 198,40 199,30 200,20
201,891 202,180 203,40 210,30
211,90 212,30 220,20 225,90
226,60 238,20 239,500 240,90
241,20 255,70 257,260 258,40
269,20 297,30
##END=
