##TITLE=Fumaric acid, isobutyl 3-methylbut-2-yl ester
##JCAMP-DX=4.24
##DATA TYPE=MASS SPECTRUM
##ORIGIN=V.G. Zaikin, R.S.Borisov, TIPS RAS, Moscow, Russia
##OWNER=NIST Mass Spectrometry Data Center
Collection (C) 2014 copyright by the U.S. Secretary of Commerce
on behalf of the United States of America. All rights reserved.
##$NIST MASS SPEC NO=348076
##MOLFORM=C13 H22 O4
##MW=242
##$NIST SOURCE=MSDC
##XUNITS=M/Z
##YUNITS=RELATIVE INTENSITY
##XFACTOR=1
##YFACTOR=1
##FIRSTX=26
##LASTX=227
##FIRSTY=160
##MAXX=227
##MINX=26
##MAXY=9999
##MINY=10
##NPOINTS=52
##PEAK TABLE=(XY..XY)
26,160 27,510 29,500 39,300
40,30 41,961 42,230 43,1261
45,100 53,200 54,641 55,1141
56,701 57,1371 58,60 69,90
70,2432 71,1862 72,130 73,30
81,320 82,1041 83,30 84,50
85,60 87,80 95,20 97,110
99,3223 100,1792 101,140 109,40
114,120 117,220 123,30 126,30
127,100 128,20 141,50 142,390
143,20 154,20 155,9999 156,951
157,140 168,10 169,2152 170,220
171,20 187,70 199,20 227,50
##END=
