##TITLE=Adipic acid, 3-methylbutyl tetradecyl ester
##JCAMP-DX=4.24
##DATA TYPE=MASS SPECTRUM
##ORIGIN=L.N.Kulikova, V.G. Zaikin, RPFU, Moscow, Russia
##OWNER=NIST Mass Spectrometry Data Center
Collection (C) 2014 copyright by the U.S. Secretary of Commerce
on behalf of the United States of America. All rights reserved.
##$NIST MASS SPEC NO=348976
##MOLFORM=C25 H48 O4
##MW=412
##$NIST SOURCE=MSDC
##XUNITS=M/Z
##YUNITS=RELATIVE INTENSITY
##XFACTOR=1
##YFACTOR=1
##FIRSTX=26
##LASTX=397
##FIRSTY=40
##MAXX=397
##MINX=26
##MAXY=9999
##MINY=10
##NPOINTS=111
##PEAK TABLE=(XY..XY)
26,40 27,200 29,430 39,190
40,40 41,1131 42,380 43,2642
44,60 45,30 53,70 54,200
55,1982 56,631 57,1541 58,70
59,110 60,30 61,50 67,250
68,260 69,1081 70,1772 71,3423
72,170 73,200 81,150 82,280
83,951 84,480 85,540 86,130
87,751 88,20 95,100 96,150
97,530 98,220 99,250 100,701
101,1401 102,250 103,90 109,50
110,80 111,2252 112,420 113,150
114,20 115,60 123,20 124,40
125,110 126,140 127,150 128,230
129,9999 130,661 131,110 138,40
139,70 140,70 141,60 143,40
144,50 145,20 147,170 152,10
153,20 154,40 155,50 156,80
157,701 158,60 166,20 168,70
169,20 170,811 171,100 172,20
183,40 184,90 185,170 194,30
196,90 197,70 198,40 199,6466
200,791 201,70 203,20 213,20
214,20 217,861 218,90 240,50
241,140 254,50 257,20 268,30
282,60 283,120 296,50 324,50
325,1141 326,220 327,20 339,30
343,30 369,80 397,40
##END=
