##TITLE=Fumaric acid, decyl 2-hexyl ester
##JCAMP-DX=4.24
##DATA TYPE=MASS SPECTRUM
##ORIGIN=L.N.Kulikova, V.G. Zaikin, RPFU, Moscow, Russia
##OWNER=NIST Mass Spectrometry Data Center
Collection (C) 2014 copyright by the U.S. Secretary of Commerce
on behalf of the United States of America. All rights reserved.
##$NIST MASS SPEC NO=348748
##MOLFORM=C20 H36 O4
##MW=340
##$NIST SOURCE=MSDC
##XUNITS=M/Z
##YUNITS=RELATIVE INTENSITY
##XFACTOR=1
##YFACTOR=1
##FIRSTX=26
##LASTX=311
##FIRSTY=100
##MAXX=311
##MINX=26
##MAXY=9999
##MINY=10
##NPOINTS=139
##PEAK TABLE=(XY..XY)
26,100 27,390 28,270 29,681
30,40 31,30 37,30 39,420
40,100 41,2572 42,1481 43,5315
44,120 45,190 53,380 54,1091
55,6506 56,4004 57,3723 58,220
59,30 65,30 66,60 67,671
68,781 69,5675 70,2422 71,2232
72,250 73,130 74,20 79,50
80,40 81,1001 82,2622 83,6456
84,7617 85,6196 86,440 87,20
94,40 95,340 96,500 97,3403
98,891 99,6065 100,7297 101,1341
102,100 108,40 109,250 110,420
111,1551 112,661 113,230 114,100
115,60 116,170 117,6456 118,1341
119,340 120,20 122,20 123,90
124,80 125,80 126,130 127,230
128,130 129,60 136,70 137,190
138,791 139,460 140,591 141,971
142,120 143,60 145,130 150,60
151,40 152,120 153,360 154,390
155,460 156,250 157,1021 158,130
164,50 165,50 166,60 167,60
168,70 169,60 170,50 171,771
172,120 178,50 179,40 181,120
182,220 183,1772 184,330 185,80
192,30 193,80 194,20 195,90
196,70 197,220 198,30 199,50
200,20 201,1672 202,190 209,60
210,170 211,180 212,30 213,20
220,100 221,20 223,10 227,30
237,30 238,320 239,9999 240,2002
241,300 242,30 254,50 255,50
256,70 257,1101 258,170 259,20
296,30 297,40 311,40
##END=
