##TITLE=Silane, dimethyl(but-3-enyloxy)undecyloxy-
##JCAMP-DX=4.24
##DATA TYPE=MASS SPECTRUM
##ORIGIN=V.G. Zaikin, R.S.Borisov, TIPS RAS, Moscow, Russia
##OWNER=NIST Mass Spectrometry Data Center
Collection (C) 2014 copyright by the U.S. Secretary of Commerce
on behalf of the United States of America. All rights reserved.
##$NIST MASS SPEC NO=348027
##MOLFORM=C17 H36 O2 Si
##MW=300
##$NIST SOURCE=MSDC
##XUNITS=M/Z
##YUNITS=RELATIVE INTENSITY
##XFACTOR=1
##YFACTOR=1
##FIRSTX=29
##LASTX=287
##FIRSTY=50
##MAXX=287
##MINX=29
##MAXY=9999
##MINY=10
##NPOINTS=111
##PEAK TABLE=(XY..XY)
29,50 39,50 41,210 42,40
43,330 45,50 47,30 53,30
54,70 55,390 56,90 57,260
58,50 59,180 61,200 67,150
68,70 69,530 70,120 71,320
74,20 75,1952 76,150 77,450
78,30 79,30 81,140 82,70
83,1121 84,100 85,200 87,140
88,80 89,1571 90,150 91,220
95,120 96,40 97,1471 98,140
99,530 100,80 101,1651 102,150
103,460 104,20 105,480 106,30
107,360 108,20 109,70 111,420
112,40 113,220 114,30 115,2052
116,250 117,340 119,721 120,70
121,20 127,100 129,1611 130,210
131,571 132,40 133,290 134,20
135,40 141,70 143,110 144,20
145,571 146,50 147,210 149,190
151,450 152,50 153,20 155,20
157,110 159,791 160,100 171,80
173,30 175,190 187,190 213,80
215,70 227,140 228,20 229,2973
230,591 231,40 233,90 235,20
243,110 245,160 246,20 255,360
256,60 257,500 258,100 259,9999
260,2142 261,671 262,80 263,10
285,3323 286,801 287,190
##END=
