##TITLE=Silane, dimethyl(but-3-enyloxy)nonyloxy-
##JCAMP-DX=4.24
##DATA TYPE=MASS SPECTRUM
##ORIGIN=V.G. Zaikin, R.S.Borisov, TIPS RAS, Moscow, Russia
##OWNER=NIST Mass Spectrometry Data Center
Collection (C) 2014 copyright by the U.S. Secretary of Commerce
on behalf of the United States of America. All rights reserved.
##$NIST MASS SPEC NO=348025
##MOLFORM=C15 H32 O2 Si
##MW=272
##$NIST SOURCE=MSDC
##XUNITS=M/Z
##YUNITS=RELATIVE INTENSITY
##XFACTOR=1
##YFACTOR=1
##FIRSTX=26
##LASTX=259
##FIRSTY=30
##MAXX=259
##MINX=26
##MAXY=9999
##MINY=20
##NPOINTS=114
##PEAK TABLE=(XY..XY)
26,30 27,170 29,330 39,250
41,741 42,120 43,681 45,310
47,180 53,90 54,170 55,991
56,170 57,571 58,220 59,601
60,70 61,601 62,30 63,40
67,230 68,120 69,3403 70,300
71,360 72,40 73,50 74,70
75,4574 76,350 77,1081 78,60
79,90 81,220 82,100 83,2262
84,170 85,350 86,60 87,370
88,200 89,3393 90,300 91,420
92,20 95,150 96,50 97,80
98,30 99,991 100,150 101,3013
102,330 103,841 104,70 105,671
106,40 107,510 108,30 109,30
111,100 113,410 114,70 115,3523
116,390 117,571 118,50 119,1181
120,100 121,40 123,20 124,20
125,70 127,140 128,30 129,2702
130,300 131,871 132,70 133,280
134,20 141,100 143,270 144,40
145,651 146,60 147,80 157,70
159,1271 160,140 171,30 173,80
183,20 185,120 187,180 199,180
200,20 201,3853 202,681 203,80
215,90 217,80 227,530 228,100
229,771 230,140 231,9999 232,1822
233,490 234,40 243,20 257,3093
258,651 259,180
##END=
