##TITLE=Fumaric acid, isobutyl pent-4-en-2-yl ester
##JCAMP-DX=4.24
##DATA TYPE=MASS SPECTRUM
##ORIGIN=L.N.Kulikova, V.G. Zaikin, RPFU, Moscow, Russia
##OWNER=NIST Mass Spectrometry Data Center
Collection (C) 2014 copyright by the U.S. Secretary of Commerce
on behalf of the United States of America. All rights reserved.
##$NIST MASS SPEC NO=348922
##MOLFORM=C13 H20 O4
##MW=240
##$NIST SOURCE=MSDC
##XUNITS=M/Z
##YUNITS=RELATIVE INTENSITY
##XFACTOR=1
##YFACTOR=1
##FIRSTX=26
##LASTX=199
##FIRSTY=70
##MAXX=199
##MINX=26
##MAXY=9999
##MINY=20
##NPOINTS=46
##PEAK TABLE=(XY..XY)
26,70 27,200 29,130 39,160
40,30 41,530 42,50 43,130
45,40 53,110 54,210 55,260
56,170 57,500 58,20 67,150
68,490 69,500 70,30 71,70
72,20 81,220 82,400 83,20
84,290 85,80 93,20 95,110
97,40 99,2592 100,360 101,70
109,20 112,30 117,60 125,60
126,20 127,130 128,40 140,120
155,9999 156,921 157,110 167,1361
168,140 199,20
##END=
