##TITLE=Fumaric acid, 2,4-dimethylpent-3-yl isobutyl ester
##JCAMP-DX=4.24
##DATA TYPE=MASS SPECTRUM
##ORIGIN=V.G. Zaikin, R.S.Borisov, TIPS RAS, Moscow, Russia
##OWNER=NIST Mass Spectrometry Data Center
Collection (C) 2014 copyright by the U.S. Secretary of Commerce
on behalf of the United States of America. All rights reserved.
##$NIST MASS SPEC NO=348543
##MOLFORM=C15 H26 O4
##MW=270
##$NIST SOURCE=MSDC
##XUNITS=M/Z
##YUNITS=RELATIVE INTENSITY
##XFACTOR=1
##YFACTOR=1
##FIRSTX=26
##LASTX=228
##FIRSTY=80
##MAXX=228
##MINX=26
##MAXY=9999
##MINY=20
##NPOINTS=52
##PEAK TABLE=(XY..XY)
26,80 27,280 29,250 39,160
40,30 41,691 42,70 43,731
44,20 45,30 53,100 54,420
55,611 56,350 57,1952 58,90
67,20 69,60 70,30 71,120
72,60 73,100 81,210 82,901
83,761 84,40 85,20 97,190
98,340 99,2502 100,1441 101,110
109,20 114,130 115,60 117,50
125,50 126,30 127,30 142,380
143,100 144,20 155,9999 156,1051
157,130 169,30 197,861 198,110
199,120 200,70 227,420 228,50
##END=
