##TITLE=Fumaric acid, ethyl 3,4-dimethoxyphenyl ester
##JCAMP-DX=4.24
##DATA TYPE=MASS SPECTRUM
##ORIGIN=V.G. Zaikin, R.S.Borisov, TIPS RAS, Moscow, Russia
##OWNER=NIST Mass Spectrometry Data Center
Collection (C) 2014 copyright by the U.S. Secretary of Commerce
on behalf of the United States of America. All rights reserved.
##$NIST MASS SPEC NO=348163
##MOLFORM=C14 H16 O6
##MW=280
##$NIST SOURCE=MSDC
##XUNITS=M/Z
##YUNITS=RELATIVE INTENSITY
##XFACTOR=1
##YFACTOR=1
##FIRSTX=26
##LASTX=282
##FIRSTY=150
##MAXX=282
##MINX=26
##MAXY=9999
##MINY=20
##NPOINTS=80
##PEAK TABLE=(XY..XY)
26,150 27,270 28,180 29,460
30,20 39,140 40,20 41,50
43,50 44,20 45,70 50,20
51,120 52,160 53,350 54,300
55,410 59,20 63,40 64,20
65,80 66,20 67,20 68,20
69,250 71,200 77,40 79,210
80,50 81,210 82,240 84,30
92,30 93,110 94,30 95,340
96,40 98,20 99,2502 100,120
101,90 107,100 108,80 109,40
110,400 111,260 121,20 122,20
123,50 125,651 126,50 127,2732
128,180 129,30 135,20 137,70
138,80 139,2522 140,270 141,30
148,20 151,30 153,1201 154,9999
155,911 156,90 167,90 176,70
179,30 182,540 183,60 206,50
207,370 208,40 235,751 236,110
237,50 280,2432 281,370 282,50
##END=
