##TITLE=Malonic acid, butyl 3-methylpentyl ester
##JCAMP-DX=4.24
##DATA TYPE=MASS SPECTRUM
##ORIGIN=V.G. Zaikin, R.S.Borisov, TIPS RAS, Moscow, Russia
##OWNER=NIST Mass Spectrometry Data Center
Collection (C) 2014 copyright by the U.S. Secretary of Commerce
on behalf of the United States of America. All rights reserved.
##$NIST MASS SPEC NO=348673
##MOLFORM=C13 H24 O4
##MW=244
##$NIST SOURCE=MSDC
##XUNITS=M/Z
##YUNITS=RELATIVE INTENSITY
##XFACTOR=1
##YFACTOR=1
##FIRSTX=26
##LASTX=215
##FIRSTY=70
##MAXX=215
##MINX=26
##MAXY=9999
##MINY=20
##NPOINTS=64
##PEAK TABLE=(XY..XY)
26,70 27,601 29,1782 30,30
39,430 40,80 41,2372 42,881
43,2652 45,20 53,130 54,200
55,2612 56,2993 57,3904 58,70
60,260 61,60 67,110 68,70
69,3413 70,150 71,130 72,60
73,90 82,40 83,460 84,4894
85,5835 86,400 87,2462 88,60
89,90 91,40 99,40 100,30
101,80 104,40 105,9999 106,350
107,80 113,80 114,70 115,30
116,40 117,30 125,20 129,20
131,120 132,250 133,140 141,30
143,851 144,60 159,180 160,30
161,1712 162,120 171,921 172,90
187,440 188,60 189,90 215,190
##END=
