##TITLE=Malonic acid, isobutyl 3-methylpentyl ester
##JCAMP-DX=4.24
##DATA TYPE=MASS SPECTRUM
##ORIGIN=V.G. Zaikin, R.S.Borisov, TIPS RAS, Moscow, Russia
##OWNER=NIST Mass Spectrometry Data Center
Collection (C) 2014 copyright by the U.S. Secretary of Commerce
on behalf of the United States of America. All rights reserved.
##$NIST MASS SPEC NO=348672
##MOLFORM=C13 H24 O4
##MW=244
##$NIST SOURCE=MSDC
##XUNITS=M/Z
##YUNITS=RELATIVE INTENSITY
##XFACTOR=1
##YFACTOR=1
##FIRSTX=26
##LASTX=229
##FIRSTY=70
##MAXX=229
##MINX=26
##MAXY=9999
##MINY=10
##NPOINTS=73
##PEAK TABLE=(XY..XY)
26,70 27,731 29,2072 30,120
39,641 40,120 41,3303 42,1341
43,3944 45,20 53,170 54,220
55,3093 56,3944 57,9018 58,310
59,30 60,260 67,160 68,100
69,4134 70,280 71,270 72,90
73,180 81,10 82,70 83,721
84,6156 85,9999 86,681 87,2272
88,70 89,50 90,30 99,60
100,70 101,140 102,20 104,50
105,9418 106,350 107,80 112,40
113,80 114,100 115,320 116,40
117,30 118,160 119,20 125,80
127,50 130,140 131,180 132,691
133,370 134,20 141,40 143,520
144,40 145,50 159,330 160,40
161,631 162,30 171,1922 172,190
187,460 188,60 189,160 215,140
229,50
##END=
