##TITLE=Silane, dimethyl(dec-4-enyloxy)octyloxy-
##JCAMP-DX=4.24
##DATA TYPE=MASS SPECTRUM
##ORIGIN=V.G. Zaikin, R.S.Borisov, TIPS RAS, Moscow, Russia
##OWNER=NIST Mass Spectrometry Data Center
Collection (C) 2014 copyright by the U.S. Secretary of Commerce
on behalf of the United States of America. All rights reserved.
##$NIST MASS SPEC NO=348012
##MOLFORM=C20 H42 O2 Si
##MW=342
##$NIST SOURCE=MSDC
##XUNITS=M/Z
##YUNITS=RELATIVE INTENSITY
##XFACTOR=1
##YFACTOR=1
##FIRSTX=26
##LASTX=344
##FIRSTY=90
##MAXX=344
##MINX=26
##MAXY=9999
##MINY=10
##NPOINTS=157
##PEAK TABLE=(XY..XY)
26,90 27,410 29,711 39,450
40,50 41,2042 42,460 43,1351
45,130 47,70 50,10 51,40
52,30 53,320 54,2072 55,3043
56,591 57,1221 58,70 59,711
60,30 61,611 62,10 63,70
65,90 66,540 67,4384 68,9999
69,3793 70,480 71,711 72,10
74,40 75,6676 76,480 77,3463
78,220 79,661 80,300 81,6095
82,5065 83,1331 84,200 85,130
87,300 88,90 89,2142 90,120
91,621 92,20 93,751 94,110
95,3613 96,4924 97,821 98,60
99,400 100,20 101,1661 102,180
103,771 104,30 105,1511 106,60
107,130 108,40 109,2432 110,3143
111,480 112,60 113,380 114,70
115,1061 116,90 117,390 118,70
119,310 121,30 123,210 124,10
125,20 127,390 128,110 129,801
130,80 131,1101 132,80 133,190
136,50 137,270 138,7026 139,781
140,10 141,240 142,20 143,440
144,40 145,490 146,10 154,10
155,140 157,160 158,10 159,430
160,20 167,20 169,80 171,330
172,10 173,110 183,50 185,80
186,20 187,2102 188,290 189,2412
190,300 191,50 197,581 198,40
199,1111 200,120 201,90 203,40
205,240 206,20 212,130 213,881
214,110 215,951 216,130 217,881
218,90 229,90 230,40 231,30
243,2502 244,410 245,90 255,10
257,210 258,10 267,10 285,220
286,10 297,10 299,801 300,130
301,20 313,120 314,10 327,2412
328,561 329,30 342,571 343,100
344,10
##END=
