##TITLE=Silane, dimethyl(but-3-enyloxy)tridecyloxy-
##JCAMP-DX=4.24
##DATA TYPE=MASS SPECTRUM
##ORIGIN=V.G. Zaikin, R.S.Borisov, TIPS RAS, Moscow, Russia
##OWNER=NIST Mass Spectrometry Data Center
Collection (C) 2014 copyright by the U.S. Secretary of Commerce
on behalf of the United States of America. All rights reserved.
##$NIST MASS SPEC NO=348029
##MOLFORM=C19 H40 O2 Si
##MW=328
##$NIST SOURCE=MSDC
##XUNITS=M/Z
##YUNITS=RELATIVE INTENSITY
##XFACTOR=1
##YFACTOR=1
##FIRSTX=26
##LASTX=315
##FIRSTY=30
##MAXX=315
##MINX=26
##MAXY=9999
##MINY=20
##NPOINTS=135
##PEAK TABLE=(XY..XY)
26,30 27,160 29,390 39,260
40,20 41,1031 42,230 43,1401
44,90 45,220 47,140 53,100
54,240 55,1862 56,350 57,1672
58,200 59,581 60,70 61,721
62,30 63,50 66,20 67,440
68,260 69,2192 70,310 71,691
72,40 73,90 74,70 75,5585
76,400 77,1772 78,80 79,60
80,20 81,430 82,300 83,2843
84,280 85,530 86,30 87,380
88,170 89,3914 90,340 91,611
92,20 93,90 95,460 96,170
97,2642 98,230 99,1151 100,160
101,3303 102,340 103,1001 104,60
105,1091 106,80 107,941 108,60
109,200 110,50 111,1231 112,130
113,420 114,90 115,4134 116,420
117,731 118,60 119,1451 120,100
121,40 123,60 124,20 125,350
126,40 127,150 128,30 129,3033
130,340 131,1071 132,90 133,500
134,30 137,20 139,20 141,130
143,210 144,30 145,841 146,90
147,110 149,50 151,70 155,40
157,130 159,1551 160,180 161,60
169,20 171,120 173,30 185,80
187,210 199,40 201,60 207,20
215,50 225,50 229,60 241,80
243,20 255,110 257,2903 258,581
259,200 260,20 271,100 273,40
283,270 284,30 285,370 286,70
287,9999 288,2242 289,540 290,40
313,3393 314,771 315,70
##END=
