##TITLE=Fumaric acid, 2-butyl isobutyl ester
##JCAMP-DX=4.24
##DATA TYPE=MASS SPECTRUM
##ORIGIN=V.G. Zaikin, R.S.Borisov, TIPS RAS, Moscow, Russia
##OWNER=NIST Mass Spectrometry Data Center
Collection (C) 2014 copyright by the U.S. Secretary of Commerce
on behalf of the United States of America. All rights reserved.
##$NIST MASS SPEC NO=348639
##MOLFORM=C12 H20 O4
##MW=228
##$NIST SOURCE=MSDC
##XUNITS=M/Z
##YUNITS=RELATIVE INTENSITY
##XFACTOR=1
##YFACTOR=1
##FIRSTX=26
##LASTX=185
##FIRSTY=30
##MAXX=185
##MINX=26
##MAXY=9999
##MINY=20
##NPOINTS=43
##PEAK TABLE=(XY..XY)
26,30 27,80 29,130 39,220
40,30 41,1051 42,90 43,260
45,90 53,210 54,651 55,851
56,2332 57,2612 58,130 71,140
72,90 73,200 81,420 82,901
83,60 85,80 97,20 99,4094
100,1621 101,140 109,80 114,50
117,2572 118,130 119,20 126,60
127,250 128,90 129,60 142,50
154,70 155,9999 156,981 157,130
173,681 174,60 185,20
##END=
