##TITLE=Fumaric acid, 3-hexyl propyl ester
##JCAMP-DX=4.24
##DATA TYPE=MASS SPECTRUM
##ORIGIN=V.G. Zaikin, R.S.Borisov, TIPS RAS, Moscow, Russia
##OWNER=NIST Mass Spectrometry Data Center
Collection (C) 2014 copyright by the U.S. Secretary of Commerce
on behalf of the United States of America. All rights reserved.
##$NIST MASS SPEC NO=348602
##MOLFORM=C13 H22 O4
##MW=242
##$NIST SOURCE=MSDC
##XUNITS=M/Z
##YUNITS=RELATIVE INTENSITY
##XFACTOR=1
##YFACTOR=1
##FIRSTX=27
##LASTX=201
##FIRSTY=70
##MAXX=201
##MINX=27
##MAXY=9999
##MINY=10
##NPOINTS=52
##PEAK TABLE=(XY..XY)
27,70 29,50 39,100 40,20
41,390 42,250 43,851 44,70
45,50 53,140 54,360 55,731
56,400 57,100 58,10 59,70
67,20 69,270 71,160 72,40
73,10 81,290 82,540 83,80
84,1071 85,210 89,10 97,130
99,2182 100,791 101,100 112,20
113,60 114,20 117,921 118,40
124,20 128,50 129,30 141,9999
142,1121 143,130 155,30 156,20
159,540 160,50 171,30 172,20
183,1101 184,120 185,40 201,40
##END=
