##TITLE=Silane, dimethyl(dec-4-enyloxy)pentyloxy-
##JCAMP-DX=4.24
##DATA TYPE=MASS SPECTRUM
##ORIGIN=V.G. Zaikin, R.S.Borisov, TIPS RAS, Moscow, Russia
##OWNER=NIST Mass Spectrometry Data Center
Collection (C) 2014 copyright by the U.S. Secretary of Commerce
on behalf of the United States of America. All rights reserved.
##$NIST MASS SPEC NO=348009
##MOLFORM=C17 H36 O2 Si
##MW=300
##$NIST SOURCE=MSDC
##XUNITS=M/Z
##YUNITS=RELATIVE INTENSITY
##XFACTOR=1
##YFACTOR=1
##FIRSTX=26
##LASTX=301
##FIRSTY=70
##MAXX=301
##MINX=26
##MAXY=9999
##MINY=10
##NPOINTS=144
##PEAK TABLE=(XY..XY)
26,70 27,380 29,811 31,10
38,20 39,520 40,40 41,2402
42,550 43,1421 45,320 47,230
50,10 51,20 52,20 53,410
54,2352 55,2292 56,310 57,320
58,140 59,961 60,90 61,871
62,20 63,90 65,100 66,571
67,5015 68,9999 69,2402 70,350
71,200 72,10 73,70 74,80
75,8277 76,540 77,4494 78,230
79,791 80,320 81,6636 82,4904
83,971 84,110 85,140 86,20
87,260 88,110 89,2482 90,180
91,801 92,40 93,581 94,90
95,3483 96,4014 97,691 98,40
99,450 100,30 101,1561 102,130
103,711 104,10 105,1551 106,50
107,70 108,30 109,2052 110,2222
111,200 112,10 113,340 114,60
115,991 116,90 117,290 118,30
119,250 121,20 123,130 125,20
127,430 128,110 129,831 130,50
131,1101 132,60 133,140 136,30
137,220 138,4794 139,470 141,220
143,350 144,80 145,2813 146,290
147,2432 148,200 149,90 155,100
157,100 159,671 160,40 161,90
163,240 169,50 171,120 173,761
174,50 175,731 176,20 183,30
185,30 187,20 188,70 189,10
197,350 198,40 199,731 200,80
201,1321 202,140 203,20 209,10
212,30 213,500 214,80 215,230
229,20 243,440 244,40 257,270
258,20 267,10 271,120 285,771
286,160 287,40 300,140 301,10
##END=
