##TITLE=Fumaric acid, 2-methylpentyl tetradecyl ester
##JCAMP-DX=4.24
##DATA TYPE=MASS SPECTRUM
##ORIGIN=V.G. Zaikin, R.S.Borisov, TIPS RAS, Moscow, Russia
##OWNER=NIST Mass Spectrometry Data Center
Collection (C) 2014 copyright by the U.S. Secretary of Commerce
on behalf of the United States of America. All rights reserved.
##$NIST MASS SPEC NO=348732
##MOLFORM=C24 H44 O4
##MW=396
##$NIST SOURCE=MSDC
##XUNITS=M/Z
##YUNITS=RELATIVE INTENSITY
##XFACTOR=1
##YFACTOR=1
##FIRSTX=26
##LASTX=381
##FIRSTY=120
##MAXX=381
##MINX=26
##MAXY=9999
##MINY=20
##NPOINTS=174
##PEAK TABLE=(XY..XY)
26,120 27,420 29,530 31,30
39,330 40,50 41,2112 42,561
43,4924 44,150 45,70 53,240
54,671 55,4014 56,1591 57,3974
58,230 59,160 65,30 66,50
67,641 68,591 69,5945 70,1231
71,2232 72,200 73,70 77,20
79,60 80,50 81,751 82,1962
83,4934 84,6936 85,9999 86,711
87,20 93,50 94,50 95,420
96,591 97,4324 98,691 99,2823
100,4914 101,1161 102,80 105,20
107,40 108,30 109,290 110,310
111,2592 112,440 113,390 114,170
115,50 117,1081 118,1041 119,400
120,20 121,40 122,40 123,190
124,230 125,1211 126,310 127,280
128,70 129,50 130,20 133,20
135,40 136,50 137,230 138,220
139,500 140,160 141,270 142,440
143,290 144,120 145,20 149,20
150,40 151,80 152,130 153,290
154,230 155,350 156,90 157,430
158,40 163,20 164,60 165,60
166,160 167,90 168,180 169,120
170,30 171,681 172,100 177,20
178,30 179,40 180,50 181,100
182,190 183,741 184,150 185,30
192,30 193,40 194,410 195,240
196,190 197,550 198,90 199,50
200,20 201,811 202,100 209,80
210,70 211,160 212,40 213,170
214,20 221,20 223,100 224,90
225,60 226,30 227,30 231,20
234,40 235,40 237,140 238,130
239,70 240,40 241,70 248,20
249,90 250,30 251,130 252,200
253,170 254,40 255,40 265,80
266,200 267,130 268,40 269,30
276,100 277,90 293,20 294,591
295,2863 296,931 297,160 312,170
313,160 314,40 325,20 326,20
338,200 339,120 340,50 367,120
368,30 381,40
##END=
