##TITLE=Silane, dimethyl(trans-3,7-dimethyl-2,6-octadien-1-yloxy)nonyloxy-
##JCAMP-DX=4.24
##DATA TYPE=MASS SPECTRUM
##ORIGIN=V.G. Zaikin, R.S.Borisov, TIPS RAS, Moscow, Russia
##OWNER=NIST Mass Spectrometry Data Center
Collection (C) 2014 copyright by the U.S. Secretary of Commerce
on behalf of the United States of America. All rights reserved.
##$NIST MASS SPEC NO=348050
##MOLFORM=C21 H42 O2 Si
##MW=354
##$NIST SOURCE=MSDC
##XUNITS=M/Z
##YUNITS=RELATIVE INTENSITY
##XFACTOR=1
##YFACTOR=1
##FIRSTX=27
##LASTX=356
##FIRSTY=190
##MAXX=356
##MINX=27
##MAXY=9999
##MINY=10
##NPOINTS=180
##PEAK TABLE=(XY..XY)
27,190 29,280 39,290 40,70
41,2062 42,220 43,831 45,130
47,130 51,40 52,30 53,340
54,120 55,1221 56,250 57,611
58,70 59,370 60,40 61,350
62,10 63,70 65,90 66,40
67,851 68,1511 69,7237 70,540
71,410 73,20 74,90 75,9589
76,711 77,3653 78,210 79,410
80,1892 81,1471 82,390 83,1531
84,140 85,190 87,130 88,60
89,1491 90,130 91,611 92,1251
93,6126 94,1221 95,961 96,110
97,140 98,50 99,210 101,1381
102,130 103,340 104,30 105,981
106,80 107,1922 108,540 109,330
110,210 111,80 113,310 114,30
115,460 116,60 117,320 118,30
119,300 120,40 121,9999 122,1471
123,3904 124,400 125,150 126,40
127,791 128,210 129,851 130,170
131,440 132,30 133,310 134,50
135,410 136,4094 137,631 138,20
139,20 141,290 142,130 143,3853
144,540 145,701 146,80 147,110
149,110 153,30 155,641 156,110
157,460 158,210 159,771 160,80
161,30 163,30 165,20 167,30
169,170 170,20 171,731 172,340
173,250 174,20 175,10 183,30
185,440 186,50 187,120 195,90
197,100 198,30 199,270 200,40
201,4104 202,701 203,1601 204,220
205,50 210,90 211,50 213,180
214,20 215,120 217,170 219,50
221,20 227,300 228,190 229,240
230,20 231,290 232,30 241,280
242,50 243,60 245,10 255,140
257,40 259,2142 260,440 261,100
269,530 270,110 271,1822 272,1531
273,400 274,60 283,751 284,540
285,550 286,120 297,691 298,200
299,130 309,20 311,1922 312,520
313,130 339,1792 340,490 341,100
353,110 354,1621 355,390 356,80
##END=
