##TITLE=Fumaric acid, heptyl pent-4-enyl ester
##JCAMP-DX=4.24
##DATA TYPE=MASS SPECTRUM
##ORIGIN=L.N.Kulikova, V.G. Zaikin, RPFU, Moscow, Russia
##OWNER=NIST Mass Spectrometry Data Center
Collection (C) 2014 copyright by the U.S. Secretary of Commerce
on behalf of the United States of America. All rights reserved.
##$NIST MASS SPEC NO=348849
##MOLFORM=C16 H26 O4
##MW=282
##$NIST SOURCE=MSDC
##XUNITS=M/Z
##YUNITS=RELATIVE INTENSITY
##XFACTOR=1
##YFACTOR=1
##FIRSTX=26
##LASTX=241
##FIRSTY=140
##MAXX=241
##MINX=26
##MAXY=9999
##MINY=20
##NPOINTS=81
##PEAK TABLE=(XY..XY)
26,140 27,460 29,550 30,20
31,20 39,420 40,150 41,2072
42,520 43,931 45,40 53,480
54,601 55,2272 56,1011 57,1922
58,80 65,40 66,60 67,2112
68,9999 69,3123 70,981 71,1722
72,120 73,20 81,350 82,851
83,130 84,220 85,110 86,20
87,20 93,30 95,50 96,50
97,360 98,360 99,1842 100,761
101,150 109,60 110,50 111,50
112,50 113,140 114,20 115,40
117,320 118,20 121,20 122,20
123,40 124,20 126,20 127,20
137,20 138,140 139,681 140,100
141,30 143,40 151,30 153,50
154,30 155,40 156,20 157,40
166,340 167,60 168,100 169,50
183,230 184,160 185,70 197,1341
198,210 199,20 215,60 225,50
241,100
##END=
