##TITLE=Fumaric acid, butyl cis-hex-3-enyl ester
##JCAMP-DX=4.24
##DATA TYPE=MASS SPECTRUM
##ORIGIN=L.N.Kulikova, V.G. Zaikin, RPFU, Moscow, Russia
##OWNER=NIST Mass Spectrometry Data Center
Collection (C) 2014 copyright by the U.S. Secretary of Commerce
on behalf of the United States of America. All rights reserved.
##$NIST MASS SPEC NO=348861
##MOLFORM=C14 H22 O4
##MW=254
##$NIST SOURCE=MSDC
##XUNITS=M/Z
##YUNITS=RELATIVE INTENSITY
##XFACTOR=1
##YFACTOR=1
##FIRSTX=26
##LASTX=182
##FIRSTY=170
##MAXX=182
##MINX=26
##MAXY=9999
##MINY=20
##NPOINTS=43
##PEAK TABLE=(XY..XY)
26,170 27,470 29,591 30,20
31,20 39,370 40,60 41,1311
42,70 45,30 53,320 54,731
55,1211 56,230 57,260 65,60
66,60 67,5085 68,420 72,40
77,20 79,40 80,30 81,1371
82,9999 83,791 95,30 98,30
99,1952 100,400 101,20 109,60
117,450 123,20 127,30 139,20
153,40 155,2592 156,250 157,30
173,60 181,260 182,20
##END=
