##TITLE=Fumaric acid, 2,4-dimethylpent-3-yl heptyl ester
##JCAMP-DX=4.24
##DATA TYPE=MASS SPECTRUM
##ORIGIN=V.G. Zaikin, R.S.Borisov, TIPS RAS, Moscow, Russia
##OWNER=NIST Mass Spectrometry Data Center
Collection (C) 2014 copyright by the U.S. Secretary of Commerce
on behalf of the United States of America. All rights reserved.
##$NIST MASS SPEC NO=348548
##MOLFORM=C18 H32 O4
##MW=312
##$NIST SOURCE=MSDC
##XUNITS=M/Z
##YUNITS=RELATIVE INTENSITY
##XFACTOR=1
##YFACTOR=1
##FIRSTX=26
##LASTX=270
##FIRSTY=120
##MAXX=270
##MINX=26
##MAXY=9999
##MINY=20
##NPOINTS=68
##PEAK TABLE=(XY..XY)
26,120 27,480 29,480 31,20
39,250 40,50 41,1291 42,300
43,1581 44,50 45,50 53,180
54,581 55,2853 56,851 57,3483
58,150 59,20 67,100 68,110
69,651 70,440 71,230 72,110
73,150 81,350 82,1231 83,1401
84,80 95,20 96,60 97,681
98,961 99,3783 100,2722 101,340
102,20 109,30 112,60 113,20
114,190 115,230 117,180 118,50
123,20 125,60 126,50 127,30
139,30 142,520 143,280 144,40
151,20 153,30 154,40 155,60
157,70 169,90 171,60 196,20
197,9999 198,1571 199,170 215,120
241,140 242,110 269,330 270,50
##END=
