##TITLE=Fumaric acid, 2-butyl heptadecyl ester
##JCAMP-DX=4.24
##DATA TYPE=MASS SPECTRUM
##ORIGIN=V.G. Zaikin, R.S.Borisov, TIPS RAS, Moscow, Russia
##OWNER=NIST Mass Spectrometry Data Center
Collection (C) 2014 copyright by the U.S. Secretary of Commerce
on behalf of the United States of America. All rights reserved.
##$NIST MASS SPEC NO=348654
##MOLFORM=C25 H46 O4
##MW=410
##$NIST SOURCE=MSDC
##XUNITS=M/Z
##YUNITS=RELATIVE INTENSITY
##XFACTOR=1
##YFACTOR=1
##FIRSTX=26
##LASTX=356
##FIRSTY=150
##MAXX=356
##MINX=26
##MAXY=9999
##MINY=10
##NPOINTS=219
##PEAK TABLE=(XY..XY)
26,150 27,380 28,400 29,1011
30,20 37,20 39,450 40,120
41,3053 42,681 43,4124 44,380
45,100 50,20 51,70 52,50
53,360 54,901 55,5735 56,3743
57,7517 58,350 59,30 65,50
66,110 67,1201 68,1181 69,5645
70,1882 71,3463 72,320 73,400
74,20 77,60 78,30 79,210
80,140 81,1171 82,2262 83,6436
84,1431 85,2462 86,140 87,30
91,100 93,120 94,120 95,941
96,1351 97,6015 98,971 99,4884
100,5815 101,1611 102,100 103,10
105,70 106,20 107,80 108,80
109,631 110,661 111,3133 112,621
113,540 114,80 115,70 116,40
117,9999 118,3083 119,1521 120,60
121,90 122,90 123,470 124,520
125,1391 126,450 127,731 128,170
129,100 130,80 131,40 133,50
135,110 136,100 137,400 138,370
139,631 140,250 141,581 142,100
143,80 144,20 145,20 146,20
147,30 149,80 150,60 151,230
152,360 153,611 154,420 155,1722
156,540 157,591 158,60 159,120
163,40 164,80 165,170 166,240
167,290 168,180 169,230 170,80
171,651 172,110 173,2172 174,320
175,140 177,30 178,60 179,140
180,200 181,280 182,310 183,240
184,70 189,20 191,30 192,30
193,100 194,120 195,240 196,210
197,370 198,50 199,60 200,20
205,30 206,50 207,120 208,120
209,190 210,270 211,310 212,60
213,110 214,20 215,20 219,30
220,30 221,70 222,50 223,230
224,180 225,240 226,70 227,100
228,40 233,20 234,40 235,80
236,601 237,520 238,330 239,520
240,90 241,50 247,40 248,20
249,20 251,330 252,240 253,330
254,60 255,110 256,20 262,20
263,30 265,350 266,300 267,120
268,50 269,100 270,20 273,30
276,40 277,40 279,270 280,320
281,120 283,90 289,20 290,40
291,130 292,30 293,160 294,270
295,350 296,40 297,50 307,70
308,250 309,140 311,30 318,180
319,150 325,20 335,30 336,791
337,1101 338,270 339,40 353,50
354,70 355,390 356,80
##END=
