##TITLE=Fumaric acid, 3-methylbut-2-yl undecyl ester
##JCAMP-DX=4.24
##DATA TYPE=MASS SPECTRUM
##ORIGIN=V.G. Zaikin, R.S.Borisov, TIPS RAS, Moscow, Russia
##OWNER=NIST Mass Spectrometry Data Center
Collection (C) 2014 copyright by the U.S. Secretary of Commerce
on behalf of the United States of America. All rights reserved.
##$NIST MASS SPEC NO=348083
##MOLFORM=C20 H36 O4
##MW=340
##$NIST SOURCE=MSDC
##XUNITS=M/Z
##YUNITS=RELATIVE INTENSITY
##XFACTOR=1
##YFACTOR=1
##FIRSTX=25
##LASTX=325
##FIRSTY=30
##MAXX=325
##MINX=25
##MAXY=9999
##MINY=10
##NPOINTS=142
##PEAK TABLE=(XY..XY)
25,30 26,350 27,1091 29,1481
30,30 31,30 36,20 38,20
39,621 40,140 41,3493 42,1201
43,6916 44,520 45,220 50,20
51,30 53,380 54,991 55,5935
56,2072 57,4214 58,180 59,10
65,30 66,50 67,581 68,651
69,4264 70,7837 71,9999 72,540
73,80 77,30 79,80 80,30
81,581 82,1732 83,3883 84,1041
85,1451 86,110 87,220 91,310
93,110 94,30 95,280 96,370
97,3683 98,651 99,2752 100,4174
101,641 102,50 104,30 105,130
107,50 109,130 110,180 111,1021
112,280 113,230 114,130 115,40
117,1031 118,601 119,230 120,20
121,30 122,20 123,120 124,150
125,190 126,290 127,200 128,50
129,20 133,30 135,20 137,30
138,40 139,120 140,120 141,310
142,360 143,190 144,50 145,60
147,50 149,20 150,30 151,40
152,230 153,200 154,280 155,200
156,50 157,320 158,30 159,50
161,20 166,30 167,30 168,90
169,781 170,150 171,470 172,70
173,40 175,20 181,50 182,70
183,60 184,20 185,20 187,641
188,70 189,20 195,50 196,30
197,50 198,20 199,30 207,20
209,30 210,20 211,90 213,20
223,30 224,70 225,70 227,30
234,30 252,140 253,2592 254,571
255,70 270,40 271,50 296,40
297,10 325,30
##END=
