##TITLE=Malonic acid, 2-ethylbutyl isohexyl ester
##JCAMP-DX=4.24
##DATA TYPE=MASS SPECTRUM
##ORIGIN=L.N.Kulikova, V.G. Zaikin, RPFU, Moscow, Russia
##OWNER=NIST Mass Spectrometry Data Center
Collection (C) 2014 copyright by the U.S. Secretary of Commerce
on behalf of the United States of America. All rights reserved.
##$NIST MASS SPEC NO=348956
##MOLFORM=C15 H28 O4
##MW=272
##$NIST SOURCE=MSDC
##XUNITS=M/Z
##YUNITS=RELATIVE INTENSITY
##XFACTOR=1
##YFACTOR=1
##FIRSTX=29
##LASTX=243
##FIRSTY=30
##MAXX=243
##MINX=29
##MAXY=9999
##MINY=20
##NPOINTS=59
##PEAK TABLE=(XY..XY)
29,30 39,180 40,30 41,961
42,681 43,4674 44,40 45,30
53,100 54,140 55,1641 56,1581
57,901 59,110 60,270 61,20
67,90 68,40 69,2232 71,210
72,100 82,40 83,250 84,7357
85,9999 86,661 87,1071 88,30
89,20 90,270 98,40 99,130
100,180 101,581 102,30 105,3934
106,160 107,40 111,520 112,40
114,20 117,50 118,2562 119,310
120,30 125,180 129,50 130,50
141,50 153,140 158,50 159,140
160,40 171,530 172,50 188,120
189,100 202,30 243,90
##END=
