##TITLE=Fumaric acid, cis-hex-3-enyl decyl ester
##JCAMP-DX=4.24
##DATA TYPE=MASS SPECTRUM
##ORIGIN=L.N.Kulikova, V.G. Zaikin, RPFU, Moscow, Russia
##OWNER=NIST Mass Spectrometry Data Center
Collection (C) 2014 copyright by the U.S. Secretary of Commerce
on behalf of the United States of America. All rights reserved.
##$NIST MASS SPEC NO=348866
##MOLFORM=C20 H34 O4
##MW=338
##$NIST SOURCE=MSDC
##XUNITS=M/Z
##YUNITS=RELATIVE INTENSITY
##XFACTOR=1
##YFACTOR=1
##FIRSTX=26
##LASTX=257
##FIRSTY=80
##MAXX=257
##MINX=26
##MAXY=9999
##MINY=20
##NPOINTS=73
##PEAK TABLE=(XY..XY)
26,80 27,290 29,410 39,250
40,40 41,1311 42,270 43,1141
45,20 53,200 54,470 55,2112
56,510 57,861 58,30 65,40
66,50 67,3083 68,330 69,1041
70,440 71,390 72,40 79,30
80,20 81,701 82,9999 83,2382
84,330 85,290 86,20 95,70
96,60 97,480 98,120 99,811
100,591 101,140 109,50 110,40
111,130 112,90 113,30 117,440
118,90 119,20 123,20 125,20
126,20 127,30 138,30 139,50
140,60 141,50 153,80 154,30
155,50 156,20 157,70 169,40
171,50 173,30 181,50 182,50
183,40 187,20 197,40 199,30
201,30 211,20 239,210 240,30
257,30
##END=
