##TITLE=Adipic acid, heptyl 3-methylbutyl ester
##JCAMP-DX=4.24
##DATA TYPE=MASS SPECTRUM
##ORIGIN=L.N.Kulikova, V.G. Zaikin, RPFU, Moscow, Russia
##OWNER=NIST Mass Spectrometry Data Center
Collection (C) 2014 copyright by the U.S. Secretary of Commerce
on behalf of the United States of America. All rights reserved.
##$NIST MASS SPEC NO=348969
##MOLFORM=C18 H34 O4
##MW=314
##$NIST SOURCE=MSDC
##XUNITS=M/Z
##YUNITS=RELATIVE INTENSITY
##XFACTOR=1
##YFACTOR=1
##FIRSTX=26
##LASTX=299
##FIRSTY=40
##MAXX=299
##MINX=26
##MAXY=9999
##MINY=20
##NPOINTS=83
##PEAK TABLE=(XY..XY)
26,40 27,250 29,540 31,20
39,210 40,40 41,1191 42,460
43,2282 44,80 45,50 53,80
54,140 55,1862 56,811 57,2002
58,100 59,160 60,50 61,150
67,80 68,160 69,530 70,2292
71,3133 72,170 73,280 74,20
81,40 82,40 83,581 84,310
85,120 86,40 87,1321 88,50
96,40 97,50 98,350 99,200
100,1081 101,1481 102,300 103,100
110,70 111,2722 112,490 113,50
115,60 127,60 128,220 129,9999
130,711 131,90 143,180 147,80
155,20 156,50 157,781 158,70
170,811 171,140 172,20 183,30
184,80 185,701 186,70 198,430
199,4344 200,611 201,50 213,130
217,210 218,20 227,2762 228,390
229,30 241,100 245,80 257,30
271,170 272,20 299,30
##END=
