##TITLE=Fumaric acid, nonyl pent-4-en-2-yl ester
##JCAMP-DX=4.24
##DATA TYPE=MASS SPECTRUM
##ORIGIN=L.N.Kulikova, V.G. Zaikin, RPFU, Moscow, Russia
##OWNER=NIST Mass Spectrometry Data Center
Collection (C) 2014 copyright by the U.S. Secretary of Commerce
on behalf of the United States of America. All rights reserved.
##$NIST MASS SPEC NO=348928
##MOLFORM=C18 H30 O4
##MW=310
##$NIST SOURCE=MSDC
##XUNITS=M/Z
##YUNITS=RELATIVE INTENSITY
##XFACTOR=1
##YFACTOR=1
##FIRSTX=26
##LASTX=227
##FIRSTY=90
##MAXX=227
##MINX=26
##MAXY=9999
##MINY=10
##NPOINTS=67
##PEAK TABLE=(XY..XY)
26,90 27,290 29,330 39,320
40,100 41,1682 42,340 43,1371
45,50 53,290 54,510 55,2392
56,631 57,1001 58,40 65,30
66,30 67,581 68,2682 69,6926
70,781 71,721 72,70 73,20
81,430 82,1111 83,2592 84,340
85,380 86,30 93,40 95,200
96,70 97,520 98,200 99,2272
100,871 101,510 102,20 109,30
112,80 113,30 118,70 123,30
124,40 125,60 126,90 127,160
138,20 139,40 140,300 141,40
143,130 153,70 154,30 157,100
167,571 168,130 171,100 179,20
182,20 185,140 186,10 224,30
225,9999 226,1451 227,150
##END=
