##TITLE=Fumaric acid, hexyl myrtenyl ester
##JCAMP-DX=4.24
##DATA TYPE=MASS SPECTRUM
##ORIGIN=L.N.Kulikova, V.G. Zaikin, RPFU, Moscow, Russia
##OWNER=NIST Mass Spectrometry Data Center
Collection (C) 2014 copyright by the U.S. Secretary of Commerce
on behalf of the United States of America. All rights reserved.
##$NIST MASS SPEC NO=348815
##MOLFORM=C20 H30 O4
##MW=334
##$NIST SOURCE=MSDC
##XUNITS=M/Z
##YUNITS=RELATIVE INTENSITY
##XFACTOR=1
##YFACTOR=1
##FIRSTX=26
##LASTX=233
##FIRSTY=120
##MAXX=233
##MINX=26
##MAXY=9999
##MINY=10
##NPOINTS=94
##PEAK TABLE=(XY..XY)
26,120 27,380 28,100 29,260
39,310 40,70 41,1141 42,270
43,1712 44,150 45,40 50,20
51,60 52,20 53,280 54,220
55,921 56,430 57,250 63,20
65,180 66,60 67,270 68,150
69,360 70,30 71,60 72,40
73,20 77,510 78,380 79,1051
80,160 81,290 82,250 83,170
84,120 85,671 86,30 89,20
91,9999 92,3683 93,1201 94,110
95,100 96,30 97,20 98,40
99,1201 100,1071 101,100 102,10
103,100 104,70 105,881 106,490
107,400 108,70 109,120 110,20
111,20 112,20 115,80 116,30
117,470 118,80 119,4064 120,420
121,220 123,30 128,20 131,40
132,40 133,260 134,2412 135,470
136,40 137,20 144,20 145,40
147,30 149,30 151,60 152,30
157,20 159,30 161,140 162,100
163,20 183,550 184,170 188,20
201,30 233,20
##END=
