##TITLE=Fumaric acid, 2-heptyl undecyl ester
##JCAMP-DX=4.24
##DATA TYPE=MASS SPECTRUM
##ORIGIN=V.G. Zaikin, R.S.Borisov, TIPS RAS, Moscow, Russia
##OWNER=NIST Mass Spectrometry Data Center
Collection (C) 2014 copyright by the U.S. Secretary of Commerce
on behalf of the United States of America. All rights reserved.
##$NIST MASS SPEC NO=348628
##MOLFORM=C22 H40 O4
##MW=368
##$NIST SOURCE=MSDC
##XUNITS=M/Z
##YUNITS=RELATIVE INTENSITY
##XFACTOR=1
##YFACTOR=1
##FIRSTX=25
##LASTX=325
##FIRSTY=40
##MAXX=325
##MINX=25
##MAXY=9999
##MINY=20
##NPOINTS=142
##PEAK TABLE=(XY..XY)
25,40 26,420 27,1361 29,1902
30,40 31,40 39,821 40,130
41,4744 42,1421 43,5855 44,30
45,220 50,20 51,40 53,470
54,1291 55,7457 56,5165 57,9999
58,500 59,40 65,40 66,70
67,781 68,981 69,5945 70,3353
71,2652 72,230 73,120 74,20
77,50 79,110 80,50 81,781
82,2152 83,4554 84,1161 85,1732
86,120 91,30 93,50 94,50
95,380 96,601 97,4374 98,5165
99,6546 100,5365 101,931 102,60
107,30 108,30 109,190 110,290
111,1181 112,290 113,360 114,100
115,220 116,150 117,3153 118,1021
119,380 120,20 121,20 122,30
123,160 124,310 125,881 126,350
127,190 128,50 129,20 135,20
136,30 137,80 138,80 139,170
140,160 141,200 142,110 143,80
145,30 150,50 151,100 152,661
153,440 154,400 155,591 156,110
157,490 158,60 159,20 164,20
165,30 166,60 167,50 168,150
169,320 170,160 171,721 172,120
173,60 178,30 179,40 180,20
181,80 182,100 183,70 184,30
187,20 192,20 195,90 196,100
197,851 198,170 199,50 207,30
209,50 210,50 211,140 212,20
213,20 215,781 216,80 223,50
224,120 225,100 234,60 252,260
253,4394 254,911 255,150 268,30
269,20 270,80 271,510 272,80
324,20 325,50
##END=
