##TITLE=Malonic acid, 3,3-dimethylbut-2-yl octadecyl ester
##JCAMP-DX=4.24
##DATA TYPE=MASS SPECTRUM
##ORIGIN=V.G. Zaikin, R.S.Borisov, TIPS RAS, Moscow, Russia
##OWNER=NIST Mass Spectrometry Data Center
Collection (C) 2014 copyright by the U.S. Secretary of Commerce
on behalf of the United States of America. All rights reserved.
##$NIST MASS SPEC NO=348668
##MOLFORM=C27 H52 O4
##MW=440
##$NIST SOURCE=MSDC
##XUNITS=M/Z
##YUNITS=RELATIVE INTENSITY
##XFACTOR=1
##YFACTOR=1
##FIRSTX=26
##LASTX=426
##FIRSTY=40
##MAXX=426
##MINX=26
##MAXY=9999
##MINY=10
##NPOINTS=117
##PEAK TABLE=(XY..XY)
26,40 27,150 28,130 29,330
39,220 40,60 41,1391 42,370
43,3703 44,300 45,130 51,20
53,100 54,250 55,1762 56,931
57,3753 58,160 60,130 61,220
65,20 66,30 67,430 68,510
69,2402 70,901 71,1591 72,90
73,20 77,20 79,40 80,30
81,330 82,1091 83,2012 84,2272
85,8958 86,591 87,881 88,30
89,110 91,70 92,20 93,10
95,210 96,460 97,1852 98,420
99,340 100,50 101,621 102,50
103,30 104,260 105,9999 106,340
107,90 109,110 110,200 111,1101
112,310 113,220 114,40 115,120
116,20 123,60 124,130 125,581
126,200 127,160 128,30 131,20
132,681 133,1241 134,70 135,10
136,60 137,50 138,90 139,270
140,160 141,100 145,60 152,60
153,160 154,120 155,70 166,20
167,100 168,100 169,70 173,20
180,30 181,70 182,60 183,30
189,50 195,30 196,60 197,10
210,20 224,350 225,50 250,30
251,70 252,691 253,50 297,20
321,380 322,80 339,400 340,80
357,20 384,20 385,70 425,120
426,30
##END=
