##TITLE=Fumaric acid, cis-hex-3-enyl heptyl ester
##JCAMP-DX=4.24
##DATA TYPE=MASS SPECTRUM
##ORIGIN=L.N.Kulikova, V.G. Zaikin, RPFU, Moscow, Russia
##OWNER=NIST Mass Spectrometry Data Center
Collection (C) 2014 copyright by the U.S. Secretary of Commerce
on behalf of the United States of America. All rights reserved.
##$NIST MASS SPEC NO=348863
##MOLFORM=C17 H28 O4
##MW=296
##$NIST SOURCE=MSDC
##XUNITS=M/Z
##YUNITS=RELATIVE INTENSITY
##XFACTOR=1
##YFACTOR=1
##FIRSTX=26
##LASTX=239
##FIRSTY=90
##MAXX=239
##MINX=26
##MAXY=9999
##MINY=20
##NPOINTS=55
##PEAK TABLE=(XY..XY)
26,90 27,310 29,400 39,260
40,40 41,1241 42,250 43,671
45,20 53,230 54,540 55,2052
56,460 57,1301 58,60 65,40
66,50 67,3733 68,320 69,500
70,320 71,150 72,30 79,30
80,20 81,791 82,9999 83,1281
84,70 85,60 91,40 93,20
95,30 96,20 97,190 98,130
99,1161 100,450 101,80 107,20
109,30 112,20 115,20 117,240
118,30 123,30 139,20 153,30
157,20 181,70 197,801 198,100
199,30 215,30 239,30
##END=
