##TITLE=Silane, dimethyl(dimethyl(but-2-enyloxy)silyloxy)(but-2-enyloxy)-
##JCAMP-DX=4.24
##DATA TYPE=MASS SPECTRUM
##ORIGIN=V.G. Zaikin, R.S.Borisov, TIPS RAS, Moscow, Russia
##OWNER=NIST Mass Spectrometry Data Center
Collection (C) 2014 copyright by the U.S. Secretary of Commerce
on behalf of the United States of America. All rights reserved.
##$NIST MASS SPEC NO=348063
##MOLFORM=C12 H26 O3 Si2
##MW=274
##$NIST SOURCE=MSDC
##XUNITS=M/Z
##YUNITS=RELATIVE INTENSITY
##XFACTOR=1
##YFACTOR=1
##FIRSTX=27
##LASTX=259
##FIRSTY=20
##MAXX=259
##MINX=27
##MAXY=9999
##MINY=20
##NPOINTS=70
##PEAK TABLE=(XY..XY)
27,20 29,90 39,70 41,40
53,90 54,190 55,2522 56,140
57,30 59,20 61,40 66,200
67,30 73,130 75,180 77,20
89,40 94,861 95,80 101,300
103,90 104,20 105,50 109,140
115,150 117,110 118,20 119,320
120,50 121,50 122,360 123,20
129,40 132,20 133,2562 134,370
135,731 136,70 137,40 147,40
148,20 149,9999 150,1551 151,4824
152,691 153,390 154,20 159,50
163,60 171,20 173,20 175,20
177,240 178,20 185,150 186,40
187,500 188,80 189,110 190,40
202,761 203,791 204,220 205,370
206,60 219,1752 220,380 221,160
222,20 259,60
##END=
