##TITLE=Silane, dimethyl(dimethyl(but-3-enyloxy)silyloxy)(but-3-enyloxy)-
##JCAMP-DX=4.24
##DATA TYPE=MASS SPECTRUM
##ORIGIN=V.G. Zaikin, R.S.Borisov, TIPS RAS, Moscow, Russia
##OWNER=NIST Mass Spectrometry Data Center
Collection (C) 2014 copyright by the U.S. Secretary of Commerce
on behalf of the United States of America. All rights reserved.
##$NIST MASS SPEC NO=348044
##MOLFORM=C12 H26 O3 Si2
##MW=274
##$NIST SOURCE=MSDC
##XUNITS=M/Z
##YUNITS=RELATIVE INTENSITY
##XFACTOR=1
##YFACTOR=1
##FIRSTX=27
##LASTX=261
##FIRSTY=130
##MAXX=261
##MINX=27
##MAXY=9999
##MINY=20
##NPOINTS=85
##PEAK TABLE=(XY..XY)
27,130 29,300 39,280 41,260
45,70 47,30 53,180 54,360
55,5095 56,210 59,150 61,120
66,390 67,200 72,40 73,470
74,40 75,310 77,20 81,470
82,20 85,20 87,40 89,100
94,120 96,170 97,20 99,20
101,70 102,50 103,250 104,50
105,100 109,20 115,260 116,50
117,480 118,80 119,711 120,80
121,60 131,160 132,70 133,3713
134,500 135,631 136,40 137,20
143,40 145,100 146,70 147,390
148,60 149,2282 150,320 151,440
152,40 157,90 159,100 161,20
162,20 163,400 164,60 165,30
171,20 173,711 174,130 175,230
176,30 177,80 179,220 180,20
185,30 187,370 188,50 189,100
203,9999 204,1932 205,981 206,120
229,80 233,40 259,931 260,200
261,80
##END=
