##TITLE=Fumaric acid, 2-hexyl propyl ester
##JCAMP-DX=4.24
##DATA TYPE=MASS SPECTRUM
##ORIGIN=L.N.Kulikova, V.G. Zaikin, RPFU, Moscow, Russia
##OWNER=NIST Mass Spectrometry Data Center
Collection (C) 2014 copyright by the U.S. Secretary of Commerce
on behalf of the United States of America. All rights reserved.
##$NIST MASS SPEC NO=348740
##MOLFORM=C13 H22 O4
##MW=242
##$NIST SOURCE=MSDC
##XUNITS=M/Z
##YUNITS=RELATIVE INTENSITY
##XFACTOR=1
##YFACTOR=1
##FIRSTX=26
##LASTX=201
##FIRSTY=230
##MAXX=201
##MINX=26
##MAXY=9999
##MINY=20
##NPOINTS=71
##PEAK TABLE=(XY..XY)
26,230 27,761 29,480 30,40
31,50 39,270 40,50 41,971
42,811 43,2092 44,90 45,430
53,250 54,520 55,1601 56,1281
57,380 58,60 59,20 67,60
68,60 69,841 70,180 71,240
72,110 73,20 81,530 82,721
83,240 84,2392 85,440 86,30
87,50 95,30 96,20 97,70
98,40 99,5045 100,1682 101,330
102,20 110,70 111,470 112,80
113,130 114,240 115,30 117,2082
118,100 119,20 127,20 128,40
137,40 138,170 139,30 140,50
141,9999 142,1301 143,390 144,20
145,60 154,30 155,170 156,150
157,20 159,1051 160,100 183,2022
184,220 185,50 201,120
##END=
