##TITLE=Fumaric acid, di(2-hexyl) ester
##JCAMP-DX=4.24
##DATA TYPE=MASS SPECTRUM
##ORIGIN=L.N.Kulikova, V.G. Zaikin, RPFU, Moscow, Russia
##OWNER=NIST Mass Spectrometry Data Center
Collection (C) 2014 copyright by the U.S. Secretary of Commerce
on behalf of the United States of America. All rights reserved.
##$NIST MASS SPEC NO=348758
##MOLFORM=C16 H28 O4
##MW=284
##$NIST SOURCE=MSDC
##XUNITS=M/Z
##YUNITS=RELATIVE INTENSITY
##XFACTOR=1
##YFACTOR=1
##FIRSTX=26
##LASTX=202
##FIRSTY=120
##MAXX=202
##MINX=26
##MAXY=9999
##MINY=20
##NPOINTS=65
##PEAK TABLE=(XY..XY)
26,120 27,480 29,440 39,230
40,30 41,861 42,490 43,1772
45,130 53,190 54,530 55,1431
56,681 57,290 58,40 59,20
67,60 68,30 69,450 71,130
72,60 73,20 81,330 82,871
83,200 84,1651 85,1611 86,100
87,20 97,30 98,20 99,4504
100,1551 101,310 102,20 109,40
110,20 111,300 112,50 113,20
114,20 115,70 117,1501 118,90
126,20 129,70 137,40 138,260
139,40 140,40 141,30 143,50
154,60 155,120 156,160 157,40
158,20 171,40 182,40 183,9999
184,1041 185,130 200,20 201,430
202,40
##END=
