##TITLE=Fumaric acid, monochloride, pent-4-en-2-yl ester
##JCAMP-DX=4.24
##DATA TYPE=MASS SPECTRUM
##ORIGIN=L.N.Kulikova, V.G. Zaikin, RPFU, Moscow, Russia
##OWNER=NIST Mass Spectrometry Data Center
Collection (C) 2014 copyright by the U.S. Secretary of Commerce
on behalf of the United States of America. All rights reserved.
##$NIST MASS SPEC NO=348935
##MOLFORM=C9 H11 Cl O3
##MW=202
##$NIST SOURCE=MSDC
##XUNITS=M/Z
##YUNITS=RELATIVE INTENSITY
##XFACTOR=1
##YFACTOR=1
##FIRSTX=26
##LASTX=187
##FIRSTY=40
##MAXX=187
##MINX=26
##MAXY=9999
##MINY=20
##NPOINTS=54
##PEAK TABLE=(XY..XY)
26,40 27,270 29,180 39,951
40,180 41,1972 42,190 43,550
45,60 53,621 54,1061 55,240
60,20 61,290 62,20 63,320
65,160 66,270 67,1061 68,2182
69,1011 70,30 71,50 81,150
82,1121 83,30 89,5005 90,170
91,1611 92,50 95,540 96,20
97,50 99,631 100,40 117,9999
118,490 119,3093 120,150 121,20
123,310 125,200 127,20 130,20
158,90 160,30 161,2252 162,160
163,791 164,50 167,821 168,70
169,30 187,20
##END=
