##TITLE=Fumaric acid, 3-methylbut-3-enyl nonyl ester
##JCAMP-DX=4.24
##DATA TYPE=MASS SPECTRUM
##ORIGIN=L.N.Kulikova, V.G. Zaikin, RPFU, Moscow, Russia
##OWNER=NIST Mass Spectrometry Data Center
Collection (C) 2014 copyright by the U.S. Secretary of Commerce
on behalf of the United States of America. All rights reserved.
##$NIST MASS SPEC NO=348908
##MOLFORM=C18 H30 O4
##MW=310
##$NIST SOURCE=MSDC
##XUNITS=M/Z
##YUNITS=RELATIVE INTENSITY
##XFACTOR=1
##YFACTOR=1
##FIRSTX=26
##LASTX=243
##FIRSTY=60
##MAXX=243
##MINX=26
##MAXY=9999
##MINY=10
##NPOINTS=56
##PEAK TABLE=(XY..XY)
26,60 27,220 29,290 39,200
40,100 41,1181 42,220 43,851
53,260 54,270 55,1091 56,400
57,500 58,20 65,20 66,20
67,961 68,9999 69,3573 70,571
71,400 72,30 81,210 82,430
83,621 84,160 85,210 93,40
95,40 96,20 97,170 98,110
99,791 100,320 101,100 109,50
117,150 118,20 121,20 125,20
126,70 127,20 138,60 139,30
140,10 141,20 153,30 154,20
157,40 166,30 167,30 168,30
171,40 225,340 226,50 243,40
##END=
