##TITLE=Fumaric acid, decyl trans-hex-3-enyl ester
##JCAMP-DX=4.24
##DATA TYPE=MASS SPECTRUM
##ORIGIN=L.N.Kulikova, V.G. Zaikin, RPFU, Moscow, Russia
##OWNER=NIST Mass Spectrometry Data Center
Collection (C) 2014 copyright by the U.S. Secretary of Commerce
on behalf of the United States of America. All rights reserved.
##$NIST MASS SPEC NO=348890
##MOLFORM=C20 H34 O4
##MW=338
##$NIST SOURCE=MSDC
##XUNITS=M/Z
##YUNITS=RELATIVE INTENSITY
##XFACTOR=1
##YFACTOR=1
##FIRSTX=26
##LASTX=257
##FIRSTY=20
##MAXX=257
##MINX=26
##MAXY=9999
##MINY=20
##NPOINTS=64
##PEAK TABLE=(XY..XY)
26,20 27,80 29,70 39,80
41,500 42,100 43,470 53,120
54,290 55,1511 56,310 57,591
58,20 65,30 66,40 67,2652
68,280 69,801 70,300 71,310
72,30 77,20 79,70 80,40
81,530 82,9999 83,2542 84,280
85,230 93,20 95,60 96,40
97,360 98,90 99,681 100,390
101,100 107,30 109,60 110,30
111,90 112,70 113,20 117,170
118,70 119,20 123,20 135,20
138,30 139,40 140,40 141,30
153,50 154,20 157,70 171,60
181,100 182,60 197,20 199,40
238,20 239,210 240,30 257,30
##END=
