##TITLE=Silane, dimethyl(but-3-enyloxy)dodecyloxy-
##JCAMP-DX=4.24
##DATA TYPE=MASS SPECTRUM
##ORIGIN=V.G. Zaikin, R.S.Borisov, TIPS RAS, Moscow, Russia
##OWNER=NIST Mass Spectrometry Data Center
Collection (C) 2014 copyright by the U.S. Secretary of Commerce
on behalf of the United States of America. All rights reserved.
##$NIST MASS SPEC NO=348028
##MOLFORM=C18 H38 O2 Si
##MW=314
##$NIST SOURCE=MSDC
##XUNITS=M/Z
##YUNITS=RELATIVE INTENSITY
##XFACTOR=1
##YFACTOR=1
##FIRSTX=27
##LASTX=302
##FIRSTY=30
##MAXX=302
##MINX=27
##MAXY=9999
##MINY=10
##NPOINTS=129
##PEAK TABLE=(XY..XY)
27,30 29,70 39,70 41,270
42,60 43,310 45,70 47,40
53,30 54,90 55,1091 56,110
57,450 58,60 59,200 60,20
61,240 67,170 68,80 69,951
70,140 71,440 72,20 74,20
75,2262 76,200 77,741 78,40
79,30 81,180 82,110 83,1211
84,110 85,310 86,40 87,160
88,80 89,1792 90,170 91,280
93,40 95,170 96,80 97,1441
98,130 99,561 100,70 101,1712
102,180 103,571 104,50 105,561
106,40 107,430 108,20 109,90
110,10 111,731 112,70 113,220
114,40 115,2202 116,260 117,400
118,50 119,781 120,70 121,20
123,30 125,100 127,90 128,20
129,1762 130,210 131,611 132,50
133,170 134,20 141,80 143,120
144,20 145,561 146,70 147,160
155,20 157,120 159,1001 160,120
161,20 171,90 173,30 175,100
185,50 187,180 191,70 193,120
201,70 207,500 208,110 209,110
215,40 223,240 224,40 225,80
227,70 229,30 237,320 238,60
239,30 241,140 242,20 243,2923
244,621 245,200 246,20 257,90
259,90 269,330 270,60 271,450
272,80 273,9999 274,2372 275,500
276,60 299,3573 300,761 301,210
302,20
##END=
