##TITLE=Silane, dimethyl(dec-4-enyloxy)ethoxy-
##JCAMP-DX=4.24
##DATA TYPE=MASS SPECTRUM
##ORIGIN=V.G. Zaikin, R.S.Borisov, TIPS RAS, Moscow, Russia
##OWNER=NIST Mass Spectrometry Data Center
Collection (C) 2014 copyright by the U.S. Secretary of Commerce
on behalf of the United States of America. All rights reserved.
##$NIST MASS SPEC NO=348008
##MOLFORM=C14 H30 O2 Si
##MW=258
##$NIST SOURCE=MSDC
##XUNITS=M/Z
##YUNITS=RELATIVE INTENSITY
##XFACTOR=1
##YFACTOR=1
##FIRSTX=26
##LASTX=267
##FIRSTY=30
##MAXX=267
##MINX=26
##MAXY=9999
##MINY=10
##NPOINTS=140
##PEAK TABLE=(XY..XY)
26,30 27,200 29,370 31,20
36,20 39,300 41,1241 42,280
43,350 45,380 47,170 50,10
51,20 52,20 53,380 54,2302
55,1802 56,290 57,130 58,100
59,1151 60,50 61,761 62,10
63,120 65,140 66,500 67,4744
68,9999 69,1251 70,170 71,90
72,10 73,160 74,50 75,4794
76,330 77,3303 78,150 79,831
80,330 81,7297 82,4644 83,741
84,140 85,50 86,20 87,360
88,150 89,2712 90,180 91,510
92,20 93,260 94,90 95,3633
96,4014 97,611 98,30 99,270
100,20 101,1201 102,200 103,8027
104,711 105,5605 106,360 107,200
109,2212 110,2222 111,160 113,360
114,80 115,1301 116,70 117,300
118,10 119,651 120,20 121,841
122,30 123,130 124,10 125,20
127,500 128,110 129,921 130,80
131,3673 132,310 133,1461 134,80
135,20 136,60 137,150 138,6246
139,621 141,270 142,10 143,330
144,40 145,240 146,170 147,30
151,10 155,230 156,10 157,60
158,40 159,3853 160,450 161,70
167,10 169,160 171,100 173,430
174,20 183,10 185,30 187,30
191,10 197,871 198,70 199,1551
200,140 201,300 208,10 209,10
212,80 213,510 214,80 215,691
216,70 229,70 243,2092 244,300
245,30 258,440 259,70 267,10
##END=
