##TITLE=Fumaric acid, dodecyl 3-hexyl ester
##JCAMP-DX=4.24
##DATA TYPE=MASS SPECTRUM
##ORIGIN=V.G. Zaikin, R.S.Borisov, TIPS RAS, Moscow, Russia
##OWNER=NIST Mass Spectrometry Data Center
Collection (C) 2014 copyright by the U.S. Secretary of Commerce
on behalf of the United States of America. All rights reserved.
##$NIST MASS SPEC NO=348611
##MOLFORM=C22 H40 O4
##MW=368
##$NIST SOURCE=MSDC
##XUNITS=M/Z
##YUNITS=RELATIVE INTENSITY
##XFACTOR=1
##YFACTOR=1
##FIRSTX=25
##LASTX=312
##FIRSTY=40
##MAXX=312
##MINX=25
##MAXY=9999
##MINY=10
##NPOINTS=183
##PEAK TABLE=(XY..XY)
25,40 26,400 27,1461 29,1972
30,50 31,100 37,20 38,40
39,861 40,200 41,4854 42,2112
43,9799 44,550 45,140 50,20
51,40 53,651 54,1702 55,9999
56,4514 57,6796 58,360 59,210
60,20 65,60 66,90 67,1221
68,1141 69,9589 70,2512 71,3934
72,410 73,190 74,20 77,40
79,90 80,80 81,1541 82,3773
83,7917 84,8628 85,7587 86,520
87,30 91,40 93,80 94,80
95,681 96,911 97,8107 98,1331
99,7086 100,9098 101,2082 102,160
105,20 107,60 108,60 109,480
110,510 111,4324 112,761 113,801
114,160 115,60 116,50 117,7066
118,2412 119,661 120,40 121,60
122,60 123,300 124,430 125,911
126,360 127,510 128,230 129,190
130,80 131,20 135,20 136,150
137,330 138,380 139,380 140,450
141,480 142,170 143,220 144,90
145,40 149,30 150,60 151,120
152,200 153,500 154,611 155,721
156,210 157,861 158,100 159,90
163,20 164,140 165,140 166,691
167,260 168,430 169,1451 170,240
171,1101 172,190 173,120 174,10
177,20 178,40 179,60 180,90
181,190 182,420 183,1952 184,390
185,400 186,70 187,70 188,20
192,20 193,50 194,30 195,200
196,100 197,120 198,60 199,100
200,30 201,1872 202,220 203,50
206,50 209,170 210,100 211,130
212,70 213,80 220,50 221,110
222,40 223,180 224,180 225,320
226,50 227,70 237,180 238,320
239,210 240,50 241,110 242,20
248,160 249,50 251,20 255,40
256,20 265,40 266,701 267,8558
268,2002 269,280 270,20 283,30
284,250 285,1201 286,230 287,20
296,10 297,90 298,80 299,30
310,20 311,90 312,30
##END=
