##TITLE=Fumaric acid, cis-hex-3-enyl propyl ester
##JCAMP-DX=4.24
##DATA TYPE=MASS SPECTRUM
##ORIGIN=L.N.Kulikova, V.G. Zaikin, RPFU, Moscow, Russia
##OWNER=NIST Mass Spectrometry Data Center
Collection (C) 2014 copyright by the U.S. Secretary of Commerce
on behalf of the United States of America. All rights reserved.
##$NIST MASS SPEC NO=348859
##MOLFORM=C13 H20 O4
##MW=240
##$NIST SOURCE=MSDC
##XUNITS=M/Z
##YUNITS=RELATIVE INTENSITY
##XFACTOR=1
##YFACTOR=1
##FIRSTX=26
##LASTX=182
##FIRSTY=220
##MAXX=182
##MINX=26
##MAXY=9999
##MINY=20
##NPOINTS=49
##PEAK TABLE=(XY..XY)
26,220 27,731 29,250 30,30
31,40 39,440 40,90 41,1351
42,190 43,621 45,100 51,20
53,400 54,831 55,1171 59,30
65,80 66,70 67,6176 68,290
69,130 71,220 72,50 77,30
79,60 80,30 81,1581 82,9999
83,811 93,20 95,20 98,40
99,2282 100,440 101,30 107,30
109,50 113,60 117,460 123,20
135,40 141,3113 142,290 143,30
153,50 159,80 163,30 181,440
182,40
##END=
