##TITLE=Fumaric acid, 2-butyl isohexyl ester
##JCAMP-DX=4.24
##DATA TYPE=MASS SPECTRUM
##ORIGIN=V.G. Zaikin, R.S.Borisov, TIPS RAS, Moscow, Russia
##OWNER=NIST Mass Spectrometry Data Center
Collection (C) 2014 copyright by the U.S. Secretary of Commerce
on behalf of the United States of America. All rights reserved.
##$NIST MASS SPEC NO=348642
##MOLFORM=C14 H24 O4
##MW=256
##$NIST SOURCE=MSDC
##XUNITS=M/Z
##YUNITS=RELATIVE INTENSITY
##XFACTOR=1
##YFACTOR=1
##FIRSTX=27
##LASTX=227
##FIRSTY=60
##MAXX=227
##MINX=27
##MAXY=9999
##MINY=10
##NPOINTS=74
##PEAK TABLE=(XY..XY)
27,60 29,170 39,400 40,60
41,1902 42,591 43,3313 44,180
45,90 53,390 54,1071 55,2853
56,2702 57,1581 58,80 59,50
67,90 68,50 69,2442 70,280
71,310 72,230 73,210 81,711
82,1752 83,450 84,6576 85,3753
86,260 91,60 93,20 95,30
97,40 98,40 99,6976 100,4784
101,340 102,40 109,130 110,20
111,70 112,30 113,40 114,20
117,3233 118,190 119,30 123,20
125,70 126,130 127,280 128,140
129,30 130,30 131,150 137,40
141,50 148,30 154,110 155,4134
156,490 157,40 164,20 171,30
172,10 173,210 182,50 183,9999
184,1131 185,130 201,470 202,40
213,20 227,60
##END=
