##TITLE=Fumaric acid, heptadecyl 2-heptyl ester
##JCAMP-DX=4.24
##DATA TYPE=MASS SPECTRUM
##ORIGIN=V.G. Zaikin, R.S.Borisov, TIPS RAS, Moscow, Russia
##OWNER=NIST Mass Spectrometry Data Center
Collection (C) 2014 copyright by the U.S. Secretary of Commerce
on behalf of the United States of America. All rights reserved.
##$NIST MASS SPEC NO=348634
##MOLFORM=C28 H52 O4
##MW=452
##$NIST SOURCE=MSDC
##XUNITS=M/Z
##YUNITS=RELATIVE INTENSITY
##XFACTOR=1
##YFACTOR=1
##FIRSTX=25
##LASTX=409
##FIRSTY=20
##MAXX=409
##MINX=25
##MAXY=9999
##MINY=10
##NPOINTS=231
##PEAK TABLE=(XY..XY)
25,20 26,250 27,711 28,490
29,1241 30,30 31,20 36,60
37,30 38,20 39,651 40,170
41,3293 42,1031 43,5375 44,430
45,180 50,40 51,40 52,40
53,310 54,891 55,6176 56,3813
57,9999 58,490 59,40 65,40
66,100 67,1111 68,1101 69,5815
70,2562 71,3413 72,200 73,150
74,30 77,80 78,40 79,200
80,130 81,1161 82,1772 83,5345
84,1101 85,2232 86,140 87,30
91,90 92,20 93,100 94,120
95,801 96,1221 97,5045 98,4374
99,5875 100,5305 101,1661 102,110
103,20 105,60 106,20 107,80
108,70 109,540 110,550 111,2542
112,530 113,510 114,110 115,220
116,140 117,4034 118,1972 119,1441
120,80 121,90 122,100 123,410
124,460 125,1712 126,370 127,350
128,70 129,50 131,20 133,30
135,90 136,90 137,320 138,350
139,540 140,270 141,540 142,160
143,140 144,30 147,30 149,60
150,60 151,210 152,470 153,691
154,330 155,440 156,100 157,460
158,40 159,100 161,40 163,20
164,60 165,130 166,210 167,280
168,300 169,410 170,180 171,681
172,120 173,40 177,40 178,70
179,130 180,180 181,240 182,240
183,220 184,50 185,30 187,50
189,20 191,20 192,40 193,50
194,100 195,190 196,230 197,851
198,210 199,80 201,20 205,20
206,30 207,100 208,90 209,160
210,190 211,250 212,60 213,60
215,901 216,120 217,40 219,20
220,20 221,50 222,50 223,190
224,160 225,200 226,50 227,50
229,30 233,20 234,40 235,60
236,561 237,430 238,260 239,641
240,120 241,60 247,20 248,10
250,20 251,270 252,240 253,260
254,70 255,160 256,20 257,20
261,20 263,20 265,260 266,310
267,100 268,30 269,110 270,30
271,10 276,40 277,40 279,230
280,330 281,150 282,40 283,100
290,30 291,110 292,30 293,140
294,300 295,270 296,40 297,70
307,80 308,240 309,130 310,20
311,30 318,140 319,200 320,30
325,20 335,30 336,871 337,1631
338,490 339,100 352,20 353,50
354,180 355,370 356,80 357,20
379,20 408,40 409,50
##END=
