##TITLE=Fumaric acid, 2,4-dimethylpent-3-yl undecyl ester
##JCAMP-DX=4.24
##DATA TYPE=MASS SPECTRUM
##ORIGIN=V.G. Zaikin, R.S.Borisov, TIPS RAS, Moscow, Russia
##OWNER=NIST Mass Spectrometry Data Center
Collection (C) 2014 copyright by the U.S. Secretary of Commerce
on behalf of the United States of America. All rights reserved.
##$NIST MASS SPEC NO=348552
##MOLFORM=C22 H40 O4
##MW=368
##$NIST SOURCE=MSDC
##XUNITS=M/Z
##YUNITS=RELATIVE INTENSITY
##XFACTOR=1
##YFACTOR=1
##FIRSTX=25
##LASTX=353
##FIRSTY=20
##MAXX=353
##MINX=25
##MAXY=9999
##MINY=10
##NPOINTS=145
##PEAK TABLE=(XY..XY)
25,20 26,210 27,831 29,981
30,20 31,30 37,10 39,571
40,120 41,3203 42,751 43,5425
44,240 45,90 53,390 54,1131
55,6446 56,2162 57,9999 58,460
59,50 65,40 66,50 67,681
68,550 69,5855 70,1752 71,2742
72,380 73,390 74,20 77,20
79,20 80,40 81,911 82,3073
83,9398 84,1281 85,1621 86,110
91,30 93,50 94,40 95,370
96,370 97,7176 98,3613 99,8768
100,7537 101,1381 102,100 107,40
108,20 109,200 110,180 111,1832
112,310 113,280 114,400 115,370
116,30 117,761 118,711 119,190
121,30 122,20 123,110 124,180
125,290 126,380 127,240 128,40
137,70 138,50 139,130 140,80
141,120 142,1091 143,801 144,190
145,30 150,40 151,70 152,330
153,300 154,350 155,1211 156,140
157,450 158,40 163,20 165,30
166,40 167,40 168,90 169,300
170,60 171,941 172,140 178,50
179,40 180,20 181,100 182,80
183,50 184,20 191,20 192,20
193,20 195,80 196,80 197,741
198,120 199,60 207,30 209,50
210,40 211,120 212,20 213,20
215,631 216,70 223,40 224,100
225,110 226,20 234,50 235,20
251,20 252,220 253,9318 254,2472
255,370 256,30 270,90 271,80
296,170 297,430 298,350 299,50
309,20 325,911 326,180 327,10
353,20
##END=
