##TITLE=Fumaric acid, di(2-methylpent-3-yl) ester
##JCAMP-DX=4.24
##DATA TYPE=MASS SPECTRUM
##ORIGIN=L.N.Kulikova, V.G. Zaikin, RPFU, Moscow, Russia
##OWNER=NIST Mass Spectrometry Data Center
Collection (C) 2014 copyright by the U.S. Secretary of Commerce
on behalf of the United States of America. All rights reserved.
##$NIST MASS SPEC NO=348777
##MOLFORM=C16 H28 O4
##MW=284
##$NIST SOURCE=MSDC
##XUNITS=M/Z
##YUNITS=RELATIVE INTENSITY
##XFACTOR=1
##YFACTOR=1
##FIRSTX=26
##LASTX=255
##FIRSTY=120
##MAXX=255
##MINX=26
##MAXY=9999
##MINY=10
##NPOINTS=59
##PEAK TABLE=(XY..XY)
26,120 27,400 29,280 31,20
39,190 40,30 41,781 42,90
43,1611 44,20 45,60 53,150
54,601 55,971 56,120 57,240
58,30 59,80 67,40 69,961
70,30 71,30 72,30 81,250
82,1281 83,220 84,1451 85,4564
86,300 95,20 97,50 99,4354
100,1131 101,250 109,50 111,20
112,20 114,40 115,20 123,10
125,90 126,50 129,30 137,50
141,20 142,190 143,100 144,40
155,90 156,20 157,60 171,20
182,20 183,9999 184,1021 185,110
201,30 227,40 255,50
##END=
