##TITLE=Fumaric acid, decyl 4-methylpent-2-yl ester
##JCAMP-DX=4.24
##DATA TYPE=MASS SPECTRUM
##ORIGIN=V.G. Zaikin, R.S.Borisov, TIPS RAS, Moscow, Russia
##OWNER=NIST Mass Spectrometry Data Center
Collection (C) 2014 copyright by the U.S. Secretary of Commerce
on behalf of the United States of America. All rights reserved.
##$NIST MASS SPEC NO=348324
##MOLFORM=C20 H36 O4
##MW=340
##$NIST SOURCE=MSDC
##XUNITS=M/Z
##YUNITS=RELATIVE INTENSITY
##XFACTOR=1
##YFACTOR=1
##FIRSTX=26
##LASTX=326
##FIRSTY=70
##MAXX=326
##MINX=26
##MAXY=9999
##MINY=10
##NPOINTS=137
##PEAK TABLE=(XY..XY)
26,70 27,220 29,330 39,280
40,60 41,1651 42,530 43,3203
44,350 45,70 53,260 54,651
55,3123 56,1531 57,2462 58,140
59,50 65,30 66,40 67,450
68,510 69,6126 70,1571 71,1341
72,140 73,60 77,20 79,60
80,20 81,711 82,1722 83,4814
84,9048 85,8618 86,611 87,20
93,30 94,30 95,260 96,320
97,2522 98,591 99,3623 100,5345
101,841 102,70 107,20 108,20
109,180 110,280 111,1131 112,520
113,220 114,60 115,30 116,110
117,1631 118,831 119,220 122,20
123,70 124,40 125,50 126,100
127,130 128,50 129,10 136,40
137,100 138,480 139,340 140,470
141,530 142,80 143,70 149,10
150,20 151,40 152,70 153,270
154,320 155,290 156,100 157,981
158,130 159,30 164,30 165,50
166,40 167,90 168,80 169,60
170,20 171,721 172,130 173,30
178,50 179,20 181,100 182,180
183,1371 184,280 185,70 192,20
193,70 194,40 195,80 196,50
197,140 198,10 199,30 201,1431
202,160 203,20 209,40 210,150
211,170 212,30 213,20 220,90
221,20 227,20 237,20 238,310
239,9999 240,2042 241,310 242,20
254,50 255,40 256,110 257,871
258,180 297,160 298,20 325,310
326,60
##END=
