##TITLE=Fumaric acid, 2,4-dimethylpent-3-yl nonyl ester
##JCAMP-DX=4.24
##DATA TYPE=MASS SPECTRUM
##ORIGIN=V.G. Zaikin, R.S.Borisov, TIPS RAS, Moscow, Russia
##OWNER=NIST Mass Spectrometry Data Center
Collection (C) 2014 copyright by the U.S. Secretary of Commerce
on behalf of the United States of America. All rights reserved.
##$NIST MASS SPEC NO=348550
##MOLFORM=C20 H36 O4
##MW=340
##$NIST SOURCE=MSDC
##XUNITS=M/Z
##YUNITS=RELATIVE INTENSITY
##XFACTOR=1
##YFACTOR=1
##FIRSTX=26
##LASTX=298
##FIRSTY=150
##MAXX=298
##MINX=26
##MAXY=9999
##MINY=10
##NPOINTS=93
##PEAK TABLE=(XY..XY)
26,150 27,561 29,601 30,20
39,330 40,70 41,1772 42,400
43,2843 44,150 45,60 53,210
54,621 55,2793 56,1041 57,3863
58,170 59,20 65,20 66,10
67,210 68,180 69,3863 70,741
71,1281 72,180 73,200 81,420
82,1471 83,3894 84,470 85,651
86,40 95,90 96,80 97,731
98,1371 99,3883 100,3623 101,601
102,40 109,40 112,20 113,50
114,210 115,190 117,290 118,200
119,50 123,20 124,110 125,110
126,200 127,661 128,60 137,30
139,40 140,20 141,50 142,661
143,550 144,90 151,20 153,90
154,70 155,90 157,180 158,20
168,20 169,120 170,20 171,280
172,40 179,30 182,30 183,50
196,40 197,490 198,60 215,270
216,20 224,60 225,9999 226,2012
227,240 242,20 243,30 268,50
269,270 270,210 271,30 297,611
298,100
##END=
