##TITLE=Malonic acid, 3-methylbutyl decyl ester
##JCAMP-DX=4.24
##DATA TYPE=MASS SPECTRUM
##ORIGIN=L.N.Kulikova, V.G. Zaikin, RPFU, Moscow, Russia
##OWNER=NIST Mass Spectrometry Data Center
Collection (C) 2014 copyright by the U.S. Secretary of Commerce
on behalf of the United States of America. All rights reserved.
##$NIST MASS SPEC NO=348983
##MOLFORM=C18 H34 O4
##MW=314
##$NIST SOURCE=MSDC
##XUNITS=M/Z
##YUNITS=RELATIVE INTENSITY
##XFACTOR=1
##YFACTOR=1
##FIRSTX=27
##LASTX=299
##FIRSTY=30
##MAXX=299
##MINX=27
##MAXY=9999
##MINY=10
##NPOINTS=74
##PEAK TABLE=(XY..XY)
27,30 28,50 29,120 39,150
40,40 41,1071 42,601 43,2843
44,270 45,30 53,90 54,230
55,2302 56,1081 57,1692 58,70
60,50 61,60 67,260 68,390
69,1421 70,3263 71,9999 72,611
73,20 81,120 82,290 83,981
84,571 85,1071 86,120 87,701
88,20 89,20 91,30 95,70
96,120 97,611 98,260 99,170
100,20 101,30 104,30 105,6045
106,240 107,60 109,20 110,50
111,290 112,280 113,50 114,40
115,50 118,30 131,80 132,200
133,100 138,20 139,50 140,180
141,90 157,320 158,30 159,100
174,10 175,2122 176,180 177,20
215,30 227,110 245,90 271,190
272,30 299,20
##END=
