##TITLE=Malonic acid, 3,3-dimethylbut-2-yl undecyl ester
##JCAMP-DX=4.24
##DATA TYPE=MASS SPECTRUM
##ORIGIN=V.G. Zaikin, R.S.Borisov, TIPS RAS, Moscow, Russia
##OWNER=NIST Mass Spectrometry Data Center
Collection (C) 2014 copyright by the U.S. Secretary of Commerce
on behalf of the United States of America. All rights reserved.
##$NIST MASS SPEC NO=348662
##MOLFORM=C20 H38 O4
##MW=342
##$NIST SOURCE=MSDC
##XUNITS=M/Z
##YUNITS=RELATIVE INTENSITY
##XFACTOR=1
##YFACTOR=1
##FIRSTX=26
##LASTX=327
##FIRSTY=70
##MAXX=327
##MINX=26
##MAXY=9999
##MINY=20
##NPOINTS=89
##PEAK TABLE=(XY..XY)
26,70 27,410 28,370 29,941
30,30 39,390 40,90 41,2612
42,831 43,5845 44,90 45,160
46,20 51,20 53,140 54,250
55,2012 56,1251 57,5875 58,180
60,260 61,540 65,20 66,20
67,370 68,470 69,2452 70,1041
71,2202 72,110 77,20 79,20
81,170 82,711 83,1331 84,2102
85,9999 86,681 87,1321 88,40
89,80 91,70 93,20 95,100
96,270 97,1271 98,410 99,500
100,70 101,1051 102,70 104,380
105,6166 106,210 107,70 109,30
110,90 111,530 112,200 113,250
114,30 115,110 124,50 125,230
126,631 127,100 128,20 131,20
132,881 133,731 134,40 135,20
141,20 145,40 152,40 153,170
154,1361 155,280 161,60 181,20
189,30 214,20 241,981 242,140
243,20 259,30 286,250 287,130
327,80
##END=
