##TITLE=Fumaric acid, 3-methylbut-2-yl nonadecyl ester
##JCAMP-DX=4.24
##DATA TYPE=MASS SPECTRUM
##ORIGIN=V.G. Zaikin, R.S.Borisov, TIPS RAS, Moscow, Russia
##OWNER=NIST Mass Spectrometry Data Center
Collection (C) 2014 copyright by the U.S. Secretary of Commerce
on behalf of the United States of America. All rights reserved.
##$NIST MASS SPEC NO=348090
##MOLFORM=C28 H52 O4
##MW=452
##$NIST SOURCE=MSDC
##XUNITS=M/Z
##YUNITS=RELATIVE INTENSITY
##XFACTOR=1
##YFACTOR=1
##FIRSTX=26
##LASTX=437
##FIRSTY=170
##MAXX=437
##MINX=26
##MAXY=9999
##MINY=10
##NPOINTS=236
##PEAK TABLE=(XY..XY)
26,170 27,450 28,220 29,571
30,30 31,20 36,20 38,70
39,450 40,100 41,2052 42,771
43,4824 44,440 45,100 50,20
51,40 52,20 53,240 54,671
55,4254 56,1411 57,4184 58,190
65,40 66,60 67,801 68,761
69,3673 70,5785 71,9999 72,581
73,110 74,20 77,40 78,30
79,140 80,90 81,721 82,1391
83,3763 84,821 85,1641 86,130
87,150 91,70 92,20 93,80
94,70 95,611 96,781 97,3523
98,631 99,2032 100,3483 101,1201
102,70 103,20 105,40 107,50
108,50 109,400 110,390 111,1832
112,390 113,370 114,110 115,60
116,30 117,1742 118,1161 119,931
120,50 121,70 122,80 123,310
124,290 125,871 126,250 127,300
128,50 129,20 131,20 133,30
135,40 136,70 137,230 138,210
139,440 140,200 141,480 142,240
143,170 144,80 145,30 147,30
149,40 150,40 151,120 152,170
153,380 154,190 155,210 156,60
157,290 158,30 159,30 161,30
163,30 164,40 165,90 166,140
167,210 168,170 169,621 170,170
171,450 172,70 173,30 177,20
178,40 179,80 180,100 181,200
182,170 183,130 184,40 185,30
186,10 187,701 188,100 189,40
191,20 192,30 193,40 194,70
195,180 196,120 197,110 198,30
199,30 205,20 206,20 207,60
208,60 209,140 210,110 211,130
212,40 213,50 219,20 220,20
221,50 222,60 223,130 224,120
225,120 226,40 227,50 233,20
234,20 235,40 236,90 237,170
238,170 239,130 240,40 241,50
242,20 247,20 249,20 250,20
251,190 252,180 253,110 254,40
255,70 261,20 262,20 263,40
264,410 265,310 266,270 267,230
268,50 269,80 275,20 277,20
278,20 279,180 280,240 281,160
282,40 283,120 284,20 291,20
293,150 294,210 295,80 296,30
297,70 301,20 304,20 305,30
307,110 308,160 309,70 310,30
311,60 318,30 319,120 320,40
321,100 322,140 323,190 324,30
325,40 335,50 336,170 337,90
338,20 339,20 346,100 347,220
348,50 363,20 364,771 365,1071
366,370 367,60 381,20 382,140
383,80 408,110 409,30 437,60
##END=
