##TITLE=Fumaric acid, pentyl tridecyl ester
##JCAMP-DX=4.24
##DATA TYPE=MASS SPECTRUM
##ORIGIN=L.N.Kulikova, V.G. Zaikin, RPFU, Moscow, Russia
##OWNER=NIST Mass Spectrometry Data Center
Collection (C) 2014 copyright by the U.S. Secretary of Commerce
on behalf of the United States of America. All rights reserved.
##$NIST MASS SPEC NO=348805
##MOLFORM=C22 H40 O4
##MW=368
##$NIST SOURCE=MSDC
##XUNITS=M/Z
##YUNITS=RELATIVE INTENSITY
##XFACTOR=1
##YFACTOR=1
##FIRSTX=25
##LASTX=368
##FIRSTY=30
##MAXX=368
##MINX=25
##MAXY=9999
##MINY=10
##NPOINTS=195
##PEAK TABLE=(XY..XY)
25,30 26,320 27,1041 29,1782
30,50 31,70 39,741 40,160
41,4624 42,2462 43,8658 44,530
45,110 50,10 51,30 53,500
54,1381 55,8608 56,3423 57,6296
58,290 65,40 66,110 67,1321
68,1621 69,7737 70,6075 71,7387
72,430 73,160 74,20 77,30
79,90 80,90 81,1151 82,2813
83,6366 84,2152 85,2142 86,170
87,70 89,40 93,60 94,80
95,801 96,1281 97,5055 98,1361
99,4864 100,5745 101,2873 102,160
103,20 105,20 107,40 108,70
109,390 110,641 111,2632 112,851
113,581 114,150 115,80 116,50
117,9999 118,1231 119,651 120,30
121,50 122,80 123,420 124,490
125,1021 126,510 127,480 128,100
129,50 130,20 131,20 135,30
137,240 138,350 139,721 140,430
141,781 142,190 143,160 144,40
145,70 147,20 150,120 151,230
152,380 153,871 154,691 155,370
156,90 157,260 158,40 159,130
160,20 161,20 163,40 164,80
165,110 166,200 167,160 168,420
169,3253 170,1832 171,791 172,80
173,40 177,40 178,80 179,100
180,300 181,270 182,651 183,561
184,110 185,70 186,60 187,3894
188,951 189,500 190,40 191,40
192,40 193,50 194,80 195,200
196,150 197,370 198,70 199,80
201,70 202,20 203,20 205,30
206,30 207,20 208,30 209,210
210,110 211,520 212,90 213,80
215,30 219,20 220,50 221,100
222,20 223,240 224,130 225,220
226,70 227,410 228,60 229,30
233,20 234,50 235,110 236,30
237,260 238,170 239,530 240,100
241,310 242,80 243,30 251,210
252,220 253,220 254,60 257,20
262,140 263,40 265,40 269,40
271,20 279,30 280,370 281,460
282,110 283,60 297,70 299,791
300,140 309,20 311,40 325,80
339,110 340,20 368,30
##END=
