##TITLE=Malonic acid, 3-methylpentyl tridecyl ester
##JCAMP-DX=4.24
##DATA TYPE=MASS SPECTRUM
##ORIGIN=V.G. Zaikin, R.S.Borisov, TIPS RAS, Moscow, Russia
##OWNER=NIST Mass Spectrometry Data Center
Collection (C) 2014 copyright by the U.S. Secretary of Commerce
on behalf of the United States of America. All rights reserved.
##$NIST MASS SPEC NO=348287
##MOLFORM=C22 H42 O4
##MW=370
##$NIST SOURCE=MSDC
##XUNITS=M/Z
##YUNITS=RELATIVE INTENSITY
##XFACTOR=1
##YFACTOR=1
##FIRSTX=26
##LASTX=342
##FIRSTY=40
##MAXX=342
##MINX=26
##MAXY=9999
##MINY=10
##NPOINTS=87
##PEAK TABLE=(XY..XY)
26,40 27,230 29,571 30,20
39,180 40,30 41,1271 42,460
43,3513 44,80 53,80 54,230
55,2072 56,1211 57,2422 58,100
60,40 67,300 68,280 69,2162
70,731 71,1081 72,60 81,170
82,400 83,1331 84,2692 85,9999
86,691 87,651 88,10 89,30
95,110 96,180 97,881 98,290
99,220 100,30 101,40 102,10
103,50 104,20 105,7857 106,290
107,60 109,50 110,90 111,490
112,170 113,160 114,60 115,40
118,30 124,40 125,220 126,100
127,110 129,20 131,60 132,200
133,110 136,20 137,10 138,20
139,50 140,40 141,40 153,20
154,140 155,20 159,200 161,210
171,150 180,20 181,40 182,130
183,110 189,2342 190,230 229,30
269,20 287,320 288,50 313,270
314,40 341,170 342,30
##END=
