##TITLE=Adipic acid, decyl 3-methylbutyl ester
##JCAMP-DX=4.24
##DATA TYPE=MASS SPECTRUM
##ORIGIN=L.N.Kulikova, V.G. Zaikin, RPFU, Moscow, Russia
##OWNER=NIST Mass Spectrometry Data Center
Collection (C) 2014 copyright by the U.S. Secretary of Commerce
on behalf of the United States of America. All rights reserved.
##$NIST MASS SPEC NO=348972
##MOLFORM=C21 H40 O4
##MW=356
##$NIST SOURCE=MSDC
##XUNITS=M/Z
##YUNITS=RELATIVE INTENSITY
##XFACTOR=1
##YFACTOR=1
##FIRSTX=26
##LASTX=357
##FIRSTY=30
##MAXX=357
##MINX=26
##MAXY=9999
##MINY=10
##NPOINTS=100
##PEAK TABLE=(XY..XY)
26,30 27,200 29,430 39,180
40,40 41,1061 42,410 43,2532
44,80 45,40 53,70 54,150
55,1862 56,641 57,1171 58,60
59,130 60,30 61,70 67,140
68,190 69,721 70,1932 71,3243
72,190 73,220 81,60 82,160
83,771 84,480 85,651 86,90
87,1011 88,40 95,30 96,70
97,270 98,150 99,210 100,851
101,1401 102,260 103,90 110,70
111,2332 112,480 113,70 114,20
115,60 126,60 127,80 128,210
129,9999 130,691 131,100 138,40
140,190 141,70 143,40 144,20
147,110 154,20 155,30 156,70
157,771 158,70 170,831 171,120
172,20 183,40 184,90 185,290
186,20 197,10 198,30 199,5675
200,731 201,80 213,120 214,20
217,510 218,50 226,50 227,330
228,40 240,190 241,40 242,20
255,60 257,30 268,40 269,2082
270,370 271,40 283,50 287,70
313,160 314,20 341,50 357,20
##END=
