##TITLE=Fumaric acid, di(3-methylbut-2-yl) ester
##JCAMP-DX=4.24
##DATA TYPE=MASS SPECTRUM
##ORIGIN=V.G. Zaikin, R.S.Borisov, TIPS RAS, Moscow, Russia
##OWNER=NIST Mass Spectrometry Data Center
Collection (C) 2014 copyright by the U.S. Secretary of Commerce
on behalf of the United States of America. All rights reserved.
##$NIST MASS SPEC NO=348092
##MOLFORM=C14 H24 O4
##MW=256
##$NIST SOURCE=MSDC
##XUNITS=M/Z
##YUNITS=RELATIVE INTENSITY
##XFACTOR=1
##YFACTOR=1
##FIRSTX=26
##LASTX=241
##FIRSTY=110
##MAXX=241
##MINX=26
##MAXY=9999
##MINY=20
##NPOINTS=43
##PEAK TABLE=(XY..XY)
26,110 27,340 29,220 39,190
40,20 41,540 42,180 43,1381
44,20 45,100 53,140 54,480
55,1071 56,50 69,110 70,2162
71,3453 72,190 81,210 82,861
83,40 87,210 95,40 97,60
99,3723 100,1361 101,70 114,60
115,50 117,30 123,50 125,30
126,20 141,80 142,290 143,40
168,20 169,9999 170,871 171,110
187,30 213,20 241,30
##END=
