##TITLE=Silane, dimethyl(but-3-enyloxy)hexyloxy-
##JCAMP-DX=4.24
##DATA TYPE=MASS SPECTRUM
##ORIGIN=V.G. Zaikin, R.S.Borisov, TIPS RAS, Moscow, Russia
##OWNER=NIST Mass Spectrometry Data Center
Collection (C) 2014 copyright by the U.S. Secretary of Commerce
on behalf of the United States of America. All rights reserved.
##$NIST MASS SPEC NO=348023
##MOLFORM=C12 H26 O2 Si
##MW=230
##$NIST SOURCE=MSDC
##XUNITS=M/Z
##YUNITS=RELATIVE INTENSITY
##XFACTOR=1
##YFACTOR=1
##FIRSTX=26
##LASTX=217
##FIRSTY=20
##MAXX=217
##MINX=26
##MAXY=9999
##MINY=20
##NPOINTS=93
##PEAK TABLE=(XY..XY)
26,20 27,270 29,410 39,300
41,591 42,100 43,701 45,651
46,20 47,380 53,120 54,120
55,1221 56,240 57,130 58,410
59,981 60,150 61,741 62,30
63,100 67,90 69,90 71,140
72,70 73,60 74,130 75,6666
76,490 77,1762 78,70 79,30
82,30 83,2042 84,150 85,270
86,30 87,550 88,330 89,4774
90,410 91,460 92,20 97,120
99,1151 100,180 101,3823 102,370
103,1171 104,80 105,581 106,30
107,350 111,90 113,430 114,60
115,4084 116,370 117,651 118,50
119,1541 120,130 121,40 127,70
129,2893 130,320 131,1091 132,100
133,100 141,70 143,270 144,20
145,510 146,50 147,30 157,220
158,20 159,6506 160,801 161,390
162,30 173,100 175,40 185,751
186,90 187,1121 188,150 189,9999
190,1361 191,380 215,2242 216,340
217,90
##END=
