##TITLE=Silane, dimethyl(dimethyl(but-3-enyloxy)silyloxy)heptyloxy-
##JCAMP-DX=4.24
##DATA TYPE=MASS SPECTRUM
##ORIGIN=V.G. Zaikin, R.S.Borisov, TIPS RAS, Moscow, Russia
##OWNER=NIST Mass Spectrometry Data Center
Collection (C) 2014 copyright by the U.S. Secretary of Commerce
on behalf of the United States of America. All rights reserved.
##$NIST MASS SPEC NO=348039
##MOLFORM=C15 H34 O3 Si2
##MW=318
##$NIST SOURCE=MSDC
##XUNITS=M/Z
##YUNITS=RELATIVE INTENSITY
##XFACTOR=1
##YFACTOR=1
##FIRSTX=27
##LASTX=306
##FIRSTY=20
##MAXX=306
##MINX=27
##MAXY=9999
##MINY=20
##NPOINTS=75
##PEAK TABLE=(XY..XY)
27,20 29,90 39,110 41,270
43,360 53,30 54,130 55,2803
56,240 57,1241 58,20 66,60
67,50 68,40 69,140 70,90
75,60 77,20 81,60 83,20
85,50 94,20 95,30 96,40
98,20 101,20 103,40 115,70
117,230 119,450 120,20 121,50
131,60 132,20 133,3743 134,450
135,791 136,60 137,30 145,30
147,230 148,20 149,6085 150,881
151,3073 152,320 153,170 159,90
161,20 163,841 164,80 165,120
173,150 175,200 177,130 179,40
187,1031 188,140 189,330 203,3653
204,661 205,1201 206,170 245,30
246,20 247,9999 248,2132 249,1061
250,110 273,280 274,40 303,5105
304,1181 305,500 306,50
##END=
