##TITLE=Fumaric acid, 3-methylbut-2-yl pentadecyl ester
##JCAMP-DX=4.24
##DATA TYPE=MASS SPECTRUM
##ORIGIN=V.G. Zaikin, R.S.Borisov, TIPS RAS, Moscow, Russia
##OWNER=NIST Mass Spectrometry Data Center
Collection (C) 2014 copyright by the U.S. Secretary of Commerce
on behalf of the United States of America. All rights reserved.
##$NIST MASS SPEC NO=348086
##MOLFORM=C24 H44 O4
##MW=396
##$NIST SOURCE=MSDC
##XUNITS=M/Z
##YUNITS=RELATIVE INTENSITY
##XFACTOR=1
##YFACTOR=1
##FIRSTX=26
##LASTX=381
##FIRSTY=150
##MAXX=381
##MINX=26
##MAXY=9999
##MINY=10
##NPOINTS=179
##PEAK TABLE=(XY..XY)
26,150 27,490 29,741 30,20
38,20 39,380 40,70 41,2162
42,731 43,4774 44,240 45,120
51,20 53,260 54,731 55,4254
56,1391 57,3363 58,150 65,20
66,50 67,651 68,651 69,3723
70,6586 71,9999 72,571 73,80
79,70 80,50 81,681 82,1682
83,3954 84,861 85,1291 86,100
87,180 91,20 93,40 94,50
95,450 96,681 97,3613 98,631
99,2542 100,4084 101,821 102,60
105,10 107,30 108,30 109,260
110,310 111,1872 112,380 113,270
114,120 115,40 117,1351 118,1071
119,480 120,30 121,40 122,40
123,240 124,270 125,891 126,280
127,290 128,50 129,20 133,20
135,30 136,40 137,170 138,180
139,410 140,190 141,380 142,290
143,160 144,80 145,50 149,20
150,40 151,110 152,160 153,350
154,190 155,140 156,40 157,360
158,40 163,20 164,40 165,70
166,110 167,110 168,160 169,801
170,180 171,550 172,80 178,30
179,50 180,140 181,120 182,200
183,140 184,40 185,30 186,20
187,861 188,100 192,20 193,30
194,40 195,100 196,100 197,110
198,30 199,40 201,20 206,30
208,380 209,190 210,150 211,230
212,50 213,40 221,20 222,20
223,100 224,80 225,160 226,40
227,130 228,20 229,20 235,20
237,130 238,110 239,60 240,30
241,40 245,20 248,30 249,30
251,140 252,140 253,60 254,30
255,50 262,20 263,70 264,20
265,110 266,200 267,170 268,30
269,40 279,60 280,160 281,70
282,20 283,20 290,90 291,80
307,20 308,450 309,1151 310,390
311,60 325,20 326,100 327,70
352,100 353,30 381,60
##END=
