##TITLE=Fumaric acid, decyl 2-decyl ester
##JCAMP-DX=4.24
##DATA TYPE=MASS SPECTRUM
##ORIGIN=V.G. Zaikin, R.S.Borisov, TIPS RAS, Moscow, Russia
##OWNER=NIST Mass Spectrometry Data Center
Collection (C) 2014 copyright by the U.S. Secretary of Commerce
on behalf of the United States of America. All rights reserved.
##$NIST MASS SPEC NO=348591
##MOLFORM=C24 H44 O4
##MW=396
##$NIST SOURCE=MSDC
##XUNITS=M/Z
##YUNITS=RELATIVE INTENSITY
##XFACTOR=1
##YFACTOR=1
##FIRSTX=25
##LASTX=378
##FIRSTY=20
##MAXX=378
##MINX=25
##MAXY=9999
##MINY=20
##NPOINTS=149
##PEAK TABLE=(XY..XY)
25,20 26,180 27,621 29,951
30,20 39,480 40,100 41,2963
42,1121 43,4754 44,290 45,130
51,20 53,350 54,911 55,5815
56,3423 57,5475 58,340 59,30
65,30 66,60 67,691 68,821
69,5215 70,3503 71,4044 72,250
73,90 77,30 79,50 80,40
81,871 82,2252 83,6015 84,2282
85,3924 86,270 87,20 91,20
93,40 94,50 95,380 96,781
97,4894 98,1892 99,4284 100,5835
101,931 102,80 107,20 108,30
109,220 110,370 111,1812 112,1211
113,260 114,90 115,50 116,200
117,2482 118,981 119,470 120,20
121,20 122,40 123,160 124,190
125,140 126,130 127,170 128,40
129,20 136,40 137,230 138,581
139,320 140,3723 141,2272 142,260
143,110 144,20 149,20 150,50
151,80 152,150 153,370 154,210
155,180 156,160 157,931 158,110
159,30 164,30 165,80 166,110
167,991 168,210 169,90 170,60
171,691 172,110 178,60 179,60
181,100 182,140 183,80 184,40
185,40 192,40 193,140 194,130
195,120 196,100 197,290 198,40
199,30 209,50 210,260 211,350
212,110 213,60 214,20 220,160
221,40 237,20 238,440 239,9999
240,2332 241,320 242,30 254,60
255,40 256,160 257,2422 258,520
259,130 281,160 282,100 283,30
296,20 297,80 311,190 312,40
325,50 337,20 352,20 353,30
378,20
##END=
