##TITLE=Silane, dimethyl(dec-4-enyloxy)pentadecyloxy-
##JCAMP-DX=4.24
##DATA TYPE=MASS SPECTRUM
##ORIGIN=V.G. Zaikin, R.S.Borisov, TIPS RAS, Moscow, Russia
##OWNER=NIST Mass Spectrometry Data Center
Collection (C) 2014 copyright by the U.S. Secretary of Commerce
on behalf of the United States of America. All rights reserved.
##$NIST MASS SPEC NO=348018
##MOLFORM=C27 H56 O2 Si
##MW=440
##$NIST SOURCE=MSDC
##XUNITS=M/Z
##YUNITS=RELATIVE INTENSITY
##XFACTOR=1
##YFACTOR=1
##FIRSTX=26
##LASTX=442
##FIRSTY=20
##MAXX=442
##MINX=26
##MAXY=9999
##MINY=10
##NPOINTS=158
##PEAK TABLE=(XY..XY)
26,20 27,90 29,100 38,10
39,70 41,581 42,100 43,611
44,10 45,10 50,10 51,30
53,70 54,701 55,1391 56,280
57,911 58,10 59,100 61,90
65,20 66,220 67,2132 68,5095
69,1912 70,330 71,651 75,3043
76,90 77,1351 78,60 79,380
80,130 81,3433 82,3703 83,1902
84,220 85,330 87,40 89,931
90,10 91,270 92,30 93,561
94,60 95,2702 96,3974 97,1511
98,100 99,110 101,831 102,30
103,370 104,10 105,1121 106,20
107,110 109,1952 110,2572 111,480
113,130 114,10 115,571 116,30
117,220 119,130 121,40 123,140
124,40 125,80 126,10 127,170
129,571 131,671 132,30 133,150
135,20 136,40 137,270 138,9999
139,1181 141,70 143,290 144,20
145,290 146,10 147,50 149,10
151,30 155,60 157,80 159,180
169,30 171,110 173,50 180,10
183,70 185,40 187,50 193,10
197,370 198,10 199,1111 200,100
201,60 207,220 208,100 211,20
212,140 213,771 214,130 215,190
217,110 221,10 223,30 229,90
243,721 244,140 245,20 269,90
271,130 281,90 282,50 283,40
285,1151 286,170 287,1772 288,300
289,30 303,140 304,10 313,651
314,70 315,861 316,120 317,20
327,30 328,50 341,1882 342,370
343,60 355,240 356,40 369,20
383,220 384,10 397,1011 398,200
399,20 411,120 412,20 425,3894
426,1001 427,360 428,30 440,1111
441,330 442,20
##END=
