##TITLE=Fumaric acid, 2,4-dimethylpent-3-yl propyl ester
##JCAMP-DX=4.24
##DATA TYPE=MASS SPECTRUM
##ORIGIN=V.G. Zaikin, R.S.Borisov, TIPS RAS, Moscow, Russia
##OWNER=NIST Mass Spectrometry Data Center
Collection (C) 2014 copyright by the U.S. Secretary of Commerce
on behalf of the United States of America. All rights reserved.
##$NIST MASS SPEC NO=348542
##MOLFORM=C14 H24 O4
##MW=256
##$NIST SOURCE=MSDC
##XUNITS=M/Z
##YUNITS=RELATIVE INTENSITY
##XFACTOR=1
##YFACTOR=1
##FIRSTX=26
##LASTX=215
##FIRSTY=30
##MAXX=215
##MINX=26
##MAXY=9999
##MINY=20
##NPOINTS=49
##PEAK TABLE=(XY..XY)
26,30 27,170 29,60 39,80
41,350 42,60 43,601 44,30
45,30 53,80 54,230 55,400
56,130 57,360 58,20 59,20
67,20 69,60 70,30 71,120
72,50 73,90 81,180 82,470
83,550 84,50 97,150 98,240
99,1672 100,801 101,50 113,30
114,70 115,60 117,70 125,20
141,9999 142,1391 143,170 159,20
169,20 184,50 185,130 186,80
197,701 198,80 213,490 214,50
215,20
##END=
