##TITLE=Fumaric acid, 4-heptyl undecyl ester
##JCAMP-DX=4.24
##DATA TYPE=MASS SPECTRUM
##ORIGIN=V.G. Zaikin, R.S.Borisov, TIPS RAS, Moscow, Russia
##OWNER=NIST Mass Spectrometry Data Center
Collection (C) 2014 copyright by the U.S. Secretary of Commerce
on behalf of the United States of America. All rights reserved.
##$NIST MASS SPEC NO=348521
##MOLFORM=C22 H40 O4
##MW=368
##$NIST SOURCE=MSDC
##XUNITS=M/Z
##YUNITS=RELATIVE INTENSITY
##XFACTOR=1
##YFACTOR=1
##FIRSTX=25
##LASTX=298
##FIRSTY=30
##MAXX=298
##MINX=25
##MAXY=9999
##MINY=10
##NPOINTS=162
##PEAK TABLE=(XY..XY)
25,30 26,320 27,1171 29,1321
30,70 31,50 37,30 39,731
40,120 41,4624 42,1311 43,6306
44,40 45,110 51,40 52,20
53,561 54,1511 55,8758 56,5035
57,9999 58,490 59,40 65,50
66,60 67,891 68,1001 69,7857
70,3563 71,3413 72,360 73,200
74,20 77,30 78,20 79,80
80,60 81,1161 82,2412 83,6496
84,1241 85,2062 86,160 91,50
93,50 94,60 95,500 96,631
97,6906 98,6656 99,5695 100,6976
101,1261 102,80 105,20 107,50
108,60 109,250 110,280 111,1692
112,340 113,430 114,140 115,470
116,90 117,3043 118,1221 119,340
120,30 121,40 122,30 123,170
124,380 125,290 126,330 127,250
128,40 129,30 131,20 135,40
136,40 137,110 138,80 139,220
140,140 141,200 142,140 143,340
144,130 145,30 147,20 149,40
150,90 151,120 152,430 153,380
154,340 155,1211 156,120 157,550
158,70 164,20 165,40 166,70
167,80 168,180 169,380 170,100
171,891 172,130 173,70 177,30
178,70 179,70 180,30 181,80
182,100 183,90 184,40 185,20
187,20 192,20 193,30 194,20
195,140 196,140 197,1091 198,110
199,60 200,20 206,20 207,50
208,90 209,50 210,70 211,150
212,20 213,30 215,851 216,90
217,20 223,80 224,140 225,90
226,20 230,30 234,80 235,20
251,30 252,350 253,9408 254,2062
255,300 256,10 269,20 270,130
271,701 272,120 273,20 296,20
297,190 298,100
##END=
