##TITLE=Malonic acid, 4-heptyl propyl ester
##JCAMP-DX=4.24
##DATA TYPE=MASS SPECTRUM
##ORIGIN=L.N.Kulikova, V.G. Zaikin, RPFU, Moscow, Russia
##OWNER=NIST Mass Spectrometry Data Center
Collection (C) 2014 copyright by the U.S. Secretary of Commerce
on behalf of the United States of America. All rights reserved.
##$NIST MASS SPEC NO=348990
##MOLFORM=C13 H24 O4
##MW=244
##$NIST SOURCE=MSDC
##XUNITS=M/Z
##YUNITS=RELATIVE INTENSITY
##XFACTOR=1
##YFACTOR=1
##FIRSTX=26
##LASTX=202
##FIRSTY=30
##MAXX=202
##MINX=26
##MAXY=9999
##MINY=20
##NPOINTS=68
##PEAK TABLE=(XY..XY)
26,30 27,480 28,150 29,390
30,20 31,130 39,240 40,50
41,1181 42,611 43,3603 44,280
45,50 53,50 54,80 55,1251
56,1121 57,2022 58,120 59,100
60,200 61,220 67,40 68,60
69,701 70,591 71,510 72,110
73,751 74,30 83,130 85,30
86,30 87,3123 88,110 89,20
97,60 98,961 99,410 100,50
102,80 103,70 105,1802 106,60
111,50 113,30 114,120 115,1431
116,110 117,40 118,20 125,180
129,9999 130,711 131,160 139,60
141,20 144,50 146,20 147,681
148,40 159,190 167,100 173,30
185,370 186,30 201,300 202,30
##END=
