##TITLE=Fumaric acid, 2-heptyl tetradecyl ester
##JCAMP-DX=4.24
##DATA TYPE=MASS SPECTRUM
##ORIGIN=V.G. Zaikin, R.S.Borisov, TIPS RAS, Moscow, Russia
##OWNER=NIST Mass Spectrometry Data Center
Collection (C) 2014 copyright by the U.S. Secretary of Commerce
on behalf of the United States of America. All rights reserved.
##$NIST MASS SPEC NO=348631
##MOLFORM=C25 H46 O4
##MW=410
##$NIST SOURCE=MSDC
##XUNITS=M/Z
##YUNITS=RELATIVE INTENSITY
##XFACTOR=1
##YFACTOR=1
##FIRSTX=25
##LASTX=367
##FIRSTY=30
##MAXX=367
##MINX=25
##MAXY=9999
##MINY=10
##NPOINTS=187
##PEAK TABLE=(XY..XY)
25,30 26,330 27,1021 29,2002
30,60 31,40 37,40 39,771
40,180 41,4124 42,1321 43,6035
44,260 45,200 50,30 51,50
52,40 53,420 54,1101 55,6746
56,4144 57,9999 58,530 59,40
65,60 66,80 67,991 68,1041
69,6065 70,2893 71,3063 72,460
73,130 74,30 77,70 78,40
79,160 80,90 81,931 82,3904
83,4924 84,1111 85,1732 86,110
91,80 93,90 94,80 95,571
96,811 97,4274 98,4264 99,5715
100,4814 101,1301 102,80 105,40
107,50 108,50 109,350 110,420
111,2092 112,470 113,490 114,100
115,200 116,120 117,3423 118,1411
119,801 120,50 121,50 122,60
123,260 124,350 125,1461 126,310
127,320 128,70 129,50 133,20
135,40 136,80 137,240 138,250
139,410 140,200 141,340 142,130
143,100 144,20 145,40 147,20
149,30 150,60 151,160 152,370
153,460 154,260 155,290 156,90
157,430 158,40 159,70 161,20
163,20 164,50 165,70 166,170
167,110 168,280 169,360 170,180
171,581 172,100 173,80 177,20
178,50 179,50 180,70 181,110
182,180 183,170 184,40 185,30
187,120 189,20 192,30 193,50
194,380 195,220 196,200 197,1021
198,210 199,60 200,20 201,20
205,20 207,40 208,40 209,110
210,70 211,200 212,50 213,100
215,731 216,90 217,20 221,20
223,110 224,80 225,90 226,30
227,40 229,40 234,30 235,30
237,140 238,110 239,90 240,30
241,40 248,10 249,40 251,140
252,160 253,150 254,20 255,60
265,80 266,170 267,70 268,20
269,40 276,70 277,40 283,20
293,20 294,430 295,1551 296,400
297,70 310,20 311,20 312,90
313,310 314,60 367,30
##END=
