##TITLE=Fumaric acid, 2-hexyl octyl ester
##JCAMP-DX=4.24
##DATA TYPE=MASS SPECTRUM
##ORIGIN=L.N.Kulikova, V.G. Zaikin, RPFU, Moscow, Russia
##OWNER=NIST Mass Spectrometry Data Center
Collection (C) 2014 copyright by the U.S. Secretary of Commerce
on behalf of the United States of America. All rights reserved.
##$NIST MASS SPEC NO=348746
##MOLFORM=C18 H32 O4
##MW=312
##$NIST SOURCE=MSDC
##XUNITS=M/Z
##YUNITS=RELATIVE INTENSITY
##XFACTOR=1
##YFACTOR=1
##FIRSTX=25
##LASTX=269
##FIRSTY=10
##MAXX=269
##MINX=25
##MAXY=9999
##MINY=10
##NPOINTS=118
##PEAK TABLE=(XY..XY)
25,10 26,220 27,761 29,1011
30,50 31,20 39,400 40,90
41,2312 42,1401 43,4074 44,110
45,140 53,310 54,831 55,4314
56,2903 57,3083 58,190 59,20
65,20 66,30 67,360 68,400
69,4764 70,1672 71,2402 72,190
73,80 79,30 80,20 81,641
82,1611 83,1411 84,5025 85,2582
86,170 87,20 91,20 92,20
94,10 95,110 96,70 97,270
98,200 99,4024 100,4244 101,701
102,50 108,20 109,90 110,260
111,911 112,520 113,721 114,90
115,50 116,80 117,4094 118,490
119,120 122,20 123,50 124,40
125,30 126,80 127,100 128,50
129,180 136,30 137,90 138,230
139,190 140,130 141,180 142,50
143,60 145,30 150,20 153,170
154,190 155,290 156,150 157,400
158,50 159,90 164,30 165,60
166,20 167,20 168,40 169,160
170,20 171,250 172,50 173,40
181,30 182,100 183,1381 184,190
185,30 192,30 196,40 197,30
201,831 202,80 210,90 211,9999
212,1611 213,190 225,20 226,30
227,30 228,30 229,781 230,110
241,40 269,20
##END=
