##TITLE=Malonic acid, 4-heptyl undecyl ester
##JCAMP-DX=4.24
##DATA TYPE=MASS SPECTRUM
##ORIGIN=L.N.Kulikova, V.G. Zaikin, RPFU, Moscow, Russia
##OWNER=NIST Mass Spectrometry Data Center
Collection (C) 2014 copyright by the U.S. Secretary of Commerce
on behalf of the United States of America. All rights reserved.
##$NIST MASS SPEC NO=348998
##MOLFORM=C21 H40 O4
##MW=356
##$NIST SOURCE=MSDC
##XUNITS=M/Z
##YUNITS=RELATIVE INTENSITY
##XFACTOR=1
##YFACTOR=1
##FIRSTX=26
##LASTX=313
##FIRSTY=20
##MAXX=313
##MINX=26
##MAXY=9999
##MINY=10
##NPOINTS=93
##PEAK TABLE=(XY..XY)
26,20 27,140 28,130 29,330
36,30 39,170 40,40 41,1161
42,450 43,2322 44,70 53,80
54,200 55,1832 56,1311 57,4974
58,200 60,30 61,80 65,20
66,10 67,260 68,320 69,1621
70,1171 71,2422 72,160 73,80
77,20 81,150 82,490 83,1301
84,641 85,1872 86,140 87,1571
88,50 89,50 91,280 93,90
95,100 96,190 97,1331 98,1571
99,871 100,70 102,30 103,20
104,90 105,9999 106,390 107,130
109,40 110,80 111,460 112,220
113,320 114,270 115,1471 116,110
119,40 123,20 124,40 125,250
126,671 127,110 130,30 131,190
132,30 133,40 139,20 141,40
142,20 147,30 150,20 152,20
153,210 154,941 155,340 156,20
159,10 167,30 169,20 181,30
185,50 203,40 223,20 241,4774
242,761 243,90 259,210 260,20
313,30
##END=
