##TITLE=Fumaric acid, octyl pent-4-enyl ester
##JCAMP-DX=4.24
##DATA TYPE=MASS SPECTRUM
##ORIGIN=L.N.Kulikova, V.G. Zaikin, RPFU, Moscow, Russia
##OWNER=NIST Mass Spectrometry Data Center
Collection (C) 2014 copyright by the U.S. Secretary of Commerce
on behalf of the United States of America. All rights reserved.
##$NIST MASS SPEC NO=348850
##MOLFORM=C17 H28 O4
##MW=296
##$NIST SOURCE=MSDC
##XUNITS=M/Z
##YUNITS=RELATIVE INTENSITY
##XFACTOR=1
##YFACTOR=1
##FIRSTX=26
##LASTX=255
##FIRSTY=150
##MAXX=255
##MINX=26
##MAXY=9999
##MINY=10
##NPOINTS=74
##PEAK TABLE=(XY..XY)
26,150 27,490 29,591 30,20
31,20 39,410 40,150 41,2202
42,571 43,1291 45,40 53,450
54,520 55,1822 56,821 57,1141
58,50 65,40 66,60 67,1952
68,9999 69,4414 70,991 71,2102
72,130 81,300 82,771 83,561
84,601 85,120 87,20 93,30
95,60 96,20 97,100 98,30
99,1421 100,691 101,160 109,50
110,70 111,120 112,190 113,160
114,20 117,290 118,20 121,20
122,20 123,30 124,20 127,10
137,30 138,120 139,470 140,60
143,30 153,80 154,30 156,20
157,40 165,30 166,300 167,60
168,110 169,50 183,220 184,150
185,70 211,651 212,120 225,50
229,40 255,70
##END=
