##TITLE=Fumaric acid, butyl cis-non-3-enyl ester
##JCAMP-DX=4.24
##DATA TYPE=MASS SPECTRUM
##ORIGIN=L.N.Kulikova, V.G. Zaikin, RPFU, Moscow, Russia
##OWNER=NIST Mass Spectrometry Data Center
Collection (C) 2014 copyright by the U.S. Secretary of Commerce
on behalf of the United States of America. All rights reserved.
##$NIST MASS SPEC NO=348879
##MOLFORM=C17 H28 O4
##MW=296
##$NIST SOURCE=MSDC
##XUNITS=M/Z
##YUNITS=RELATIVE INTENSITY
##XFACTOR=1
##YFACTOR=1
##FIRSTX=25
##LASTX=224
##FIRSTY=30
##MAXX=224
##MINX=25
##MAXY=9999
##MINY=20
##NPOINTS=79
##PEAK TABLE=(XY..XY)
25,30 26,370 27,1191 28,831
29,2082 30,70 31,50 39,831
40,180 41,3713 42,500 43,611
44,60 45,110 51,40 53,851
54,9999 55,4354 56,1021 57,1812
58,70 65,190 66,480 67,6146
68,8207 69,2833 70,390 71,270
72,130 73,40 77,130 78,20
79,440 80,440 81,6896 82,8758
83,1471 85,20 91,20 93,160
94,110 95,5045 96,4964 97,340
98,30 99,4414 100,1191 101,110
107,70 109,751 110,70 117,881
118,40 121,30 122,30 123,1321
124,6826 125,691 126,40 127,170
135,20 139,20 140,30 143,20
145,20 149,30 153,30 155,4154
156,500 157,60 159,120 165,20
173,150 177,50 181,20 195,170
205,30 223,300 224,30
##END=
