##TITLE=Fumaric acid, 2,4-dimethylpent-3-yl tridecyl ester
##JCAMP-DX=4.24
##DATA TYPE=MASS SPECTRUM
##ORIGIN=V.G. Zaikin, R.S.Borisov, TIPS RAS, Moscow, Russia
##OWNER=NIST Mass Spectrometry Data Center
Collection (C) 2014 copyright by the U.S. Secretary of Commerce
on behalf of the United States of America. All rights reserved.
##$NIST MASS SPEC NO=348554
##MOLFORM=C24 H44 O4
##MW=396
##$NIST SOURCE=MSDC
##XUNITS=M/Z
##YUNITS=RELATIVE INTENSITY
##XFACTOR=1
##YFACTOR=1
##FIRSTX=26
##LASTX=354
##FIRSTY=170
##MAXX=354
##MINX=26
##MAXY=9999
##MINY=10
##NPOINTS=149
##PEAK TABLE=(XY..XY)
26,170 27,651 29,771 30,20
31,20 39,460 40,100 41,2662
42,591 43,4614 44,120 45,70
53,290 54,811 55,4814 56,1732
57,9999 58,460 59,40 65,30
66,50 67,651 68,490 69,5135
70,1501 71,2152 72,280 73,320
77,20 79,20 80,50 81,751
82,2262 83,7166 84,921 85,1431
86,100 91,10 93,50 94,40
95,370 96,430 97,4964 98,3063
99,7287 100,5535 101,1101 102,80
105,30 107,40 108,20 109,230
110,190 111,2762 112,400 113,280
114,260 115,280 116,20 117,671
118,701 119,250 121,40 122,30
123,150 124,180 125,1151 126,310
127,280 128,40 135,20 136,20
137,110 138,100 139,210 140,90
141,130 142,651 143,520 144,150
145,20 150,30 151,70 152,130
153,220 154,220 155,180 156,30
157,320 158,30 165,30 166,40
167,50 168,80 169,190 170,50
171,601 172,70 178,40 179,40
180,260 181,160 182,170 183,691
184,100 195,70 196,80 197,520
198,90 199,160 200,20 209,50
210,30 211,30 212,20 213,20
215,460 216,50 217,20 221,20
223,50 224,50 225,40 226,20
227,20 235,50 237,60 238,80
239,100 240,20 251,40 252,100
253,70 254,20 255,30 262,50
263,30 280,260 281,2893 282,981
283,160 298,90 299,60 324,130
325,220 326,180 327,30 353,450
354,90
##END=
