##TITLE=Fumaric acid, di(2,4-dimethylpent-3-yl) ester
##JCAMP-DX=4.24
##DATA TYPE=MASS SPECTRUM
##ORIGIN=V.G. Zaikin, R.S.Borisov, TIPS RAS, Moscow, Russia
##OWNER=NIST Mass Spectrometry Data Center
Collection (C) 2014 copyright by the U.S. Secretary of Commerce
on behalf of the United States of America. All rights reserved.
##$NIST MASS SPEC NO=348562
##MOLFORM=C18 H32 O4
##MW=312
##$NIST SOURCE=MSDC
##XUNITS=M/Z
##YUNITS=RELATIVE INTENSITY
##XFACTOR=1
##YFACTOR=1
##FIRSTX=26
##LASTX=270
##FIRSTY=100
##MAXX=270
##MINX=26
##MAXY=9999
##MINY=10
##NPOINTS=55
##PEAK TABLE=(XY..XY)
26,100 27,400 29,180 39,210
40,30 41,921 42,80 43,1551
45,40 53,130 54,631 55,1271
56,200 57,3183 58,150 67,40
69,100 71,120 72,120 73,160
81,220 82,1882 83,1421 84,70
97,530 98,631 99,9999 100,1091
101,60 109,50 113,10 114,40
115,290 116,20 123,20 125,350
126,240 127,40 137,20 142,120
143,130 144,30 151,20 155,80
169,100 170,30 171,110 179,20
197,9148 198,1091 199,120 241,120
242,20 269,220 270,30
##END=
