##TITLE=Fumaric acid, hexyl 4-phenylphenyl ester
##JCAMP-DX=4.24
##DATA TYPE=MASS SPECTRUM
##ORIGIN=V.G. Zaikin, R.S.Borisov, TIPS RAS, Moscow, Russia
##OWNER=NIST Mass Spectrometry Data Center
Collection (C) 2014 copyright by the U.S. Secretary of Commerce
on behalf of the United States of America. All rights reserved.
##$NIST MASS SPEC NO=348212
##MOLFORM=C22 H24 O4
##MW=352
##$NIST SOURCE=MSDC
##XUNITS=M/Z
##YUNITS=RELATIVE INTENSITY
##XFACTOR=1
##YFACTOR=1
##FIRSTX=26
##LASTX=354
##FIRSTY=80
##MAXX=354
##MINX=26
##MAXY=9999
##MINY=10
##NPOINTS=76
##PEAK TABLE=(XY..XY)
26,80 27,200 29,160 39,120
41,390 42,100 43,1802 44,90
51,30 53,120 54,240 55,661
56,120 57,380 63,70 65,40
67,20 69,70 71,50 75,20
76,50 77,30 81,210 82,280
83,90 84,30 85,3483 86,230
87,10 89,60 91,30 99,1401
100,80 101,80 102,50 113,30
114,30 115,621 116,70 126,20
127,20 139,210 140,60 141,751
142,120 151,50 152,190 153,100
154,40 165,40 166,20 167,60
168,20 169,460 170,9999 171,1321
172,90 178,40 179,40 180,10
181,30 183,500 184,50 185,20
223,260 224,70 251,230 252,80
253,20 254,140 255,30 268,90
269,20 352,931 353,210 354,30
##END=
