##TITLE=Fumaric acid, myrtenyl pentyl ester
##JCAMP-DX=4.24
##DATA TYPE=MASS SPECTRUM
##ORIGIN=L.N.Kulikova, V.G. Zaikin, RPFU, Moscow, Russia
##OWNER=NIST Mass Spectrometry Data Center
Collection (C) 2014 copyright by the U.S. Secretary of Commerce
on behalf of the United States of America. All rights reserved.
##$NIST MASS SPEC NO=348813
##MOLFORM=C19 H28 O4
##MW=320
##$NIST SOURCE=MSDC
##XUNITS=M/Z
##YUNITS=RELATIVE INTENSITY
##XFACTOR=1
##YFACTOR=1
##FIRSTX=26
##LASTX=233
##FIRSTY=80
##MAXX=233
##MINX=26
##MAXY=9999
##MINY=10
##NPOINTS=97
##PEAK TABLE=(XY..XY)
26,80 27,290 28,70 29,190
36,20 39,270 40,50 41,971
42,260 43,1201 44,100 45,30
51,70 52,40 53,310 54,190
55,671 56,80 57,110 58,20
63,20 65,170 66,60 67,250
68,160 69,400 70,270 71,691
72,40 73,20 77,550 78,370
79,981 80,160 81,320 82,240
83,50 89,20 90,20 91,9999
92,3533 93,1181 94,120 95,80
96,30 97,20 98,30 99,1431
100,1121 101,80 102,20 103,100
104,70 105,891 106,470 107,410
108,70 109,150 110,10 111,30
115,90 116,40 117,540 118,90
119,4184 120,420 121,260 122,30
123,30 129,20 131,50 132,50
133,300 134,2282 135,510 136,50
141,20 144,20 145,50 147,60
149,20 151,60 152,40 157,20
159,30 161,150 162,90 163,20
169,871 170,260 171,40 177,20
187,60 188,30 189,20 205,30
233,40
##END=
