##TITLE=Silane, dimethyl(but-2-enyloxy)dodecyloxy-
##JCAMP-DX=4.24
##DATA TYPE=MASS SPECTRUM
##ORIGIN=V.G. Zaikin, R.S.Borisov, TIPS RAS, Moscow, Russia
##OWNER=NIST Mass Spectrometry Data Center
Collection (C) 2014 copyright by the U.S. Secretary of Commerce
on behalf of the United States of America. All rights reserved.
##$NIST MASS SPEC NO=348060
##MOLFORM=C18 H38 O2 Si
##MW=314
##$NIST SOURCE=MSDC
##XUNITS=M/Z
##YUNITS=RELATIVE INTENSITY
##XFACTOR=1
##YFACTOR=1
##FIRSTX=26
##LASTX=316
##FIRSTY=50
##MAXX=316
##MINX=26
##MAXY=9999
##MINY=20
##NPOINTS=145
##PEAK TABLE=(XY..XY)
26,50 27,290 29,581 39,330
40,40 41,1381 42,270 43,1722
45,250 47,200 50,20 51,30
53,180 54,360 55,2973 56,470
57,1321 58,120 59,480 60,100
61,651 62,40 63,160 66,50
67,681 68,631 69,2192 70,300
71,530 72,30 73,30 74,140
75,9999 76,761 77,6376 78,360
79,240 80,30 81,751 82,1051
83,2282 84,230 85,480 86,20
87,240 88,100 89,1782 90,170
91,781 92,40 93,540 94,40
95,931 96,741 97,1962 98,230
99,500 100,50 101,1141 102,100
103,601 104,40 105,691 106,30
107,40 109,510 110,370 111,911
112,90 113,771 114,140 115,2572
116,300 117,1071 118,80 119,130
123,270 124,210 125,80 127,260
128,561 129,2522 130,370 131,2632
132,260 133,1762 134,160 135,20
137,110 138,200 141,190 142,20
143,520 144,90 145,9889 146,1611
147,611 148,40 149,30 155,40
157,250 158,50 159,7817 160,991
161,1211 162,110 163,20 165,70
166,450 167,20 169,30 171,140
173,180 174,50 185,100 187,2562
188,340 189,80 199,40 201,220
215,50 227,530 228,80 229,180
241,80 242,30 243,2072 244,380
245,360 246,40 257,170 259,70
269,170 270,20 271,4274 272,861
273,270 285,70 299,5685 300,1321
301,250 313,130 314,1341 315,300
316,40
##END=
