##TITLE=Fumaric acid, dodecyl 4-methylpent-2-yl ester
##JCAMP-DX=4.24
##DATA TYPE=MASS SPECTRUM
##ORIGIN=V.G. Zaikin, R.S.Borisov, TIPS RAS, Moscow, Russia
##OWNER=NIST Mass Spectrometry Data Center
Collection (C) 2014 copyright by the U.S. Secretary of Commerce
on behalf of the United States of America. All rights reserved.
##$NIST MASS SPEC NO=348326
##MOLFORM=C22 H40 O4
##MW=368
##$NIST SOURCE=MSDC
##XUNITS=M/Z
##YUNITS=RELATIVE INTENSITY
##XFACTOR=1
##YFACTOR=1
##FIRSTX=25
##LASTX=353
##FIRSTY=20
##MAXX=353
##MINX=25
##MAXY=9999
##MINY=10
##NPOINTS=142
##PEAK TABLE=(XY..XY)
25,20 26,270 27,891 28,440
29,1111 30,40 31,20 37,30
39,651 40,160 41,3773 42,1161
43,7857 44,591 45,150 51,20
53,380 54,971 55,5385 56,2342
57,4424 58,210 59,70 65,40
66,60 67,751 68,791 69,7967
70,1712 71,1792 72,180 73,90
77,20 78,20 79,50 80,50
81,721 82,1782 83,4204 84,8478
85,9999 86,581 91,20 93,40
94,40 95,300 96,480 97,3323
98,651 99,2973 100,4224 101,761
102,60 107,30 108,20 109,200
110,290 111,1992 112,380 113,280
114,50 115,30 116,80 117,1181
118,781 119,270 121,20 122,30
123,140 124,140 125,340 126,100
127,140 128,30 135,20 136,20
137,110 138,200 139,190 140,210
141,190 142,40 143,30 149,10
150,20 151,30 152,70 153,150
154,220 155,150 156,60 157,410
158,70 159,20 164,20 165,40
166,260 167,120 168,160 169,220
170,40 171,420 172,60 179,20
180,20 181,50 182,90 183,611
184,130 185,90 193,20 194,40
195,70 196,20 197,30 199,20
201,571 202,60 209,60 210,20
211,20 212,20 213,20 221,30
223,40 224,40 225,90 237,40
238,90 239,50 241,20 248,30
266,170 267,1692 268,400 269,40
282,20 284,20 285,190 286,30
325,30 353,80
##END=
