##TITLE=Fumaric acid, butyl tridecyl ester
##JCAMP-DX=4.24
##DATA TYPE=MASS SPECTRUM
##ORIGIN=L.N.Kulikova, V.G. Zaikin, RPFU, Moscow, Russia
##OWNER=NIST Mass Spectrometry Data Center
Collection (C) 2014 copyright by the U.S. Secretary of Commerce
on behalf of the United States of America. All rights reserved.
##$NIST MASS SPEC NO=348804
##MOLFORM=C21 H38 O4
##MW=354
##$NIST SOURCE=MSDC
##XUNITS=M/Z
##YUNITS=RELATIVE INTENSITY
##XFACTOR=1
##YFACTOR=1
##FIRSTX=26
##LASTX=355
##FIRSTY=130
##MAXX=355
##MINX=26
##MAXY=9999
##MINY=10
##NPOINTS=190
##PEAK TABLE=(XY..XY)
26,130 27,440 28,380 29,971
30,50 31,30 39,370 40,80
41,2702 42,711 43,3323 44,280
45,60 51,20 53,310 54,881
55,4914 56,3663 57,5675 58,280
65,20 66,70 67,831 68,1101
69,4874 70,2392 71,2212 72,220
73,120 74,20 75,90 77,20
79,70 80,70 81,941 82,2032
83,4734 84,1672 85,1391 86,110
87,20 93,40 94,60 95,510
96,981 97,3944 98,1181 99,4164
100,4204 101,2072 102,120 103,20
105,20 107,30 108,50 109,380
110,550 111,2122 112,681 113,410
114,110 115,40 116,20 117,9999
118,961 119,350 120,20 121,40
122,50 123,290 124,390 125,891
126,470 127,821 128,190 129,130
130,30 131,20 135,30 136,70
137,260 138,300 139,550 140,290
141,310 142,80 143,90 144,40
145,170 146,30 147,20 149,40
150,80 151,170 152,330 153,801
154,781 155,3483 156,2322 157,1171
158,130 159,150 163,40 164,70
165,110 166,180 167,90 168,230
169,310 170,90 171,110 172,100
173,4934 174,1171 175,510 176,50
177,50 178,80 179,80 180,260
181,250 182,671 183,460 184,80
185,40 187,80 191,40 192,40
193,60 194,80 195,200 196,140
197,721 198,110 199,120 200,20
201,20 203,10 205,30 206,30
208,30 209,210 210,130 211,260
212,70 213,460 214,60 219,30
220,50 221,110 222,20 223,250
224,130 225,200 226,60 227,390
228,100 229,20 233,20 234,60
235,120 236,40 237,320 238,200
239,581 240,90 241,40 242,20
251,200 252,230 253,240 254,60
255,50 262,150 263,40 265,30
269,50 279,30 280,390 281,681
282,140 283,70 297,60 299,821
300,140 311,30 325,80 339,20
354,60 355,10
##END=
