##TITLE=Malonic acid, 3-methylpentyl propyl ester
##JCAMP-DX=4.24
##DATA TYPE=MASS SPECTRUM
##ORIGIN=V.G. Zaikin, R.S.Borisov, TIPS RAS, Moscow, Russia
##OWNER=NIST Mass Spectrometry Data Center
Collection (C) 2014 copyright by the U.S. Secretary of Commerce
on behalf of the United States of America. All rights reserved.
##$NIST MASS SPEC NO=348671
##MOLFORM=C12 H22 O4
##MW=230
##$NIST SOURCE=MSDC
##XUNITS=M/Z
##YUNITS=RELATIVE INTENSITY
##XFACTOR=1
##YFACTOR=1
##FIRSTX=26
##LASTX=201
##FIRSTY=90
##MAXX=201
##MINX=26
##MAXY=9999
##MINY=20
##NPOINTS=57
##PEAK TABLE=(XY..XY)
26,90 27,1071 29,1361 30,90
31,240 39,671 40,140 41,3303
42,1561 43,5905 44,811 45,150
53,190 54,270 55,5335 56,3813
57,1411 58,40 59,140 60,360
61,671 67,150 68,70 69,7146
70,150 72,30 73,50 82,30
83,500 84,7367 85,5275 86,340
87,4084 88,100 89,160 99,20
100,40 101,70 102,130 104,80
105,9999 106,340 107,70 113,20
114,80 129,1852 130,100 131,340
132,300 147,2963 148,190 159,150
171,1531 172,140 173,260 174,60
201,190
##END=
