##TITLE=Fumaric acid, 2-decyl tetradecyl ester
##JCAMP-DX=4.24
##DATA TYPE=MASS SPECTRUM
##ORIGIN=V.G. Zaikin, R.S.Borisov, TIPS RAS, Moscow, Russia
##OWNER=NIST Mass Spectrometry Data Center
Collection (C) 2014 copyright by the U.S. Secretary of Commerce
on behalf of the United States of America. All rights reserved.
##$NIST MASS SPEC NO=348595
##MOLFORM=C28 H52 O4
##MW=452
##$NIST SOURCE=MSDC
##XUNITS=M/Z
##YUNITS=RELATIVE INTENSITY
##XFACTOR=1
##YFACTOR=1
##FIRSTX=25
##LASTX=434
##FIRSTY=30
##MAXX=434
##MINX=25
##MAXY=9999
##MINY=10
##NPOINTS=215
##PEAK TABLE=(XY..XY)
25,30 26,280 27,901 29,1481
30,40 31,30 37,20 39,771
40,190 41,4314 42,1551 43,7617
44,550 45,210 50,30 51,40
52,20 53,440 54,1251 55,8928
56,4564 57,9999 58,571 59,60
65,70 66,130 67,1461 68,1451
69,8678 70,4444 71,6646 72,380
73,170 74,40 77,70 78,20
79,220 80,130 81,1231 82,2863
83,8518 84,3163 85,5485 86,360
87,40 91,80 93,110 94,110
95,901 96,1842 97,8768 98,2592
99,4974 100,7977 101,1812 102,140
103,20 105,60 107,90 108,70
109,540 110,781 111,4984 112,1672
113,881 114,170 115,90 116,270
117,3914 118,2332 119,1551 120,90
121,90 122,80 123,450 124,591
125,1651 126,440 127,641 128,100
129,50 130,20 131,30 133,40
134,10 135,90 136,100 137,540
138,611 139,751 140,4384 141,2242
142,350 143,150 144,30 145,30
147,20 149,70 150,110 151,260
152,370 153,701 154,410 155,400
156,240 157,971 158,110 159,40
161,20 163,40 164,110 165,190
166,430 167,1261 168,540 169,310
170,130 171,1091 172,180 177,30
178,80 179,120 180,130 181,230
182,330 183,300 184,100 185,70
186,30 187,20 191,30 192,90
193,180 194,1001 195,480 196,400
197,1281 198,240 199,90 200,50
205,30 206,40 208,30 209,200
210,270 211,540 212,200 213,310
214,90 215,50 219,20 220,100
221,90 222,30 223,240 224,200
225,130 226,80 227,70 229,30
231,20 234,80 235,80 236,20
237,330 238,380 239,851 240,230
241,120 247,20 248,50 249,130
250,50 251,320 252,420 253,360
254,60 255,90 256,10 257,1221
258,190 259,20 265,170 266,410
267,170 268,40 269,80 276,210
277,130 283,70 293,40 294,1311
295,3944 296,1291 297,310 298,30
310,70 311,110 312,390 313,1281
314,390 315,170 316,20 337,210
338,120 339,20 352,10 353,20
367,190 368,40 381,60 393,10
408,50 409,30 434,30
##END=
