##TITLE=Fumaric acid, 2,4-dimethylpent-3-yl heptadecyl ester
##JCAMP-DX=4.24
##DATA TYPE=MASS SPECTRUM
##ORIGIN=V.G. Zaikin, R.S.Borisov, TIPS RAS, Moscow, Russia
##OWNER=NIST Mass Spectrometry Data Center
Collection (C) 2014 copyright by the U.S. Secretary of Commerce
on behalf of the United States of America. All rights reserved.
##$NIST MASS SPEC NO=348558
##MOLFORM=C28 H52 O4
##MW=452
##$NIST SOURCE=MSDC
##XUNITS=M/Z
##YUNITS=RELATIVE INTENSITY
##XFACTOR=1
##YFACTOR=1
##FIRSTX=26
##LASTX=437
##FIRSTY=130
##MAXX=437
##MINX=26
##MAXY=9999
##MINY=10
##NPOINTS=191
##PEAK TABLE=(XY..XY)
26,130 27,430 28,190 29,490
37,20 39,400 40,100 41,1962
42,480 43,3863 44,240 45,40
51,20 53,180 54,561 55,3753
56,1481 57,9999 58,460 59,20
65,30 66,60 67,691 68,530
69,3453 70,1361 71,2282 72,250
73,230 74,10 77,30 78,10
79,100 80,60 81,711 82,1511
83,5525 84,731 85,1531 86,100
91,40 93,70 94,60 95,500
96,561 97,4054 98,2953 99,6436
100,4144 101,1041 102,70 103,20
105,40 107,50 108,30 109,340
110,250 111,2262 112,350 113,300
114,170 115,230 116,30 117,751
118,751 119,480 120,30 121,60
122,50 123,200 124,200 125,1111
126,290 127,310 128,40 131,20
133,20 135,20 136,40 137,190
138,150 139,480 140,130 141,230
142,400 143,380 144,150 145,30
147,30 149,40 150,20 151,100
152,120 153,340 154,170 155,230
156,40 157,240 158,20 163,20
164,20 165,70 166,90 167,200
168,110 169,200 170,40 171,500
172,70 178,30 179,70 180,70
181,180 182,110 183,90 184,20
193,30 194,50 195,110 196,100
197,390 198,70 199,30 208,40
209,80 210,90 211,80 212,20
213,30 215,430 216,50 221,20
223,70 224,70 227,20 234,20
235,40 236,290 237,210 238,140
239,540 240,100 241,30 249,10
251,120 252,130 253,120 254,30
255,110 263,20 265,110 266,160
267,60 268,30 269,50 273,40
276,20 277,20 279,100 280,180
281,40 282,30 283,40 291,140
292,30 293,70 294,150 295,130
296,30 297,30 307,40 308,130
309,90 310,20 318,70 319,250
320,50 335,30 336,500 337,1732
338,721 339,140 354,150 355,60
380,160 381,180 382,150 383,20
409,400 410,100 437,20
##END=
