##TITLE=Silane, dimethyl(dodec-2-enyloxy)heptyloxy-
##JCAMP-DX=4.24
##DATA TYPE=MASS SPECTRUM
##ORIGIN=V.G. Zaikin, R.S.Borisov, TIPS RAS, Moscow, Russia
##OWNER=NIST Mass Spectrometry Data Center
Collection (C) 2014 copyright by the U.S. Secretary of Commerce
on behalf of the United States of America. All rights reserved.
##$NIST MASS SPEC NO=348068
##MOLFORM=C21 H44 O2 Si
##MW=356
##$NIST SOURCE=MSDC
##XUNITS=M/Z
##YUNITS=RELATIVE INTENSITY
##XFACTOR=1
##YFACTOR=1
##FIRSTX=27
##LASTX=358
##FIRSTY=100
##MAXX=358
##MINX=27
##MAXY=9999
##MINY=20
##NPOINTS=161
##PEAK TABLE=(XY..XY)
27,100 29,230 39,180 40,30
41,871 42,160 43,1551 45,100
47,80 53,80 54,310 55,1521
56,230 57,430 58,50 59,290
60,40 61,320 63,80 65,20
66,70 67,721 68,500 69,390
70,140 71,40 74,70 75,6746
76,500 77,3934 78,210 79,300
80,70 81,1001 82,1091 83,120
85,70 86,20 87,160 88,60
89,1131 90,120 91,430 92,20
93,981 94,80 95,1161 96,981
97,1231 98,150 99,390 100,40
101,851 102,70 103,330 105,931
106,70 107,70 109,651 110,380
113,420 114,110 115,1581 116,180
117,460 118,60 119,130 121,30
123,280 124,210 125,50 127,200
128,50 129,911 130,130 131,1672
132,170 133,70 137,150 138,270
139,40 141,120 143,340 144,90
145,971 146,100 147,80 155,80
157,410 158,60 159,300 160,20
165,240 166,581 167,70 169,50
171,290 172,60 173,6786 174,1031
175,6065 176,781 177,190 185,140
187,170 188,20 189,120 191,280
192,20 197,20 199,150 200,20
201,1091 202,170 203,300 204,40
213,90 215,130 216,20 227,581
228,90 229,9999 230,1762 231,490
232,40 240,40 241,230 242,40
243,2462 244,470 245,290 246,30
255,50 257,751 258,140 259,20
269,20 271,1782 272,330 273,100
285,1601 286,330 287,90 299,891
300,190 301,70 311,40 313,1251
314,280 315,40 326,30 327,200
328,60 341,3433 342,851 343,350
344,50 355,70 356,1231 357,340
358,90
##END=
