##TITLE=Fumaric acid, 3-methylbut-2-yl tridecyl ester
##JCAMP-DX=4.24
##DATA TYPE=MASS SPECTRUM
##ORIGIN=V.G. Zaikin, R.S.Borisov, TIPS RAS, Moscow, Russia
##OWNER=NIST Mass Spectrometry Data Center
Collection (C) 2014 copyright by the U.S. Secretary of Commerce
on behalf of the United States of America. All rights reserved.
##$NIST MASS SPEC NO=348085
##MOLFORM=C22 H40 O4
##MW=368
##$NIST SOURCE=MSDC
##XUNITS=M/Z
##YUNITS=RELATIVE INTENSITY
##XFACTOR=1
##YFACTOR=1
##FIRSTX=26
##LASTX=353
##FIRSTY=180
##MAXX=353
##MINX=26
##MAXY=9999
##MINY=10
##NPOINTS=162
##PEAK TABLE=(XY..XY)
26,180 27,581 29,881 31,20
38,40 39,400 40,80 41,2362
42,841 43,4974 44,310 45,150
51,20 53,300 54,811 55,4564
56,1531 57,3263 58,140 65,20
66,50 67,621 68,621 69,4174
70,7327 71,9999 72,561 73,70
77,20 79,60 80,40 81,681
82,1832 83,3773 84,921 85,1151
86,100 87,210 91,20 93,40
94,40 95,360 96,561 97,3693
98,691 99,2873 100,4554 101,801
102,60 105,20 107,20 108,20
109,210 110,270 111,1912 112,430
113,250 114,140 115,50 117,1341
118,981 119,330 120,20 121,30
122,30 123,220 124,250 125,831
126,270 127,280 128,80 129,50
135,20 136,30 137,130 138,150
139,250 140,160 141,400 142,360
143,210 144,80 145,120 146,20
149,10 150,50 151,80 152,190
153,260 154,290 155,150 156,50
157,440 158,40 164,30 165,40
166,70 167,60 168,160 169,971
170,200 171,621 172,100 173,50
178,30 179,50 180,370 181,180
182,260 183,280 184,50 185,30
186,20 187,1001 188,110 193,20
194,30 195,100 196,70 197,160
198,40 199,170 200,30 201,20
209,90 210,60 211,70 212,30
213,50 220,30 221,30 223,100
224,80 225,70 226,30 227,70
234,20 235,60 236,20 237,120
238,130 239,180 240,30 241,30
251,80 252,160 253,110 254,30
255,20 262,80 263,30 279,10
280,380 281,2192 282,621 283,90
297,20 298,100 299,90 324,110
325,40 353,70
##END=
