##TITLE=Fumaric acid, pent-4-en-2-yl pentyl ester
##JCAMP-DX=4.24
##DATA TYPE=MASS SPECTRUM
##ORIGIN=L.N.Kulikova, V.G. Zaikin, RPFU, Moscow, Russia
##OWNER=NIST Mass Spectrometry Data Center
Collection (C) 2014 copyright by the U.S. Secretary of Commerce
on behalf of the United States of America. All rights reserved.
##$NIST MASS SPEC NO=348924
##MOLFORM=C14 H22 O4
##MW=254
##$NIST SOURCE=MSDC
##XUNITS=M/Z
##YUNITS=RELATIVE INTENSITY
##XFACTOR=1
##YFACTOR=1
##FIRSTX=26
##LASTX=171
##FIRSTY=110
##MAXX=171
##MINX=26
##MAXY=9999
##MINY=10
##NPOINTS=40
##PEAK TABLE=(XY..XY)
26,110 27,320 29,210 39,260
40,60 41,931 42,240 43,771
45,30 53,200 54,380 55,711
56,30 65,10 67,290 68,1111
69,931 70,200 71,410 72,30
81,260 82,450 83,30 84,20
95,100 97,30 98,40 99,1932
100,300 101,40 112,80 117,90
139,40 140,120 141,30 167,480
168,50 169,9999 170,931 171,90
##END=
