##TITLE=Silane, dimethyl(3-methylbut-3-enyloxy)isohexyloxy-
##JCAMP-DX=4.24
##DATA TYPE=MASS SPECTRUM
##ORIGIN=V.G. Zaikin, R.S.Borisov, TIPS RAS, Moscow, Russia
##OWNER=NIST Mass Spectrometry Data Center
Collection (C) 2014 copyright by the U.S. Secretary of Commerce
on behalf of the United States of America. All rights reserved.
##$NIST MASS SPEC NO=348002
##MOLFORM=C13 H28 O2 Si
##MW=244
##$NIST SOURCE=MSDC
##XUNITS=M/Z
##YUNITS=RELATIVE INTENSITY
##XFACTOR=1
##YFACTOR=1
##FIRSTX=26
##LASTX=245
##FIRSTY=10
##MAXX=245
##MINX=26
##MAXY=9999
##MINY=10
##NPOINTS=110
##PEAK TABLE=(XY..XY)
26,10 27,90 29,100 39,150
40,50 41,550 42,40 43,751
45,200 47,150 51,10 53,80
54,10 55,881 56,170 57,150
58,160 59,540 60,60 61,360
62,20 63,40 64,20 65,10
67,150 68,180 69,280 70,10
71,40 72,30 73,60 74,70
75,2772 76,200 77,951 78,50
79,60 81,60 82,140 83,9999
84,681 85,540 86,30 87,170
88,200 89,1792 90,160 91,190
95,30 97,110 98,10 99,240
100,30 101,1672 102,160 103,480
104,30 105,380 106,20 107,70
109,20 111,70 113,460 114,70
115,260 116,20 117,230 118,20
119,470 120,30 121,10 125,40
127,360 128,40 129,581 130,70
131,300 132,20 133,10 141,20
142,30 143,2532 144,330 145,601
146,60 147,30 155,10 157,200
158,30 159,1201 160,160 161,130
171,10 173,390 174,40 175,110
187,310 188,50 189,2272 190,350
191,90 199,40 201,1441 202,220
203,60 229,1321 230,230 231,60
244,100 245,20
##END=
