##TITLE=Fumaric acid, 3-methylbut-3-enyl pentyl ester
##JCAMP-DX=4.24
##DATA TYPE=MASS SPECTRUM
##ORIGIN=L.N.Kulikova, V.G. Zaikin, RPFU, Moscow, Russia
##OWNER=NIST Mass Spectrometry Data Center
Collection (C) 2014 copyright by the U.S. Secretary of Commerce
on behalf of the United States of America. All rights reserved.
##$NIST MASS SPEC NO=348903
##MOLFORM=C14 H22 O4
##MW=254
##$NIST SOURCE=MSDC
##XUNITS=M/Z
##YUNITS=RELATIVE INTENSITY
##XFACTOR=1
##YFACTOR=1
##FIRSTX=26
##LASTX=225
##FIRSTY=150
##MAXX=225
##MINX=26
##MAXY=9999
##MINY=20
##NPOINTS=40
##PEAK TABLE=(XY..XY)
26,150 27,480 29,430 39,390
40,150 41,1321 42,330 43,831
45,30 53,460 54,540 55,701
65,20 66,30 67,1191 68,9999
69,1972 70,280 71,420 72,30
81,280 82,480 93,40 95,40
98,30 99,1381 100,230 101,20
109,50 112,30 117,190 138,40
139,20 141,20 167,40 169,2072
170,230 171,20 187,80 225,20
##END=
