##TITLE=Fumaric acid, dodecyl 2-ethylbutyl ester
##JCAMP-DX=4.24
##DATA TYPE=MASS SPECTRUM
##ORIGIN=V.G. Zaikin, R.S.Borisov, TIPS RAS, Moscow, Russia
##OWNER=NIST Mass Spectrometry Data Center
Collection (C) 2014 copyright by the U.S. Secretary of Commerce
on behalf of the United States of America. All rights reserved.
##$NIST MASS SPEC NO=348301
##MOLFORM=C22 H40 O4
##MW=368
##$NIST SOURCE=MSDC
##XUNITS=M/Z
##YUNITS=RELATIVE INTENSITY
##XFACTOR=1
##YFACTOR=1
##FIRSTX=27
##LASTX=340
##FIRSTY=30
##MAXX=340
##MINX=27
##MAXY=9999
##MINY=10
##NPOINTS=167
##PEAK TABLE=(XY..XY)
27,30 29,90 36,40 39,70
41,440 42,170 43,1491 44,50
51,10 53,130 54,390 55,2382
56,1531 57,2262 58,110 59,30
60,50 61,30 65,20 66,40
67,510 68,581 69,4324 70,1461
71,1611 72,180 73,120 74,20
77,20 79,80 80,60 81,520
82,1651 83,3283 84,9999 85,8147
86,591 87,50 91,30 93,50
94,50 95,410 96,661 97,3023
98,851 99,3343 100,5635 101,1031
102,80 107,30 108,40 109,320
110,420 111,1692 112,460 113,360
114,120 115,70 116,20 117,3904
118,1301 119,701 120,40 121,40
122,40 123,260 124,270 125,520
126,300 127,280 128,60 129,90
130,30 131,170 132,20 133,20
135,40 136,80 137,280 138,300
139,320 140,410 141,350 142,80
143,70 144,30 145,20 149,30
150,40 151,110 152,190 153,510
154,440 155,561 156,120 157,520
158,80 159,20 163,30 164,90
165,110 166,430 167,190 168,460
169,380 170,90 171,470 172,110
173,30 177,20 178,50 179,60
180,80 181,160 182,340 183,2272
184,661 185,190 186,30 187,20
193,30 194,20 195,170 196,60
197,110 198,50 199,60 200,20
201,1822 202,330 203,90 206,40
207,50 209,160 210,90 211,80
212,30 213,40 220,40 221,100
222,30 223,170 224,120 225,520
226,60 227,50 237,180 238,210
239,180 240,40 241,160 248,120
249,30 255,110 256,40 265,40
266,410 267,821 268,540 269,90
283,30 284,100 285,250 286,30
299,40 339,220 340,30
##END=
