##TITLE=Fumaric acid, hexyl tetradec-3-enyl ester
##JCAMP-DX=4.24
##DATA TYPE=MASS SPECTRUM
##ORIGIN=L.N.Kulikova, V.G. Zaikin, RPFU, Moscow, Russia
##OWNER=NIST Mass Spectrometry Data Center
Collection (C) 2014 copyright by the U.S. Secretary of Commerce
on behalf of the United States of America. All rights reserved.
##$NIST MASS SPEC NO=348837
##MOLFORM=C24 H42 O4
##MW=394
##$NIST SOURCE=MSDC
##XUNITS=M/Z
##YUNITS=RELATIVE INTENSITY
##XFACTOR=1
##YFACTOR=1
##FIRSTX=25
##LASTX=395
##FIRSTY=30
##MAXX=395
##MINX=25
##MAXY=9999
##MINY=20
##NPOINTS=172
##PEAK TABLE=(XY..XY)
25,30 26,310 27,1051 29,1111
30,40 31,20 37,20 39,931
40,120 41,6576 42,1802 43,7877
45,90 53,771 54,2803 55,9999
56,2983 57,2192 58,90 65,130
66,390 67,5875 68,7957 69,6876
70,821 71,681 72,190 73,40
77,80 79,160 80,440 81,6326
82,9699 83,4444 84,1031 85,4504
86,320 91,60 93,320 94,420
95,6146 96,6146 97,2783 98,290
99,3823 100,3103 101,1011 102,60
103,20 107,220 108,270 109,3683
110,2762 111,1371 112,230 113,110
114,50 115,20 117,5655 118,500
119,180 120,40 121,360 122,280
123,1912 124,1451 125,611 127,40
134,50 135,290 136,220 137,1151
138,891 139,360 140,100 141,80
142,30 143,90 147,30 148,90
149,240 150,170 151,530 152,490
153,250 154,90 155,140 156,30
157,110 161,30 162,70 163,160
164,180 165,320 166,360 167,160
168,60 171,30 173,20 175,20
176,50 177,60 178,120 179,90
180,70 181,80 182,60 183,1752
184,1481 185,270 186,20 190,50
191,40 192,380 193,380 194,611
195,140 196,90 198,30 199,20
201,2472 202,310 203,90 204,30
205,40 206,50 209,30 210,320
211,130 212,50 217,20 219,50
220,40 221,70 222,110 223,40
224,90 225,20 229,20 232,80
233,40 235,100 236,190 237,70
238,20 241,40 246,60 247,90
248,70 249,110 250,611 251,190
252,30 263,120 264,581 265,200
266,40 274,150 275,70 277,40
292,1291 293,1201 294,250 295,30
323,20 337,50 351,130 352,30
365,40 376,20 394,130 395,30
##END=
