##TITLE=Fumaric acid, dodecyl 2-methylpentyl ester
##JCAMP-DX=4.24
##DATA TYPE=MASS SPECTRUM
##ORIGIN=V.G. Zaikin, R.S.Borisov, TIPS RAS, Moscow, Russia
##OWNER=NIST Mass Spectrometry Data Center
Collection (C) 2014 copyright by the U.S. Secretary of Commerce
on behalf of the United States of America. All rights reserved.
##$NIST MASS SPEC NO=348730
##MOLFORM=C22 H40 O4
##MW=368
##$NIST SOURCE=MSDC
##XUNITS=M/Z
##YUNITS=RELATIVE INTENSITY
##XFACTOR=1
##YFACTOR=1
##FIRSTX=25
##LASTX=353
##FIRSTY=30
##MAXX=353
##MINX=25
##MAXY=9999
##MINY=20
##NPOINTS=149
##PEAK TABLE=(XY..XY)
25,30 26,290 27,991 29,1241
30,40 31,60 37,20 39,621
41,3693 42,861 43,7227 45,120
53,420 54,1181 55,5665 56,1982
57,4204 58,230 59,240 65,30
66,50 67,741 68,631 69,7237
70,1431 71,2072 72,230 73,80
79,20 80,40 81,861 82,2642
83,4834 84,7717 85,9999 86,691
87,20 93,40 94,40 95,380
96,450 97,4874 98,741 99,3563
100,5705 101,1171 102,90 107,20
108,20 109,250 110,250 111,2662
112,420 113,300 114,210 115,60
117,971 118,861 119,240 120,20
121,20 122,30 123,140 124,160
125,500 126,190 127,210 128,70
129,60 130,20 136,40 137,160
138,200 139,170 140,220 141,200
142,530 143,320 144,100 145,20
150,20 151,20 152,60 153,200
154,220 155,290 156,70 157,450
158,40 164,50 165,30 166,380
167,120 168,220 169,561 170,70
171,661 172,100 179,20 180,30
181,80 182,70 183,951 184,160
185,220 186,30 194,30 195,90
196,40 197,30 198,20 199,40
201,791 202,90 206,20 209,50
210,40 211,40 212,50 213,30
220,20 221,50 223,70 224,80
225,140 226,20 227,20 237,60
238,160 239,120 240,30 241,40
248,80 249,20 266,390 267,5315
268,1461 269,200 284,120 285,180
286,40 297,40 298,20 310,180
311,130 312,60 339,140 340,20
353,40
##END=
