##TITLE=Fumaric acid, butyl 2-methylpent-3-yl ester
##JCAMP-DX=4.24
##DATA TYPE=MASS SPECTRUM
##ORIGIN=L.N.Kulikova, V.G. Zaikin, RPFU, Moscow, Russia
##OWNER=NIST Mass Spectrometry Data Center
Collection (C) 2014 copyright by the U.S. Secretary of Commerce
on behalf of the United States of America. All rights reserved.
##$NIST MASS SPEC NO=348761
##MOLFORM=C14 H24 O4
##MW=256
##$NIST SOURCE=MSDC
##XUNITS=M/Z
##YUNITS=RELATIVE INTENSITY
##XFACTOR=1
##YFACTOR=1
##FIRSTX=26
##LASTX=227
##FIRSTY=60
##MAXX=227
##MINX=26
##MAXY=9999
##MINY=10
##NPOINTS=51
##PEAK TABLE=(XY..XY)
26,60 27,200 29,230 39,80
41,450 42,60 43,581 45,30
53,110 54,340 55,550 56,290
57,540 58,30 59,50 69,651
70,30 71,110 72,40 73,20
81,220 82,571 83,50 84,1351
85,641 86,40 97,80 98,50
99,1682 100,1081 101,80 109,20
114,60 117,260 127,40 128,30
129,10 142,170 143,40 154,20
155,9999 156,1231 157,110 173,70
183,671 184,70 185,30 199,30
200,20 201,40 227,80
##END=
