##TITLE=Fumaric acid, 2-butyl octyl ester
##JCAMP-DX=4.24
##DATA TYPE=MASS SPECTRUM
##ORIGIN=V.G. Zaikin, R.S.Borisov, TIPS RAS, Moscow, Russia
##OWNER=NIST Mass Spectrometry Data Center
Collection (C) 2014 copyright by the U.S. Secretary of Commerce
on behalf of the United States of America. All rights reserved.
##$NIST MASS SPEC NO=348645
##MOLFORM=C16 H28 O4
##MW=284
##$NIST SOURCE=MSDC
##XUNITS=M/Z
##YUNITS=RELATIVE INTENSITY
##XFACTOR=1
##YFACTOR=1
##FIRSTX=25
##LASTX=241
##FIRSTY=30
##MAXX=241
##MINX=25
##MAXY=9999
##MINY=10
##NPOINTS=102
##PEAK TABLE=(XY..XY)
25,30 26,300 27,1001 28,631
29,1571 30,60 31,60 39,601
40,140 41,3583 42,1031 43,2642
44,80 45,170 51,30 53,460
54,1221 55,4464 56,5505 57,5555
58,250 59,20 66,40 67,400
68,540 69,5465 70,2522 71,3013
72,290 73,440 74,10 77,20
79,50 80,30 81,941 82,2082
83,1982 84,1301 85,150 86,30
94,20 95,130 97,300 99,5875
100,5135 101,681 102,50 108,20
109,170 110,260 111,360 112,881
113,711 114,50 115,30 117,9999
118,901 119,160 123,20 124,40
125,30 126,150 127,591 128,250
129,270 130,50 137,30 138,30
139,160 140,70 141,30 142,30
150,20 153,130 154,220 155,2432
156,350 157,550 158,60 165,60
167,20 168,50 169,110 170,20
171,320 172,70 173,1992 174,180
179,40 181,30 182,70 183,90
192,40 210,120 211,9749 212,1471
213,240 227,20 228,20 229,1251
230,140 241,30
##END=
