##TITLE=Malonic acid, decyl 3-methylpentyl ester
##JCAMP-DX=4.24
##DATA TYPE=MASS SPECTRUM
##ORIGIN=V.G. Zaikin, R.S.Borisov, TIPS RAS, Moscow, Russia
##OWNER=NIST Mass Spectrometry Data Center
Collection (C) 2014 copyright by the U.S. Secretary of Commerce
on behalf of the United States of America. All rights reserved.
##$NIST MASS SPEC NO=348284
##MOLFORM=C19 H36 O4
##MW=328
##$NIST SOURCE=MSDC
##XUNITS=M/Z
##YUNITS=RELATIVE INTENSITY
##XFACTOR=1
##YFACTOR=1
##FIRSTX=26
##LASTX=299
##FIRSTY=30
##MAXX=299
##MINX=26
##MAXY=9999
##MINY=20
##NPOINTS=69
##PEAK TABLE=(XY..XY)
26,30 27,230 29,591 39,210
40,40 41,1491 42,581 43,3683
44,70 45,20 53,90 54,230
55,2262 56,1391 57,2612 58,100
60,40 61,20 67,260 68,280
69,2162 70,861 71,1261 72,70
81,110 82,250 83,911 84,2762
85,9999 86,671 87,621 88,20
91,50 93,20 95,50 96,80
97,440 98,180 99,220 100,20
101,30 104,30 105,5595 106,200
107,50 111,190 112,210 113,60
114,50 115,20 127,20 131,40
132,190 133,80 139,30 140,140
141,120 142,20 159,130 171,130
189,971 190,90 227,60 229,30
245,230 246,20 271,170 272,30
299,90
##END=
