##TITLE=Fumaric acid, 4-heptyl pentadecyl ester
##JCAMP-DX=4.24
##DATA TYPE=MASS SPECTRUM
##ORIGIN=V.G. Zaikin, R.S.Borisov, TIPS RAS, Moscow, Russia
##OWNER=NIST Mass Spectrometry Data Center
Collection (C) 2014 copyright by the U.S. Secretary of Commerce
on behalf of the United States of America. All rights reserved.
##$NIST MASS SPEC NO=348524
##MOLFORM=C26 H48 O4
##MW=424
##$NIST SOURCE=MSDC
##XUNITS=M/Z
##YUNITS=RELATIVE INTENSITY
##XFACTOR=1
##YFACTOR=1
##FIRSTX=25
##LASTX=354
##FIRSTY=20
##MAXX=354
##MINX=25
##MAXY=9999
##MINY=10
##NPOINTS=210
##PEAK TABLE=(XY..XY)
25,20 26,240 27,881 29,991
30,30 31,30 37,30 39,561
40,140 41,3753 42,971 43,5325
44,90 45,60 50,30 51,40
53,340 54,1051 55,6486 56,3533
57,9999 58,440 59,30 60,20
65,50 66,90 67,1001 68,1031
69,6726 70,2572 71,3633 72,340
73,200 74,30 77,30 78,20
79,130 80,120 81,1021 82,2372
83,6436 84,1051 85,2162 86,150
87,20 91,70 93,100 94,90
95,731 96,891 97,6236 98,5385
99,4374 100,6386 101,1521 102,110
103,20 105,60 107,70 108,70
109,490 110,480 111,3153 112,561
113,520 114,150 115,400 116,70
117,3433 118,2002 119,931 120,60
121,80 122,90 123,370 124,490
125,1551 126,420 127,561 128,90
129,40 131,30 133,50 135,70
136,80 137,300 138,290 139,641
140,240 141,470 142,170 143,260
144,170 145,40 147,30 149,50
150,110 151,250 152,290 153,571
154,300 155,380 156,90 157,490
158,50 159,20 163,40 164,60
165,120 166,200 167,200 168,280
169,380 170,130 171,841 172,130
173,30 177,40 178,100 179,120
180,210 181,190 182,300 183,230
184,60 185,40 187,10 191,30
192,40 193,50 194,60 195,170
196,260 197,901 198,190 199,100
200,20 205,30 206,50 207,50
208,370 209,280 210,220 211,1131
212,190 213,80 214,20 215,951
216,120 217,20 219,20 220,30
221,30 222,30 223,190 224,150
225,280 226,70 227,190 228,20
229,20 233,20 235,30 236,20
237,250 238,190 239,100 240,50
241,60 245,40 247,20 248,60
249,30 251,250 252,270 253,90
254,40 255,110 256,20 261,20
262,30 263,160 264,50 265,230
266,410 267,230 268,40 269,90
270,20 279,120 280,310 281,130
282,30 283,40 290,170 291,200
292,30 307,40 308,971 309,3393
310,1081 311,190 325,30 326,280
327,490 328,110 329,20 352,40
353,110 354,90
##END=
