##TITLE=Fumaric acid, dimyrtenyl ester
##JCAMP-DX=4.24
##DATA TYPE=MASS SPECTRUM
##ORIGIN=L.N.Kulikova, V.G. Zaikin, RPFU, Moscow, Russia
##OWNER=NIST Mass Spectrometry Data Center
Collection (C) 2014 copyright by the U.S. Secretary of Commerce
on behalf of the United States of America. All rights reserved.
##$NIST MASS SPEC NO=348818
##MOLFORM=C24 H32 O4
##MW=384
##$NIST SOURCE=MSDC
##XUNITS=M/Z
##YUNITS=RELATIVE INTENSITY
##XFACTOR=1
##YFACTOR=1
##FIRSTX=26
##LASTX=384
##FIRSTY=70
##MAXX=384
##MINX=26
##MAXY=9999
##MINY=20
##NPOINTS=77
##PEAK TABLE=(XY..XY)
26,70 27,240 29,190 39,270
40,50 41,931 42,50 43,781
50,20 51,80 52,50 53,350
54,140 55,540 56,40 57,120
63,30 65,230 66,80 67,340
68,70 69,360 71,20 77,831
78,400 79,1852 80,230 81,330
82,170 89,20 90,20 91,9999
92,3863 93,2182 94,200 95,90
96,30 99,691 100,110 103,130
104,90 105,1341 106,561 107,831
108,80 109,120 115,90 116,30
117,360 118,110 119,4474 120,500
121,290 122,30 123,20 129,30
131,80 132,60 133,831 134,3373
135,1021 136,110 141,40 143,30
145,60 147,50 149,20 151,70
152,100 155,20 159,40 161,30
169,90 183,30 189,20 225,60
384,40
##END=
