##TITLE=Fumaric acid, 2-butyl tetradecyl ester
##JCAMP-DX=4.24
##DATA TYPE=MASS SPECTRUM
##ORIGIN=V.G. Zaikin, R.S.Borisov, TIPS RAS, Moscow, Russia
##OWNER=NIST Mass Spectrometry Data Center
Collection (C) 2014 copyright by the U.S. Secretary of Commerce
on behalf of the United States of America. All rights reserved.
##$NIST MASS SPEC NO=348651
##MOLFORM=C22 H40 O4
##MW=368
##$NIST SOURCE=MSDC
##XUNITS=M/Z
##YUNITS=RELATIVE INTENSITY
##XFACTOR=1
##YFACTOR=1
##FIRSTX=25
##LASTX=314
##FIRSTY=40
##MAXX=314
##MINX=25
##MAXY=9999
##MINY=10
##NPOINTS=195
##PEAK TABLE=(XY..XY)
25,40 26,350 27,1001 28,661
29,1661 30,80 31,40 36,70
37,20 39,781 40,150 41,4844
42,991 43,5265 44,370 45,140
50,70 51,30 52,20 53,430
54,1241 55,6816 56,5155 57,8358
58,340 59,30 63,10 65,60
66,100 67,1161 68,1241 69,6446
70,2272 71,3313 72,330 73,460
74,20 77,80 78,30 79,170
80,120 81,761 82,4444 83,6316
84,1601 85,1972 86,100 87,40
89,20 91,60 92,20 93,90
94,90 95,701 96,1171 97,5225
98,1061 99,5335 100,6045 101,1351
102,90 104,10 105,80 107,20
108,50 109,470 110,611 111,2712
112,621 113,490 114,70 115,40
116,50 117,9999 118,2442 119,851
120,40 121,60 122,100 123,330
124,390 125,1211 126,380 127,701
128,190 129,90 130,60 131,30
132,20 133,30 135,30 136,90
137,270 138,340 139,460 140,240
141,380 142,70 143,80 144,40
147,20 149,20 150,100 151,150
152,230 153,400 154,350 155,1772
156,540 157,641 158,70 161,30
162,40 163,30 164,80 165,90
166,280 167,100 168,330 169,230
170,60 171,681 172,120 173,2202
174,280 175,70 178,70 179,40
180,90 181,150 182,240 183,230
184,60 185,50 188,60 191,30
192,40 193,40 194,460 195,250
196,230 197,540 198,20 199,60
200,40 201,40 202,50 203,30
206,60 207,50 208,40 209,130
210,110 211,250 212,50 213,200
214,20 216,20 221,20 223,170
224,100 225,50 226,20 227,70
228,20 231,60 233,811 234,160
235,40 237,240 238,120 239,80
240,10 248,20 249,60 250,20
251,250 252,190 253,240 254,30
255,30 265,110 266,210 267,90
276,130 277,30 283,30 294,470
295,1341 296,290 297,30 311,20
312,90 313,500 314,70
##END=
