##TITLE=Fumaric acid, cis-hex-3-enyl tetradecyl ester
##JCAMP-DX=4.24
##DATA TYPE=MASS SPECTRUM
##ORIGIN=L.N.Kulikova, V.G. Zaikin, RPFU, Moscow, Russia
##OWNER=NIST Mass Spectrometry Data Center
Collection (C) 2014 copyright by the U.S. Secretary of Commerce
on behalf of the United States of America. All rights reserved.
##$NIST MASS SPEC NO=348869
##MOLFORM=C24 H42 O4
##MW=394
##$NIST SOURCE=MSDC
##XUNITS=M/Z
##YUNITS=RELATIVE INTENSITY
##XFACTOR=1
##YFACTOR=1
##FIRSTX=26
##LASTX=313
##FIRSTY=50
##MAXX=313
##MINX=26
##MAXY=9999
##MINY=10
##NPOINTS=114
##PEAK TABLE=(XY..XY)
26,50 27,170 29,290 39,170
40,40 41,1091 42,250 43,1321
53,140 54,360 55,2132 56,571
57,1281 58,60 65,30 66,40
67,2232 68,380 69,1471 70,540
71,781 72,50 79,50 80,40
81,691 82,9999 83,3093 84,430
85,420 86,30 93,20 95,150
96,170 97,871 98,200 99,781
100,771 101,290 107,20 109,90
110,90 111,400 112,120 113,90
117,751 118,180 119,90 123,70
124,60 125,150 126,70 127,90
128,40 129,40 136,20 137,50
138,50 139,100 140,50 141,70
142,20 143,20 145,60 151,30
152,40 153,120 154,60 155,70
156,20 157,70 159,20 165,20
166,30 167,20 168,50 169,100
170,40 171,90 173,30 180,30
181,70 182,90 183,80 184,10
187,80 194,30 195,40 196,40
197,70 198,20 199,50 201,20
209,20 210,20 211,60 213,20
215,20 223,40 224,20 225,40
229,10 237,40 238,20 239,40
251,30 252,30 253,60 265,20
266,30 267,30 294,50 295,80
296,20 313,20
##END=
