##TITLE=Fumaric acid, 3-hexyl octadecyl ester
##JCAMP-DX=4.24
##DATA TYPE=MASS SPECTRUM
##ORIGIN=V.G. Zaikin, R.S.Borisov, TIPS RAS, Moscow, Russia
##OWNER=NIST Mass Spectrometry Data Center
Collection (C) 2014 copyright by the U.S. Secretary of Commerce
on behalf of the United States of America. All rights reserved.
##$NIST MASS SPEC NO=348616
##MOLFORM=C28 H52 O4
##MW=452
##$NIST SOURCE=MSDC
##XUNITS=M/Z
##YUNITS=RELATIVE INTENSITY
##XFACTOR=1
##YFACTOR=1
##FIRSTX=25
##LASTX=434
##FIRSTY=40
##MAXX=434
##MINX=25
##MAXY=9999
##MINY=10
##NPOINTS=262
##PEAK TABLE=(XY..XY)
25,40 26,340 27,1081 29,1491
30,30 31,60 37,20 38,100
39,821 40,190 41,4304 42,1712
43,9999 44,581 45,100 50,40
51,60 52,20 53,480 54,1231
55,8738 56,3593 57,8498 58,410
59,150 65,60 66,130 67,1561
68,1421 69,8187 70,2002 71,5075
72,400 73,210 74,40 77,70
78,20 79,190 80,160 81,1621
82,2592 83,8488 84,6306 85,7447
86,510 87,30 91,80 92,20
93,150 94,150 95,1251 96,1752
97,7817 98,1251 99,5635 100,8257
101,2662 102,180 103,40 105,60
107,120 108,100 109,901 110,811
111,4354 112,791 113,861 114,160
115,100 116,70 117,7016 118,3703
119,2062 120,130 121,140 122,150
123,651 124,641 125,2072 126,500
127,671 128,170 129,160 130,90
131,60 133,40 134,20 135,100
136,190 137,611 138,500 139,961
140,380 141,911 142,200 143,180
144,120 145,50 147,50 149,100
150,100 151,280 152,400 153,821
154,571 155,821 156,210 157,661
158,70 159,20 161,40 163,70
164,140 165,250 166,350 167,500
168,310 169,400 170,120 171,991
172,150 173,30 175,20 177,60
178,90 179,170 180,250 181,450
182,510 183,1361 184,330 185,90
186,20 187,20 189,20 191,40
192,70 193,140 194,210 195,380
196,270 197,320 198,90 199,110
200,40 201,1611 202,210 203,60
205,50 206,60 207,20 208,120
209,280 210,240 211,340 212,100
213,90 214,10 215,20 219,50
220,50 221,120 222,250 223,350
224,350 225,370 226,100 227,100
228,20 229,20 233,50 234,40
235,90 236,70 237,430 238,360
239,330 240,110 241,140 242,30
247,60 248,70 249,120 250,951
251,771 252,510 253,1151 254,260
255,180 256,60 257,20 261,70
262,40 263,60 264,50 265,490
266,561 267,440 268,130 269,310
270,60 271,20 273,20 275,60
276,30 277,60 278,30 279,410
280,621 281,180 282,60 283,180
284,30 287,70 289,50 290,100
291,90 292,20 293,340 294,520
295,200 296,70 297,160 298,30
303,30 304,70 305,310 306,100
307,270 308,440 309,450 310,90
311,100 312,20 321,140 322,430
323,220 324,50 325,50 332,300
333,561 334,120 335,20 339,30
348,20 349,60 350,1661 351,3363
352,1031 353,200 354,20 367,70
368,360 369,701 370,160 371,30
381,30 382,40 394,40 395,40
423,20 434,10
##END=
