##TITLE=Fumaric acid, 2-hexyl undecyl ester
##JCAMP-DX=4.24
##DATA TYPE=MASS SPECTRUM
##ORIGIN=L.N.Kulikova, V.G. Zaikin, RPFU, Moscow, Russia
##OWNER=NIST Mass Spectrometry Data Center
Collection (C) 2014 copyright by the U.S. Secretary of Commerce
on behalf of the United States of America. All rights reserved.
##$NIST MASS SPEC NO=348749
##MOLFORM=C21 H38 O4
##MW=354
##$NIST SOURCE=MSDC
##XUNITS=M/Z
##YUNITS=RELATIVE INTENSITY
##XFACTOR=1
##YFACTOR=1
##FIRSTX=26
##LASTX=325
##FIRSTY=80
##MAXX=325
##MINX=26
##MAXY=9999
##MINY=10
##NPOINTS=179
##PEAK TABLE=(XY..XY)
26,80 27,260 29,520 30,20
31,20 36,50 39,460 40,110
41,3053 42,1411 43,6146 44,310
45,180 51,10 53,450 54,1241
55,7907 56,4524 57,6075 58,340
59,40 65,40 66,80 67,1001
68,1241 69,7647 70,3083 71,3883
72,350 73,170 74,30 77,50
79,120 80,70 81,1311 82,3363
83,7267 84,9058 85,8117 86,581
87,40 91,60 93,70 94,90
95,641 96,961 97,7106 98,1491
99,7617 100,9278 101,1912 102,140
104,30 105,30 107,40 108,80
109,440 110,651 111,3313 112,761
113,691 114,150 115,90 116,220
117,8718 118,2202 119,721 120,40
121,50 122,60 123,300 124,420
125,500 126,641 127,370 128,130
129,70 130,20 131,20 135,40
136,100 137,280 138,571 139,571
140,390 141,561 142,190 143,160
144,30 145,100 146,20 147,20
149,30 150,120 151,140 152,781
153,701 154,941 155,1521 156,480
157,1201 158,190 159,190 160,20
163,30 164,90 165,100 166,160
167,100 168,190 169,390 170,140
171,1371 172,220 173,140 174,30
175,20 177,30 178,30 179,60
180,60 181,200 182,340 183,2132
184,500 185,120 186,30 187,80
189,20 191,20 192,60 193,60
195,190 196,110 197,130 198,70
199,100 200,40 201,2242 202,290
203,40 205,20 206,50 207,80
208,40 209,140 210,120 211,370
212,60 213,60 215,20 223,130
224,280 225,290 226,60 227,70
229,20 234,160 235,40 237,20
241,110 242,10 251,40 252,561
253,9999 254,2082 255,310 256,50
257,20 268,70 269,60 270,150
271,1351 272,230 273,30 295,20
310,50 311,60 325,60
##END=
