##TITLE=Fumaric acid, di(2-decyl) ester
##JCAMP-DX=4.24
##DATA TYPE=MASS SPECTRUM
##ORIGIN=V.G. Zaikin, R.S.Borisov, TIPS RAS, Moscow, Russia
##OWNER=NIST Mass Spectrometry Data Center
Collection (C) 2014 copyright by the U.S. Secretary of Commerce
on behalf of the United States of America. All rights reserved.
##$NIST MASS SPEC NO=348601
##MOLFORM=C24 H44 O4
##MW=396
##$NIST SOURCE=MSDC
##XUNITS=M/Z
##YUNITS=RELATIVE INTENSITY
##XFACTOR=1
##YFACTOR=1
##FIRSTX=25
##LASTX=311
##FIRSTY=20
##MAXX=311
##MINX=25
##MAXY=9999
##MINY=10
##NPOINTS=110
##PEAK TABLE=(XY..XY)
25,20 26,190 27,701 29,1001
30,10 39,430 40,80 41,2422
42,811 43,3233 45,170 53,290
54,731 55,3883 56,2032 57,3153
58,240 59,30 65,20 66,20
67,410 68,370 69,2412 70,1782
71,2262 72,170 73,30 80,20
81,621 82,1581 83,2372 84,1211
85,2142 86,140 93,20 94,20
95,180 96,390 97,2242 98,1011
99,6116 100,3523 101,350 102,30
109,90 110,110 111,981 112,601
113,70 114,70 115,50 116,270
117,1141 118,490 119,140 123,60
124,150 125,80 126,30 127,30
129,20 137,100 138,180 139,180
140,2182 141,2622 142,591 143,110
151,30 152,40 153,60 154,40
155,100 156,110 157,520 158,70
165,40 166,30 167,671 168,140
169,40 170,30 171,260 172,30
178,20 182,20 183,50 185,80
186,20 193,60 194,70 195,40
196,30 197,100 210,150 211,210
212,260 213,70 214,20 220,50
225,110 226,20 238,170 239,9999
240,1651 241,190 256,60 257,711
258,110 311,40
##END=
