##TITLE=Fumaric acid, 2-hexyl isohexyl ester
##JCAMP-DX=4.24
##DATA TYPE=MASS SPECTRUM
##ORIGIN=L.N.Kulikova, V.G. Zaikin, RPFU, Moscow, Russia
##OWNER=NIST Mass Spectrometry Data Center
Collection (C) 2014 copyright by the U.S. Secretary of Commerce
on behalf of the United States of America. All rights reserved.
##$NIST MASS SPEC NO=348744
##MOLFORM=C16 H28 O4
##MW=284
##$NIST SOURCE=MSDC
##XUNITS=M/Z
##YUNITS=RELATIVE INTENSITY
##XFACTOR=1
##YFACTOR=1
##FIRSTX=25
##LASTX=255
##FIRSTY=10
##MAXX=255
##MINX=25
##MAXY=9999
##MINY=10
##NPOINTS=82
##PEAK TABLE=(XY..XY)
25,10 26,230 27,891 29,951
30,20 31,30 39,380 40,60
41,1682 42,991 43,4754 44,20
45,140 53,270 54,761 55,2963
56,1862 57,701 58,50 59,60
67,100 68,40 69,2042 70,200
71,440 72,120 73,30 81,410
82,1301 83,460 84,6466 85,5385
86,350 95,20 97,20 98,20
99,4044 100,3303 101,280 102,30
108,80 109,70 110,40 111,330
112,40 113,30 115,20 117,1601
118,120 119,20 123,20 125,40
126,30 127,20 128,20 131,70
133,60 134,30 135,160 136,20
137,100 138,130 139,30 140,40
141,60 151,150 152,20 153,160
154,80 155,180 156,110 157,20
164,20 171,40 182,60 183,9999
184,1171 185,120 200,20 201,350
202,40 255,50
##END=
