##TITLE=Silane, dimethyl(dodec-2-enyloxy)isohexyloxy-
##JCAMP-DX=4.24
##DATA TYPE=MASS SPECTRUM
##ORIGIN=V.G. Zaikin, R.S.Borisov, TIPS RAS, Moscow, Russia
##OWNER=NIST Mass Spectrometry Data Center
Collection (C) 2014 copyright by the U.S. Secretary of Commerce
on behalf of the United States of America. All rights reserved.
##$NIST MASS SPEC NO=348067
##MOLFORM=C20 H42 O2 Si
##MW=342
##$NIST SOURCE=MSDC
##XUNITS=M/Z
##YUNITS=RELATIVE INTENSITY
##XFACTOR=1
##YFACTOR=1
##FIRSTX=26
##LASTX=344
##FIRSTY=20
##MAXX=344
##MINX=26
##MAXY=9999
##MINY=10
##NPOINTS=154
##PEAK TABLE=(XY..XY)
26,20 27,130 29,220 39,170
40,20 41,861 42,130 43,1231
45,90 47,70 53,90 54,310
55,1521 56,320 57,330 58,50
59,240 60,40 61,260 63,70
65,20 66,70 67,841 68,430
69,831 70,80 71,20 73,30
74,70 75,5075 76,380 77,2202
78,120 79,130 80,70 81,971
82,1121 83,9999 84,711 85,891
86,60 87,80 88,70 89,591
90,70 91,210 93,270 94,40
95,971 96,701 97,410 98,70
99,330 100,30 101,731 102,60
103,250 105,701 106,50 107,60
109,601 110,350 111,250 112,20
113,330 114,90 115,1131 116,140
117,340 118,50 119,160 121,30
123,390 124,210 125,60 127,150
128,40 129,651 130,100 131,1381
132,140 133,230 134,20 137,150
138,230 139,20 141,110 142,20
143,370 144,80 145,591 146,60
147,70 155,40 157,350 158,60
159,2022 160,270 161,1031 162,120
163,30 165,200 166,500 167,70
169,30 171,130 173,140 175,60
177,420 178,40 179,40 185,80
187,330 188,30 189,100 197,20
199,70 201,60 213,50 215,5035
216,851 217,260 225,90 227,450
228,80 229,1321 230,230 231,60
240,30 241,140 242,10 243,390
244,70 245,20 257,671 258,140
259,40 271,1802 272,390 273,290
274,30 285,390 286,80 299,1301
300,340 301,60 313,20 327,1962
328,490 329,50 341,70 342,741
343,200 344,40
##END=
