##TITLE=Fumaric acid, 3,3-dimethylbut-2-yl tetradecyl ester
##JCAMP-DX=4.24
##DATA TYPE=MASS SPECTRUM
##ORIGIN=V.G. Zaikin, R.S.Borisov, TIPS RAS, Moscow, Russia
##OWNER=NIST Mass Spectrometry Data Center
Collection (C) 2014 copyright by the U.S. Secretary of Commerce
on behalf of the United States of America. All rights reserved.
##$NIST MASS SPEC NO=348713
##MOLFORM=C24 H44 O4
##MW=396
##$NIST SOURCE=MSDC
##XUNITS=M/Z
##YUNITS=RELATIVE INTENSITY
##XFACTOR=1
##YFACTOR=1
##FIRSTX=25
##LASTX=382
##FIRSTY=30
##MAXX=382
##MINX=25
##MAXY=9999
##MINY=10
##NPOINTS=159
##PEAK TABLE=(XY..XY)
25,30 26,290 27,811 28,571
29,1431 30,40 31,20 37,40
39,651 40,150 41,3984 42,891
43,6776 44,520 45,110 50,30
51,50 53,320 54,861 55,4324
56,1932 57,7837 58,330 65,40
66,60 67,751 68,671 69,5055
70,1421 71,1912 72,190 73,80
77,30 78,20 79,130 80,60
81,591 82,1732 83,3433 84,3743
85,9999 86,611 87,40 91,40
93,40 94,40 95,360 96,520
97,2592 98,500 99,2642 100,7066
101,991 102,70 107,20 108,20
109,210 110,220 111,1271 112,270
113,220 114,30 115,30 116,20
117,1251 118,771 119,390 121,30
122,30 123,130 124,150 125,510
126,160 127,180 128,40 129,20
135,20 136,40 137,140 138,130
139,230 140,100 141,150 142,30
143,30 144,20 145,130 147,20
150,20 151,60 152,90 153,210
154,140 155,400 156,160 157,280
158,30 164,30 165,50 166,80
167,60 168,110 169,80 170,20
171,340 172,50 173,290 174,70
175,50 178,20 179,20 180,30
181,70 182,110 183,370 184,70
188,20 193,20 194,160 195,90
196,80 197,160 199,20 201,350
202,30 208,30 209,50 210,60
211,110 212,20 213,80 223,50
224,30 225,50 226,10 227,40
237,70 238,50 239,40 241,20
247,20 249,20 251,60 252,70
253,50 265,40 266,80 267,60
276,20 294,170 295,340 296,2052
297,380 298,30 312,40 313,20
341,40 381,140 382,30
##END=
