##TITLE=Malonic acid, butyl 2-ethylbutyl ester
##JCAMP-DX=4.24
##DATA TYPE=MASS SPECTRUM
##ORIGIN=L.N.Kulikova, V.G. Zaikin, RPFU, Moscow, Russia
##OWNER=NIST Mass Spectrometry Data Center
Collection (C) 2014 copyright by the U.S. Secretary of Commerce
on behalf of the United States of America. All rights reserved.
##$NIST MASS SPEC NO=348954
##MOLFORM=C13 H24 O4
##MW=244
##$NIST SOURCE=MSDC
##XUNITS=M/Z
##YUNITS=RELATIVE INTENSITY
##XFACTOR=1
##YFACTOR=1
##FIRSTX=26
##LASTX=215
##FIRSTY=90
##MAXX=215
##MINX=26
##MAXY=9999
##MINY=20
##NPOINTS=76
##PEAK TABLE=(XY..XY)
26,90 27,901 29,2292 30,150
31,110 39,571 40,70 41,3073
42,1591 43,5265 45,40 53,180
54,220 55,2732 56,4524 57,6085
58,140 59,150 60,1081 61,290
67,90 68,40 69,3243 70,150
71,530 72,280 73,230 82,30
83,581 84,8768 85,6186 86,390
87,3873 88,120 89,80 90,641
98,70 99,210 100,380 101,581
102,20 104,50 105,9999 106,340
107,80 111,460 112,40 113,20
114,20 116,300 117,200 118,3833
119,440 120,40 125,260 126,20
130,30 131,30 132,60 141,80
143,3313 144,240 145,30 153,140
158,30 159,120 160,90 161,1181
162,80 171,691 172,70 174,641
175,50 186,20 189,20 215,140
##END=
