##TITLE=Fumaric acid, 4-heptyl pentyl ester
##JCAMP-DX=4.24
##DATA TYPE=MASS SPECTRUM
##ORIGIN=V.G. Zaikin, R.S.Borisov, TIPS RAS, Moscow, Russia
##OWNER=NIST Mass Spectrometry Data Center
Collection (C) 2014 copyright by the U.S. Secretary of Commerce
on behalf of the United States of America. All rights reserved.
##$NIST MASS SPEC NO=348514
##MOLFORM=C16 H28 O4
##MW=284
##$NIST SOURCE=MSDC
##XUNITS=M/Z
##YUNITS=RELATIVE INTENSITY
##XFACTOR=1
##YFACTOR=1
##FIRSTX=26
##LASTX=215
##FIRSTY=110
##MAXX=215
##MINX=26
##MAXY=9999
##MINY=20
##NPOINTS=59
##PEAK TABLE=(XY..XY)
26,110 27,400 29,310 31,20
39,160 40,30 41,911 42,350
43,1231 45,20 53,140 54,400
55,991 56,811 57,1011 58,40
67,50 68,80 69,721 70,731
71,791 72,70 81,280 82,681
83,90 87,20 91,40 95,40
96,20 97,350 98,1491 99,2322
100,1361 101,90 112,60 114,40
115,110 117,1161 118,50 123,20
124,80 125,30 126,20 140,20
141,70 142,30 143,80 157,20
168,40 169,9999 170,1261 171,110
187,330 188,40 197,480 198,50
213,60 214,30 215,60
##END=
