##TITLE=Fumaric acid, 2-heptyl isobutyl ester
##JCAMP-DX=4.24
##DATA TYPE=MASS SPECTRUM
##ORIGIN=V.G. Zaikin, R.S.Borisov, TIPS RAS, Moscow, Russia
##OWNER=NIST Mass Spectrometry Data Center
Collection (C) 2014 copyright by the U.S. Secretary of Commerce
on behalf of the United States of America. All rights reserved.
##$NIST MASS SPEC NO=348622
##MOLFORM=C15 H26 O4
##MW=270
##$NIST SOURCE=MSDC
##XUNITS=M/Z
##YUNITS=RELATIVE INTENSITY
##XFACTOR=1
##YFACTOR=1
##FIRSTX=27
##LASTX=255
##FIRSTY=30
##MAXX=255
##MINX=27
##MAXY=9999
##MINY=10
##NPOINTS=70
##PEAK TABLE=(XY..XY)
27,30 29,40 39,130 40,20
41,811 42,240 43,861 45,80
53,190 54,530 55,1331 56,1902
57,2933 58,150 59,20 67,50
68,80 69,741 70,661 71,150
72,80 73,40 81,390 82,981
83,170 84,320 85,160 86,10
95,20 96,30 97,200 98,1842
99,3883 100,1912 101,160 109,50
111,30 112,20 113,30 114,100
115,110 117,1391 118,90 123,20
124,50 125,360 126,70 127,20
142,90 151,30 152,150 153,40
154,50 155,9999 156,1091 157,150
168,30 169,70 170,120 171,30
172,20 173,510 174,60 196,10
197,2232 198,310 199,30 215,70
227,30 255,20
##END=
