##TITLE=Silane, dimethyl(3-methylbut-3-enyloxy)hexyloxy-
##JCAMP-DX=4.24
##DATA TYPE=MASS SPECTRUM
##ORIGIN=V.G. Zaikin, R.S.Borisov, TIPS RAS, Moscow, Russia
##OWNER=NIST Mass Spectrometry Data Center
Collection (C) 2014 copyright by the U.S. Secretary of Commerce
on behalf of the United States of America. All rights reserved.
##$NIST MASS SPEC NO=348003
##MOLFORM=C13 H28 O2 Si
##MW=244
##$NIST SOURCE=MSDC
##XUNITS=M/Z
##YUNITS=RELATIVE INTENSITY
##XFACTOR=1
##YFACTOR=1
##FIRSTX=26
##LASTX=245
##FIRSTY=10
##MAXX=245
##MINX=26
##MAXY=9999
##MINY=10
##NPOINTS=124
##PEAK TABLE=(XY..XY)
26,10 27,180 29,250 31,10
38,10 39,230 40,60 41,711
42,80 43,831 45,350 46,10
47,260 50,10 51,10 53,140
54,30 55,771 56,130 57,120
58,270 59,901 60,110 61,621
62,30 63,60 64,60 65,10
67,270 68,350 69,190 70,10
71,110 72,70 73,60 74,140
75,6226 76,450 77,2002 78,100
79,90 81,80 82,140 83,2082
84,150 85,410 86,20 87,470
88,290 89,5515 90,470 91,370
92,20 93,40 95,30 97,210
98,30 99,430 100,40 101,2402
102,220 103,1281 104,90 105,691
106,50 107,480 108,20 109,50
111,120 112,10 113,831 114,120
115,751 116,70 117,500 118,20
119,2032 120,180 121,70 125,70
127,871 128,90 129,1181 130,110
131,270 132,10 141,40 142,50
143,3643 144,500 145,1061 146,100
147,120 155,10 157,510 158,80
159,8047 160,1131 161,881 162,80
163,10 171,20 173,751 174,90
175,150 176,10 187,1611 188,220
189,9999 190,1501 191,360 192,10
199,250 200,20 201,490 202,70
203,10 205,20 215,20 229,931
230,170 231,50 244,260 245,80
##END=
