##TITLE=Fumaric acid, di(4-methylpent-2-yl) ester
##JCAMP-DX=4.24
##DATA TYPE=MASS SPECTRUM
##ORIGIN=V.G. Zaikin, R.S.Borisov, TIPS RAS, Moscow, Russia
##OWNER=NIST Mass Spectrometry Data Center
Collection (C) 2014 copyright by the U.S. Secretary of Commerce
on behalf of the United States of America. All rights reserved.
##$NIST MASS SPEC NO=348332
##MOLFORM=C16 H28 O4
##MW=284
##$NIST SOURCE=MSDC
##XUNITS=M/Z
##YUNITS=RELATIVE INTENSITY
##XFACTOR=1
##YFACTOR=1
##FIRSTX=26
##LASTX=270
##FIRSTY=120
##MAXX=270
##MINX=26
##MAXY=9999
##MINY=10
##NPOINTS=60
##PEAK TABLE=(XY..XY)
26,120 27,470 29,310 39,310
40,60 41,1411 42,330 43,2662
44,150 45,120 53,200 54,591
55,1101 56,200 57,470 58,50
59,60 67,90 68,30 69,2762
70,130 71,100 72,40 81,360
82,931 83,971 84,3974 85,5025
86,340 95,30 97,30 99,3823
100,1651 101,280 102,20 109,40
111,280 112,160 113,40 115,30
117,250 118,40 123,20 138,70
139,20 140,60 141,50 154,50
155,90 156,80 157,30 182,20
183,9999 184,1071 185,150 201,280
202,30 241,50 269,120 270,10
##END=
