##TITLE=Fumaric acid, di(dec-4-enyl) ester
##JCAMP-DX=4.24
##DATA TYPE=MASS SPECTRUM
##ORIGIN=L.N.Kulikova, V.G. Zaikin, RPFU, Moscow, Russia
##OWNER=NIST Mass Spectrometry Data Center
Collection (C) 2014 copyright by the U.S. Secretary of Commerce
on behalf of the United States of America. All rights reserved.
##$NIST MASS SPEC NO=348953
##MOLFORM=C24 H40 O4
##MW=392
##$NIST SOURCE=MSDC
##XUNITS=M/Z
##YUNITS=RELATIVE INTENSITY
##XFACTOR=1
##YFACTOR=1
##FIRSTX=26
##LASTX=255
##FIRSTY=120
##MAXX=255
##MINX=26
##MAXY=9999
##MINY=10
##NPOINTS=71
##PEAK TABLE=(XY..XY)
26,120 27,480 29,751 30,20
39,571 40,110 41,2502 42,400
43,731 45,20 50,20 51,50
52,30 53,711 54,3123 55,3583
56,310 57,260 65,180 66,480
67,5135 68,9999 69,2352 70,170
71,1181 72,70 77,230 78,50
79,1031 80,460 81,7917 82,4654
83,1411 84,160 91,120 92,10
93,240 94,140 95,3974 96,4094
97,991 98,80 99,751 100,320
107,70 108,50 109,2082 110,2833
111,260 117,150 121,20 123,220
124,30 136,50 137,250 138,6386
139,761 140,30 153,20 155,40
179,20 181,150 182,20 208,20
209,230 210,30 236,170 237,110
238,270 239,40 255,90
##END=
