##TITLE=Fumaric acid, decyl 3,3-dimethylbut-2-yl ester
##JCAMP-DX=4.24
##DATA TYPE=MASS SPECTRUM
##ORIGIN=V.G. Zaikin, R.S.Borisov, TIPS RAS, Moscow, Russia
##OWNER=NIST Mass Spectrometry Data Center
Collection (C) 2014 copyright by the U.S. Secretary of Commerce
on behalf of the United States of America. All rights reserved.
##$NIST MASS SPEC NO=348709
##MOLFORM=C20 H36 O4
##MW=340
##$NIST SOURCE=MSDC
##XUNITS=M/Z
##YUNITS=RELATIVE INTENSITY
##XFACTOR=1
##YFACTOR=1
##FIRSTX=26
##LASTX=326
##FIRSTY=140
##MAXX=326
##MINX=26
##MAXY=9999
##MINY=10
##NPOINTS=113
##PEAK TABLE=(XY..XY)
26,140 27,410 29,711 30,20
39,270 40,60 41,1752 42,350
43,2382 44,120 45,60 53,170
54,480 55,2192 56,861 57,3653
58,160 65,10 66,30 67,350
68,360 69,3403 70,1091 71,931
72,150 73,40 79,30 80,20
81,450 82,1772 83,3103 84,2983
85,7697 86,550 87,30 93,20
94,20 95,190 96,230 97,1672
98,400 99,3513 100,9999 101,1011
102,100 109,110 110,150 111,360
112,290 113,120 114,20 115,20
117,591 118,540 119,130 123,60
124,20 125,40 126,60 127,110
128,30 136,20 137,70 138,270
139,170 140,260 141,210 142,30
143,40 145,260 152,30 153,150
154,140 155,240 156,40 157,621
158,60 165,40 166,20 167,40
168,40 169,30 171,561 172,90
178,20 181,80 182,100 183,901
184,150 185,40 193,40 195,40
196,40 197,80 199,30 201,831
202,90 209,20 210,90 211,90
212,20 220,50 238,200 239,4264
240,8358 241,1401 242,150 256,80
257,110 285,310 286,50 325,490
326,90
##END=
