##TITLE=Fumaric acid, 3-methylbut-3-enyl pentadecyl ester
##JCAMP-DX=4.24
##DATA TYPE=MASS SPECTRUM
##ORIGIN=L.N.Kulikova, V.G. Zaikin, RPFU, Moscow, Russia
##OWNER=NIST Mass Spectrometry Data Center
Collection (C) 2014 copyright by the U.S. Secretary of Commerce
on behalf of the United States of America. All rights reserved.
##$NIST MASS SPEC NO=348914
##MOLFORM=C24 H42 O4
##MW=394
##$NIST SOURCE=MSDC
##XUNITS=M/Z
##YUNITS=RELATIVE INTENSITY
##XFACTOR=1
##YFACTOR=1
##FIRSTX=26
##LASTX=327
##FIRSTY=60
##MAXX=327
##MINX=26
##MAXY=9999
##MINY=10
##NPOINTS=101
##PEAK TABLE=(XY..XY)
26,60 27,210 29,320 39,210
40,90 41,1421 42,250 43,1311
53,240 54,280 55,1601 56,430
57,1231 58,50 65,20 66,30
67,951 68,9999 69,4994 70,931
71,681 72,40 80,20 81,320
82,480 83,1221 84,240 85,350
86,20 93,50 94,20 95,180
96,160 97,981 98,160 99,671
100,561 101,140 109,140 110,90
111,440 112,100 113,60 117,490
118,100 119,60 121,30 122,20
123,80 124,60 125,170 126,70
127,40 128,40 137,40 138,100
139,100 140,60 141,90 151,30
152,40 153,80 154,50 155,40
157,50 166,70 167,60 168,90
169,80 171,80 180,20 181,20
182,40 183,30 185,70 195,20
196,20 197,30 208,20 209,30
210,30 211,40 223,30 224,20
225,40 237,40 238,20 239,20
251,40 252,20 263,10 265,30
266,30 267,40 279,20 280,30
282,20 307,20 308,60 309,60
327,10
##END=
