##TITLE=Silane, dimethyl(but-3-enyloxy)octadecyloxy-
##JCAMP-DX=4.24
##DATA TYPE=MASS SPECTRUM
##ORIGIN=V.G. Zaikin, R.S.Borisov, TIPS RAS, Moscow, Russia
##OWNER=NIST Mass Spectrometry Data Center
Collection (C) 2014 copyright by the U.S. Secretary of Commerce
on behalf of the United States of America. All rights reserved.
##$NIST MASS SPEC NO=348033
##MOLFORM=C24 H50 O2 Si
##MW=398
##$NIST SOURCE=MSDC
##XUNITS=M/Z
##YUNITS=RELATIVE INTENSITY
##XFACTOR=1
##YFACTOR=1
##FIRSTX=26
##LASTX=386
##FIRSTY=20
##MAXX=386
##MINX=26
##MAXY=9999
##MINY=10
##NPOINTS=134
##PEAK TABLE=(XY..XY)
26,20 27,110 29,220 39,180
41,721 42,170 43,1291 45,90
47,40 53,50 54,190 55,1451
56,290 57,1631 58,120 59,280
60,20 61,470 62,20 63,20
67,420 68,230 69,1411 70,220
71,971 72,40 74,30 75,3523
76,240 77,1131 78,50 79,50
80,20 81,430 82,310 83,2022
84,200 85,681 86,40 87,190
88,80 89,2492 90,210 91,460
92,20 93,100 95,450 96,210
97,1952 98,180 99,691 100,90
101,2182 102,200 103,631 104,40
105,971 106,70 107,1021 108,90
109,240 110,70 111,971 112,110
113,260 114,50 115,2472 116,250
117,540 118,30 119,941 120,70
121,30 123,90 124,20 125,340
126,30 127,90 128,30 129,2102
130,210 131,711 132,60 133,420
134,30 137,30 139,70 141,90
143,140 144,20 145,621 146,80
147,100 149,40 151,70 153,40
155,30 157,70 159,1261 160,130
161,40 169,20 171,60 173,20
185,50 187,150 199,30 201,20
213,20 227,20 229,10 241,20
243,50 257,30 271,30 285,20
311,60 325,90 327,1672 328,400
329,130 341,140 343,50 353,100
355,110 356,60 357,9999 358,2692
359,711 360,80 383,3693 384,1051
385,250 386,30
##END=
