##TITLE=Fumaric acid, isobutyl pent-4-enyl ester
##JCAMP-DX=4.24
##DATA TYPE=MASS SPECTRUM
##ORIGIN=L.N.Kulikova, V.G. Zaikin, RPFU, Moscow, Russia
##OWNER=NIST Mass Spectrometry Data Center
Collection (C) 2014 copyright by the U.S. Secretary of Commerce
on behalf of the United States of America. All rights reserved.
##$NIST MASS SPEC NO=348846
##MOLFORM=C13 H20 O4
##MW=240
##$NIST SOURCE=MSDC
##XUNITS=M/Z
##YUNITS=RELATIVE INTENSITY
##XFACTOR=1
##YFACTOR=1
##FIRSTX=26
##LASTX=225
##FIRSTY=270
##MAXX=225
##MINX=26
##MAXY=9999
##MINY=20
##NPOINTS=67
##PEAK TABLE=(XY..XY)
26,270 27,661 29,631 30,30
31,50 39,661 40,220 41,2192
42,240 43,280 45,110 53,671
54,821 55,781 56,1041 57,1641
58,70 65,50 66,70 67,2652
68,9999 69,1421 70,130 71,3393
72,220 73,30 81,490 82,911
83,60 84,240 85,210 86,20
93,40 95,30 97,140 98,60
99,3543 100,871 101,80 109,100
110,40 111,80 112,40 113,50
114,20 117,340 121,30 122,20
126,20 127,70 138,120 139,2122
140,210 143,70 154,20 155,2772
156,340 157,40 166,330 167,60
168,20 173,50 183,100 184,180
185,30 199,70 225,20
##END=
