##TITLE=Fumaric acid, octyl 4-phenylphenyl ester
##JCAMP-DX=4.24
##DATA TYPE=MASS SPECTRUM
##ORIGIN=V.G. Zaikin, R.S.Borisov, TIPS RAS, Moscow, Russia
##OWNER=NIST Mass Spectrometry Data Center
Collection (C) 2014 copyright by the U.S. Secretary of Commerce
on behalf of the United States of America. All rights reserved.
##$NIST MASS SPEC NO=348214
##MOLFORM=C24 H28 O4
##MW=380
##$NIST SOURCE=MSDC
##XUNITS=M/Z
##YUNITS=RELATIVE INTENSITY
##XFACTOR=1
##YFACTOR=1
##FIRSTX=26
##LASTX=382
##FIRSTY=40
##MAXX=382
##MINX=26
##MAXY=9999
##MINY=10
##NPOINTS=79
##PEAK TABLE=(XY..XY)
26,40 27,80 29,100 39,70
41,300 42,60 43,440 44,100
51,20 53,60 54,130 55,440
56,100 57,1291 58,50 63,40
65,20 67,30 68,20 69,490
70,80 71,1401 72,60 75,10
76,30 77,20 81,120 82,220
83,30 89,40 91,30 98,20
99,651 100,20 101,90 102,40
112,20 113,540 114,50 115,470
116,50 126,20 127,30 139,200
140,50 141,641 142,100 151,50
152,160 153,110 154,50 165,50
167,70 169,460 170,9999 171,1501
172,80 177,20 178,70 179,50
180,30 181,30 194,30 207,30
211,190 212,20 223,290 224,120
251,200 252,140 253,30 268,250
269,60 282,170 283,30 336,30
380,1011 381,270 382,30
##END=
