##TITLE=Fumaric acid, myrtenyl octyl ester
##JCAMP-DX=4.24
##DATA TYPE=MASS SPECTRUM
##ORIGIN=L.N.Kulikova, V.G. Zaikin, RPFU, Moscow, Russia
##OWNER=NIST Mass Spectrometry Data Center
Collection (C) 2014 copyright by the U.S. Secretary of Commerce
on behalf of the United States of America. All rights reserved.
##$NIST MASS SPEC NO=348817
##MOLFORM=C22 H34 O4
##MW=362
##$NIST SOURCE=MSDC
##XUNITS=M/Z
##YUNITS=RELATIVE INTENSITY
##XFACTOR=1
##YFACTOR=1
##FIRSTX=26
##LASTX=212
##FIRSTY=90
##MAXX=212
##MINX=26
##MAXY=9999
##MINY=10
##NPOINTS=112
##PEAK TABLE=(XY..XY)
26,90 27,330 28,80 29,210
36,50 38,30 39,310 40,50
41,1241 42,230 43,1301 44,120
45,20 50,30 51,60 52,50
53,290 54,250 55,1261 56,410
57,921 58,30 63,30 65,150
66,70 67,340 68,190 69,1231
70,290 71,691 72,50 77,550
78,380 79,1181 80,150 81,310
82,340 83,270 84,320 85,220
89,30 90,10 91,9999 92,4114
93,1551 94,150 95,450 96,40
97,70 98,50 99,1111 100,1351
101,150 102,20 103,90 104,70
105,901 106,500 107,571 108,160
109,140 110,40 111,80 112,50
113,70 115,120 116,40 117,520
118,110 119,4034 120,410 121,270
122,40 123,60 125,20 126,20
127,110 128,60 129,70 131,70
132,70 133,260 134,3313 135,1011
136,100 137,40 141,30 145,70
147,50 150,20 151,90 152,50
153,40 155,50 157,50 159,30
161,150 162,110 163,20 165,20
170,140 171,50 172,50 173,20
177,20 182,30 183,90 188,20
189,30 205,20 211,180 212,70
##END=
