##TITLE=Fumaric acid, propyl trans-hex-3-enyl ester
##JCAMP-DX=4.24
##DATA TYPE=MASS SPECTRUM
##ORIGIN=L.N.Kulikova, V.G. Zaikin, RPFU, Moscow, Russia
##OWNER=NIST Mass Spectrometry Data Center
Collection (C) 2014 copyright by the U.S. Secretary of Commerce
on behalf of the United States of America. All rights reserved.
##$NIST MASS SPEC NO=348883
##MOLFORM=C13 H20 O4
##MW=240
##$NIST SOURCE=MSDC
##XUNITS=M/Z
##YUNITS=RELATIVE INTENSITY
##XFACTOR=1
##YFACTOR=1
##FIRSTX=26
##LASTX=182
##FIRSTY=260
##MAXX=182
##MINX=26
##MAXY=9999
##MINY=10
##NPOINTS=57
##PEAK TABLE=(XY..XY)
26,260 27,811 29,60 30,30
31,50 39,460 40,70 41,1561
42,250 43,691 45,120 51,30
53,440 54,871 55,1391 56,100
57,80 59,30 65,90 66,80
67,5865 68,410 69,370 70,30
71,230 72,60 77,20 79,60
80,40 81,1001 82,9999 83,1031
84,40 85,20 91,30 93,30
95,40 97,30 98,50 99,2522
100,400 101,40 107,60 109,130
111,40 113,60 117,470 118,20
123,10 135,50 141,3023 142,280
143,30 153,30 159,80 181,891
182,90
##END=
