##TITLE=Silane, dimethyl(trans-3,7-dimethyl-2,6-octadien-1-yloxy)octyloxy-
##JCAMP-DX=4.24
##DATA TYPE=MASS SPECTRUM
##ORIGIN=V.G. Zaikin, R.S.Borisov, TIPS RAS, Moscow, Russia
##OWNER=NIST Mass Spectrometry Data Center
Collection (C) 2014 copyright by the U.S. Secretary of Commerce
on behalf of the United States of America. All rights reserved.
##$NIST MASS SPEC NO=348049
##MOLFORM=C20 H40 O2 Si
##MW=340
##$NIST SOURCE=MSDC
##XUNITS=M/Z
##YUNITS=RELATIVE INTENSITY
##XFACTOR=1
##YFACTOR=1
##FIRSTX=26
##LASTX=342
##FIRSTY=40
##MAXX=342
##MINX=26
##MAXY=9999
##MINY=20
##NPOINTS=177
##PEAK TABLE=(XY..XY)
26,40 27,190 29,290 38,20
39,350 40,100 41,2412 42,250
43,801 45,150 47,150 51,40
52,20 53,410 54,110 55,1361
56,230 57,701 58,60 59,420
60,50 61,390 62,20 63,100
65,90 66,60 67,931 68,1651
69,7717 70,561 71,470 73,40
74,120 75,9999 76,791 77,4044
78,230 79,440 80,1852 81,1481
82,360 83,280 84,80 85,110
87,160 88,60 89,1461 90,150
91,601 92,1191 93,6075 94,1191
95,961 96,70 97,30 99,200
101,1391 102,140 103,340 104,30
105,951 106,110 107,1902 108,571
109,400 110,270 111,380 112,60
113,320 114,30 115,410 116,40
117,270 118,40 119,310 120,30
121,9408 122,1391 123,3593 124,330
125,150 126,20 127,871 128,160
129,881 130,170 131,430 132,30
133,310 134,50 135,370 136,3523
137,510 141,260 142,130 143,3803
144,480 145,671 146,80 147,110
149,130 153,20 155,591 156,100
157,460 158,190 159,751 160,100
161,30 167,30 169,170 170,20
171,791 172,340 173,250 174,20
184,30 185,350 186,50 187,4734
188,751 189,1702 190,230 191,50
192,30 193,20 195,70 197,70
199,190 200,20 201,170 203,180
205,40 207,90 210,60 211,30
213,200 214,180 215,220 216,30
217,310 218,30 223,210 224,40
225,30 227,360 228,50 229,60
241,140 242,20 243,70 245,1802
246,350 247,80 255,510 256,90
257,1672 258,1281 259,310 260,50
269,671 270,500 271,470 272,110
283,601 284,150 285,120 297,1641
298,400 299,80 325,1551 326,350
327,70 339,100 340,1311 341,330
342,80
##END=
