##TITLE=Fumaric acid, 2-methylpent-3-yl pentyl ester
##JCAMP-DX=4.24
##DATA TYPE=MASS SPECTRUM
##ORIGIN=L.N.Kulikova, V.G. Zaikin, RPFU, Moscow, Russia
##OWNER=NIST Mass Spectrometry Data Center
Collection (C) 2014 copyright by the U.S. Secretary of Commerce
on behalf of the United States of America. All rights reserved.
##$NIST MASS SPEC NO=348762
##MOLFORM=C15 H26 O4
##MW=270
##$NIST SOURCE=MSDC
##XUNITS=M/Z
##YUNITS=RELATIVE INTENSITY
##XFACTOR=1
##YFACTOR=1
##FIRSTX=26
##LASTX=241
##FIRSTY=130
##MAXX=241
##MINX=26
##MAXY=9999
##MINY=20
##NPOINTS=57
##PEAK TABLE=(XY..XY)
26,130 27,450 29,420 39,200
40,30 41,841 42,300 43,1682
44,30 45,50 53,170 54,530
55,881 56,90 57,120 58,20
59,50 67,40 68,30 69,961
70,230 71,671 72,60 81,250
82,811 83,60 84,1661 85,1001
86,60 87,20 95,30 97,80
98,60 99,2172 100,1501 101,140
112,70 114,90 115,20 117,270
128,30 129,20 141,40 142,290
143,90 157,20 169,9999 170,1211
171,130 183,1121 184,130 187,70
199,20 201,80 213,40 214,20
241,80
##END=
