##TITLE=Fumaric acid, 3-heptyl tridecyl ester
##JCAMP-DX=4.24
##DATA TYPE=MASS SPECTRUM
##ORIGIN=V.G. Zaikin, R.S.Borisov, TIPS RAS, Moscow, Russia
##OWNER=NIST Mass Spectrometry Data Center
Collection (C) 2014 copyright by the U.S. Secretary of Commerce
on behalf of the United States of America. All rights reserved.
##$NIST MASS SPEC NO=348690
##MOLFORM=C24 H44 O4
##MW=396
##$NIST SOURCE=MSDC
##XUNITS=M/Z
##YUNITS=RELATIVE INTENSITY
##XFACTOR=1
##YFACTOR=1
##FIRSTX=25
##LASTX=339
##FIRSTY=30
##MAXX=339
##MINX=25
##MAXY=9999
##MINY=20
##NPOINTS=167
##PEAK TABLE=(XY..XY)
25,30 26,280 27,961 29,1611
30,40 31,50 38,20 39,651
40,130 41,3994 42,971 43,5305
45,90 51,20 53,450 54,1201
55,6756 56,3803 57,9999 58,500
59,130 65,40 66,70 67,901
68,961 69,7257 70,2823 71,2722
72,270 73,90 77,20 79,50
80,60 81,1091 82,2612 83,5905
84,1061 85,2052 86,140 87,30
91,20 93,70 94,70 95,540
96,771 97,5525 98,5535 99,4994
100,6396 101,1261 102,90 105,30
107,50 108,50 109,310 110,450
111,3633 112,561 113,581 114,100
115,340 116,130 117,3343 118,1732
119,520 120,30 121,50 122,40
123,270 124,320 125,1291 126,310
127,370 128,160 129,140 130,60
131,20 136,40 137,180 138,370
139,410 140,190 141,330 142,60
145,20 149,30 150,90 151,180
152,290 153,310 154,370 155,250
156,150 157,621 158,80 163,30
164,40 165,60 166,90 167,110
168,260 169,390 170,100 171,801
172,120 173,20 178,80 179,70
180,520 181,270 182,280 183,1071
184,170 185,40 186,20 192,20
193,20 195,110 196,220 197,1181
198,220 199,260 200,40 209,110
210,70 211,60 213,40 215,1061
216,130 217,40 220,40 221,40
223,150 224,100 225,70 226,40
227,40 234,30 235,80 236,30
237,180 238,190 239,210 240,40
241,40 251,120 252,250 253,120
254,30 255,60 262,120 263,50
269,30 279,20 280,631 281,4724
282,1201 283,170 296,30 297,30
298,200 299,661 300,140 311,40
312,50 338,40 339,50
##END=
