##TITLE=Fumaric acid, di(3-methylbut-3-enyl) ester
##JCAMP-DX=4.24
##DATA TYPE=MASS SPECTRUM
##ORIGIN=L.N.Kulikova, V.G. Zaikin, RPFU, Moscow, Russia
##OWNER=NIST Mass Spectrometry Data Center
Collection (C) 2014 copyright by the U.S. Secretary of Commerce
on behalf of the United States of America. All rights reserved.
##$NIST MASS SPEC NO=348920
##MOLFORM=C14 H20 O4
##MW=252
##$NIST SOURCE=MSDC
##XUNITS=M/Z
##YUNITS=RELATIVE INTENSITY
##XFACTOR=1
##YFACTOR=1
##FIRSTX=26
##LASTX=167
##FIRSTY=170
##MAXX=167
##MINX=26
##MAXY=9999
##MINY=20
##NPOINTS=42
##PEAK TABLE=(XY..XY)
26,170 27,420 29,240 39,641
40,300 41,2272 42,140 43,30
45,40 51,40 53,751 54,621
55,180 65,50 66,60 67,1882
68,9999 69,5035 70,230 71,280
77,20 80,40 81,270 82,460
91,20 92,40 93,270 94,100
95,50 99,661 100,40 107,320
108,671 109,320 110,20 121,330
122,30 136,50 138,30 139,30
166,30 167,40
##END=
