##TITLE=Fumaric acid, di(2-propylphenyl) ester
##JCAMP-DX=4.24
##DATA TYPE=MASS SPECTRUM
##ORIGIN=V.G. Zaikin, R.S.Borisov, TIPS RAS, Moscow, Russia
##OWNER=NIST Mass Spectrometry Data Center
Collection (C) 2014 copyright by the U.S. Secretary of Commerce
on behalf of the United States of America. All rights reserved.
##$NIST MASS SPEC NO=348130
##MOLFORM=C22 H24 O4
##MW=352
##$NIST SOURCE=MSDC
##XUNITS=M/Z
##YUNITS=RELATIVE INTENSITY
##XFACTOR=1
##YFACTOR=1
##FIRSTX=26
##LASTX=353
##FIRSTY=100
##MAXX=353
##MINX=26
##MAXY=9999
##MINY=20
##NPOINTS=113
##PEAK TABLE=(XY..XY)
26,100 27,150 29,110 38,20
39,220 40,20 41,601 42,50
43,1031 44,60 50,40 51,160
52,90 53,220 54,571 55,220
56,70 57,160 63,80 64,30
65,260 66,40 67,70 68,40
69,200 70,90 71,100 76,20
77,691 78,320 79,420 80,30
81,70 82,1341 83,240 84,60
85,40 89,90 90,50 91,4004
92,360 93,40 94,50 95,70
96,40 97,150 98,30 99,250
100,140 101,40 102,40 103,350
104,60 105,130 106,40 107,2833
108,270 109,30 110,20 111,70
112,20 113,20 115,400 116,110
117,540 118,140 119,530 120,190
121,70 123,20 125,20 127,70
128,100 129,110 130,40 131,150
132,40 133,320 134,190 135,1211
136,2632 137,240 138,20 139,20
141,50 142,30 143,40 144,30
145,160 146,80 147,5245 148,540
149,30 153,20 159,220 160,110
161,120 169,30 171,50 173,140
174,20 175,150 187,80 188,120
189,1952 190,270 199,110 201,20
216,150 217,9999 218,1641 352,360
353,90
##END=
