##TITLE=Malonic acid, 2-ethylbutyl octyl ester
##JCAMP-DX=4.24
##DATA TYPE=MASS SPECTRUM
##ORIGIN=L.N.Kulikova, V.G. Zaikin, RPFU, Moscow, Russia
##OWNER=NIST Mass Spectrometry Data Center
Collection (C) 2014 copyright by the U.S. Secretary of Commerce
on behalf of the United States of America. All rights reserved.
##$NIST MASS SPEC NO=348959
##MOLFORM=C17 H32 O4
##MW=300
##$NIST SOURCE=MSDC
##XUNITS=M/Z
##YUNITS=RELATIVE INTENSITY
##XFACTOR=1
##YFACTOR=1
##FIRSTX=26
##LASTX=271
##FIRSTY=70
##MAXX=271
##MINX=26
##MAXY=9999
##MINY=10
##NPOINTS=78
##PEAK TABLE=(XY..XY)
26,70 27,440 28,370 29,941
30,30 31,50 39,350 40,80
41,2042 42,1271 43,5395 44,420
45,30 53,130 54,250 55,2372
56,2212 57,3543 58,130 59,70
60,220 61,220 67,240 68,310
69,2592 70,1281 71,2833 72,180
73,30 79,20 81,90 82,290
83,951 84,5425 85,5815 86,380
87,1221 88,30 89,20 90,170
91,20 95,30 97,120 98,40
99,80 100,120 101,210 102,20
104,30 105,9999 106,340 107,80
110,40 111,260 112,601 113,210
114,40 115,20 118,1682 119,220
125,30 127,20 129,30 132,50
139,70 141,50 153,30 158,10
159,80 171,90 189,150 199,430
200,40 217,190 218,20 229,50
230,80 271,50
##END=
