##TITLE=Malonic acid, 3,3-dimethylbut-2-yl octyl ester
##JCAMP-DX=4.24
##DATA TYPE=MASS SPECTRUM
##ORIGIN=V.G. Zaikin, R.S.Borisov, TIPS RAS, Moscow, Russia
##OWNER=NIST Mass Spectrometry Data Center
Collection (C) 2014 copyright by the U.S. Secretary of Commerce
on behalf of the United States of America. All rights reserved.
##$NIST MASS SPEC NO=348659
##MOLFORM=C17 H32 O4
##MW=300
##$NIST SOURCE=MSDC
##XUNITS=M/Z
##YUNITS=RELATIVE INTENSITY
##XFACTOR=1
##YFACTOR=1
##FIRSTX=26
##LASTX=285
##FIRSTY=60
##MAXX=285
##MINX=26
##MAXY=9999
##MINY=20
##NPOINTS=76
##PEAK TABLE=(XY..XY)
26,60 27,530 29,1211 39,450
40,80 41,3193 42,1171 43,5845
45,100 53,160 54,190 55,1722
56,1121 57,7597 58,140 60,450
61,1311 62,30 65,20 67,260
68,380 69,2462 70,1071 71,4294
72,220 81,100 82,420 83,1051
84,2883 85,9999 86,711 87,1962
88,60 89,70 95,20 97,220
98,30 100,70 101,1802 102,100
104,520 105,5085 106,170 107,40
110,60 111,230 112,2082 113,510
114,40 115,180 127,20 128,20
129,60 131,40 132,1141 133,741
134,40 139,180 140,20 145,50
153,30 155,30 157,20 172,110
173,50 181,20 199,3033 200,340
201,60 215,20 217,80 229,20
244,781 245,270 246,30 285,100
##END=
