##TITLE=Adipic acid, hexadecyl 3-methylbutyl ester
##JCAMP-DX=4.24
##DATA TYPE=MASS SPECTRUM
##ORIGIN=L.N.Kulikova, V.G. Zaikin, RPFU, Moscow, Russia
##OWNER=NIST Mass Spectrometry Data Center
Collection (C) 2014 copyright by the U.S. Secretary of Commerce
on behalf of the United States of America. All rights reserved.
##$NIST MASS SPEC NO=348978
##MOLFORM=C27 H52 O4
##MW=440
##$NIST SOURCE=MSDC
##XUNITS=M/Z
##YUNITS=RELATIVE INTENSITY
##XFACTOR=1
##YFACTOR=1
##FIRSTX=26
##LASTX=425
##FIRSTY=30
##MAXX=425
##MINX=26
##MAXY=9999
##MINY=10
##NPOINTS=125
##PEAK TABLE=(XY..XY)
26,30 27,160 29,340 39,160
40,30 41,931 42,320 43,2352
44,70 45,30 53,60 54,190
55,1852 56,561 57,1391 58,60
59,100 60,20 61,40 67,260
68,260 69,1021 70,1601 71,3283
72,180 73,190 81,170 82,310
83,1021 84,450 85,561 86,150
87,641 88,20 95,120 96,170
97,631 98,230 99,130 100,621
101,1341 102,250 103,100 109,70
110,90 111,2182 112,410 113,180
114,30 115,60 123,30 124,50
125,130 126,160 127,190 128,250
129,9999 130,701 131,120 137,20
138,50 139,100 140,70 141,70
143,30 144,60 145,40 147,190
152,20 153,30 154,50 155,70
156,90 157,721 158,60 166,20
168,40 169,40 170,951 171,130
172,30 182,20 183,60 184,110
185,140 196,50 197,40 198,50
199,7967 200,1011 201,100 203,20
212,20 213,70 214,40 217,1231
218,130 222,30 224,80 225,60
226,30 239,10 240,60 254,80
255,20 267,20 268,80 269,70
282,50 285,20 295,20 296,40
310,90 311,120 324,50 351,30
352,110 353,1551 354,360 355,50
367,20 371,60 397,140 398,30
425,80
##END=
