##TITLE=Silane, dimethyl(dec-4-enyloxy)heptyloxy-
##JCAMP-DX=4.24
##DATA TYPE=MASS SPECTRUM
##ORIGIN=V.G. Zaikin, R.S.Borisov, TIPS RAS, Moscow, Russia
##OWNER=NIST Mass Spectrometry Data Center
Collection (C) 2014 copyright by the U.S. Secretary of Commerce
on behalf of the United States of America. All rights reserved.
##$NIST MASS SPEC NO=348011
##MOLFORM=C19 H40 O2 Si
##MW=328
##$NIST SOURCE=MSDC
##XUNITS=M/Z
##YUNITS=RELATIVE INTENSITY
##XFACTOR=1
##YFACTOR=1
##FIRSTX=26
##LASTX=329
##FIRSTY=70
##MAXX=329
##MINX=26
##MAXY=9999
##MINY=10
##NPOINTS=113
##PEAK TABLE=(XY..XY)
26,70 27,320 29,711 39,450
40,80 41,1982 42,470 43,741
44,10 45,200 47,130 50,10
53,320 54,2132 55,3513 56,490
57,1581 59,1011 61,781 62,10
63,80 66,631 67,4604 68,9999
69,1461 70,430 71,60 75,7537
76,460 77,3853 78,210 79,591
80,290 81,5595 82,4664 83,480
84,50 86,10 87,300 89,2392
91,791 93,701 94,100 95,3333
96,4474 97,1291 98,120 99,400
101,1591 103,841 105,1501 107,170
109,1802 110,2102 111,200 113,370
115,1091 117,390 119,290 121,20
123,130 125,10 127,390 128,90
129,641 131,1031 136,30 137,290
138,4704 139,500 141,230 143,440
144,20 145,420 155,140 157,340
159,651 160,40 171,50 173,1882
174,200 175,1922 176,200 185,10
187,50 191,160 197,400 198,20
199,801 200,70 201,691 202,30
203,591 204,20 212,90 213,801
214,40 215,160 217,60 229,1511
230,170 231,10 243,621 244,30
271,80 272,10 285,520 286,70
313,1762 314,350 315,70 328,290
329,20
##END=
