##TITLE=Malonic acid, 3-methylpentyl octyl ester
##JCAMP-DX=4.24
##DATA TYPE=MASS SPECTRUM
##ORIGIN=V.G. Zaikin, R.S.Borisov, TIPS RAS, Moscow, Russia
##OWNER=NIST Mass Spectrometry Data Center
Collection (C) 2014 copyright by the U.S. Secretary of Commerce
on behalf of the United States of America. All rights reserved.
##$NIST MASS SPEC NO=348282
##MOLFORM=C17 H32 O4
##MW=300
##$NIST SOURCE=MSDC
##XUNITS=M/Z
##YUNITS=RELATIVE INTENSITY
##XFACTOR=1
##YFACTOR=1
##FIRSTX=26
##LASTX=271
##FIRSTY=60
##MAXX=271
##MINX=26
##MAXY=9999
##MINY=20
##NPOINTS=67
##PEAK TABLE=(XY..XY)
26,60 27,430 29,1001 30,40
39,320 40,70 41,2082 42,951
43,4514 44,80 45,30 53,130
54,250 55,2793 56,2062 57,3503
58,100 60,80 61,80 67,270
68,290 69,3053 70,1081 71,2052
72,120 81,80 82,210 83,921
84,4214 85,9999 86,701 87,951
88,30 89,20 95,20 97,120
99,30 100,20 101,60 103,20
104,30 105,7407 106,270 107,60
111,120 112,270 113,160 114,70
115,20 118,30 129,30 131,60
132,260 133,70 139,20 141,30
159,170 171,200 189,731 190,70
199,170 217,370 218,30 229,40
243,240 244,30 271,100
##END=
