##TITLE=D-Alanine, N-(4-anisoyl)-, pentyl ester
##JCAMP-DX=4.24
##DATA TYPE=MASS SPECTRUM
##ORIGIN=V.G. Zaikin, R.S.Borisov, TIPS RAS, Moscow, Russia
##OWNER=NIST Mass Spectrometry Data Center
Collection (C) 2014 copyright by the U.S. Secretary of Commerce
on behalf of the United States of America. All rights reserved.
##$NIST MASS SPEC NO=348489
##MOLFORM=C16 H23 N O4
##MW=293
##$NIST SOURCE=MSDC
##XUNITS=M/Z
##YUNITS=RELATIVE INTENSITY
##XFACTOR=1
##YFACTOR=1
##FIRSTX=27
##LASTX=293
##FIRSTY=40
##MAXX=293
##MINX=27
##MAXY=9999
##MINY=20
##NPOINTS=33
##PEAK TABLE=(XY..XY)
27,40 28,20 29,60 39,30
41,80 42,60 43,140 44,100
50,20 51,50 55,20 63,30
64,60 65,30 76,50 77,721
78,70 79,40 92,310 93,30
105,70 120,90 121,80 134,40
135,9999 136,771 137,60 160,40
178,2662 179,320 180,20 206,70
293,50
##END=
