##TITLE=Malonic acid, decyl 3,3-dimethylbut-2-yl ester
##JCAMP-DX=4.24
##DATA TYPE=MASS SPECTRUM
##ORIGIN=V.G. Zaikin, R.S.Borisov, TIPS RAS, Moscow, Russia
##OWNER=NIST Mass Spectrometry Data Center
Collection (C) 2014 copyright by the U.S. Secretary of Commerce
on behalf of the United States of America. All rights reserved.
##$NIST MASS SPEC NO=348661
##MOLFORM=C19 H36 O4
##MW=328
##$NIST SOURCE=MSDC
##XUNITS=M/Z
##YUNITS=RELATIVE INTENSITY
##XFACTOR=1
##YFACTOR=1
##FIRSTX=26
##LASTX=314
##FIRSTY=10
##MAXX=314
##MINX=26
##MAXY=9999
##MINY=10
##NPOINTS=82
##PEAK TABLE=(XY..XY)
26,10 27,130 29,310 39,200
40,50 41,1481 42,490 43,3573
44,10 45,100 53,90 54,150
55,1431 56,891 57,4204 58,130
60,230 61,540 67,240 68,310
69,1962 70,821 71,1812 72,110
81,110 82,490 83,1171 84,1912
85,9999 86,721 87,1431 88,50
89,70 91,70 93,20 95,60
96,180 97,751 98,320 99,380
100,70 101,1231 102,90 104,400
105,5775 106,210 107,50 109,20
110,80 111,410 112,701 113,90
114,20 115,120 125,20 128,30
131,30 132,1051 133,791 134,50
138,40 139,240 140,1712 141,400
142,30 145,50 155,10 161,20
167,50 173,20 189,30 200,40
201,20 227,1962 228,280 229,70
245,80 272,591 273,270 274,30
313,150 314,20
##END=
