##TITLE=Fumaric acid, 2-methylpentyl octadecyl ester
##JCAMP-DX=4.24
##DATA TYPE=MASS SPECTRUM
##ORIGIN=L.N.Kulikova, V.G. Zaikin, RPFU, Moscow, Russia
##OWNER=NIST Mass Spectrometry Data Center
Collection (C) 2014 copyright by the U.S. Secretary of Commerce
on behalf of the United States of America. All rights reserved.
##$NIST MASS SPEC NO=348736
##MOLFORM=C28 H52 O4
##MW=452
##$NIST SOURCE=MSDC
##XUNITS=M/Z
##YUNITS=RELATIVE INTENSITY
##XFACTOR=1
##YFACTOR=1
##FIRSTX=25
##LASTX=437
##FIRSTY=20
##MAXX=437
##MINX=25
##MAXY=9999
##MINY=20
##NPOINTS=209
##PEAK TABLE=(XY..XY)
25,20 26,170 27,540 29,721
30,20 31,30 39,420 40,40
41,2412 42,621 43,5845 44,60
45,70 51,20 53,220 54,631
55,3863 56,1551 57,4454 58,230
59,120 65,30 66,60 67,761
68,621 69,4724 70,1001 71,2332
72,190 73,70 79,80 80,70
81,771 82,1591 83,3994 84,6406
85,9999 86,681 87,20 91,20
93,60 94,60 95,571 96,721
97,3883 98,540 99,2152 100,4074
101,1141 102,80 105,20 107,50
108,40 109,360 110,320 111,2052
112,350 113,370 114,120 115,60
116,30 117,1191 118,1131 119,721
120,40 121,60 122,60 123,250
124,240 125,1071 126,260 127,290
128,60 129,50 130,20 131,20
135,40 136,50 137,240 138,200
139,500 140,160 141,320 142,270
143,190 144,100 145,20 149,30
150,30 151,100 152,140 153,390
154,200 155,320 156,70 157,280
158,20 163,30 164,50 165,60
166,110 167,210 168,120 169,130
170,40 171,480 172,70 178,30
179,50 180,90 181,190 182,150
183,520 184,110 185,20 192,20
193,40 194,70 195,140 196,110
197,90 198,20 199,40 201,581
202,70 206,20 208,20 209,90
210,90 211,100 212,30 213,30
221,30 222,90 223,120 224,130
225,110 226,30 227,30 229,20
235,20 236,20 237,150 238,130
239,90 240,30 241,50 247,20
248,30 249,40 250,390 251,280
252,210 253,380 254,80 255,60
256,20 261,20 263,20 264,20
265,160 266,210 267,170 268,40
269,120 270,20 277,30 279,140
280,230 281,20 282,20 283,60
287,40 290,40 291,30 293,110
294,210 295,80 296,40 297,70
304,20 305,140 306,50 307,90
308,160 309,170 310,40 311,40
321,40 322,180 323,100 324,20
325,20 332,100 333,260 334,50
350,711 351,1511 352,550 353,100
367,20 368,160 369,110 370,20
394,150 395,70 396,30 423,70
437,40
##END=
