##TITLE=Fumaric acid, 3-hexyl pentadecyl ester
##JCAMP-DX=4.24
##DATA TYPE=MASS SPECTRUM
##ORIGIN=V.G. Zaikin, R.S.Borisov, TIPS RAS, Moscow, Russia
##OWNER=NIST Mass Spectrometry Data Center
Collection (C) 2014 copyright by the U.S. Secretary of Commerce
on behalf of the United States of America. All rights reserved.
##$NIST MASS SPEC NO=348613
##MOLFORM=C25 H46 O4
##MW=410
##$NIST SOURCE=MSDC
##XUNITS=M/Z
##YUNITS=RELATIVE INTENSITY
##XFACTOR=1
##YFACTOR=1
##FIRSTX=25
##LASTX=354
##FIRSTY=40
##MAXX=354
##MINX=25
##MAXY=9999
##MINY=20
##NPOINTS=213
##PEAK TABLE=(XY..XY)
25,40 26,350 27,1261 29,1752
30,40 31,70 37,20 38,50
39,831 40,180 41,4634 42,1782
43,9999 44,460 45,110 50,20
51,40 53,530 54,1441 55,8678
56,3793 57,7637 58,360 59,180
65,60 66,110 67,1311 68,1241
69,8047 70,2122 71,4584 72,410
73,150 74,20 77,40 79,120
80,120 81,1511 82,3153 83,7927
84,6726 85,6876 86,480 87,20
91,40 93,110 94,110 95,921
96,1311 97,7727 98,1191 99,5905
100,8247 101,2132 102,160 103,20
105,30 107,80 108,70 109,631
110,661 111,3984 112,751 113,741
114,130 115,50 116,40 117,6526
118,2933 119,1161 120,80 121,90
122,90 123,450 124,550 125,1862
126,470 127,601 128,160 129,140
130,80 131,30 135,60 136,150
137,450 138,410 139,881 140,320
141,671 142,170 143,150 144,100
147,20 149,50 150,90 151,240
152,340 153,701 154,540 155,711
156,190 157,691 158,70 159,20
163,50 164,130 165,190 166,250
167,240 168,250 169,300 170,110
171,1021 172,150 173,30 177,30
178,70 179,120 180,280 181,240
182,561 183,1571 184,320 185,80
186,20 187,30 191,20 192,40
193,60 194,90 195,210 196,210
197,260 198,80 199,100 200,40
201,1601 202,210 203,30 205,30
206,60 208,701 209,400 210,290
211,1151 212,230 213,80 214,30
215,20 219,30 220,40 221,50
222,50 223,250 224,200 225,360
226,90 227,240 228,40 229,30
233,30 234,20 235,50 236,20
237,340 238,240 239,130 240,60
241,110 242,20 245,40 247,30
248,80 249,70 251,350 252,320
253,130 254,60 255,120 256,40
261,20 262,50 263,180 264,60
265,270 266,480 267,380 268,70
269,100 279,150 280,410 281,130
282,40 283,50 290,210 291,200
292,30 297,30 307,40 308,1071
309,3493 310,1001 311,170 325,50
326,280 327,751 328,170 329,20
339,50 340,50 352,40 353,50
354,20
##END=
