##TITLE=Silane, dimethyl(trans-3,7-dimethyl-2,6-octadien-1-yloxy)undecyloxy-
##JCAMP-DX=4.24
##DATA TYPE=MASS SPECTRUM
##ORIGIN=V.G. Zaikin, R.S.Borisov, TIPS RAS, Moscow, Russia
##OWNER=NIST Mass Spectrometry Data Center
Collection (C) 2014 copyright by the U.S. Secretary of Commerce
on behalf of the United States of America. All rights reserved.
##$NIST MASS SPEC NO=348051
##MOLFORM=C23 H46 O2 Si
##MW=382
##$NIST SOURCE=MSDC
##XUNITS=M/Z
##YUNITS=RELATIVE INTENSITY
##XFACTOR=1
##YFACTOR=1
##FIRSTX=26
##LASTX=384
##FIRSTY=30
##MAXX=384
##MINX=26
##MAXY=9999
##MINY=20
##NPOINTS=187
##PEAK TABLE=(XY..XY)
26,30 27,140 29,250 39,270
40,70 41,1882 42,220 43,991
44,30 45,100 47,80 50,20
51,20 53,280 54,120 55,1461
56,280 57,951 58,60 59,310
60,30 61,310 62,20 63,60
65,60 66,50 67,851 68,1381
69,5855 70,430 71,530 73,30
74,100 75,8448 76,621 77,3103
78,160 79,360 80,1822 81,1481
82,450 83,1511 84,140 85,320
87,120 88,40 89,1331 90,120
91,510 92,1251 93,5665 94,1241
95,1061 96,140 97,1451 98,120
99,190 101,1241 102,110 103,340
104,30 105,841 106,90 107,1932
108,581 109,390 110,230 111,380
112,20 113,290 114,40 115,440
116,50 117,290 118,40 119,250
120,40 121,9999 122,1511 123,3713
124,380 125,130 126,50 127,711
128,180 129,811 130,150 131,410
132,40 133,340 134,40 135,370
136,4424 137,691 138,30 139,20
141,210 142,110 143,3543 144,480
145,631 146,90 147,130 149,70
150,30 153,40 155,581 156,100
157,440 158,230 159,771 160,80
161,90 167,30 169,160 170,40
171,731 172,300 173,240 174,20
183,40 185,280 186,50 187,70
192,20 195,70 197,100 199,140
200,20 201,40 210,50 211,40
212,20 213,190 214,30 227,390
228,100 229,2893 230,550 231,1141
232,180 233,40 241,90 242,20
243,110 245,130 247,30 255,120
256,140 257,200 258,30 259,230
260,30 269,210 270,30 271,40
283,100 285,50 287,2042 288,450
289,110 297,460 298,90 299,1591
300,1511 301,380 302,70 311,701
312,540 313,520 314,130 315,20
325,641 326,190 327,150 328,20
339,1922 340,530 341,150 342,20
367,1742 368,470 369,90 381,120
382,1461 383,420 384,100
##END=
