##TITLE=Silane, dimethyl(3-methylbut-3-enyloxy)butoxy-
##JCAMP-DX=4.24
##DATA TYPE=MASS SPECTRUM
##ORIGIN=V.G. Zaikin, R.S.Borisov, TIPS RAS, Moscow, Russia
##OWNER=NIST Mass Spectrometry Data Center
Collection (C) 2014 copyright by the U.S. Secretary of Commerce
on behalf of the United States of America. All rights reserved.
##$NIST MASS SPEC NO=348000
##MOLFORM=C11 H24 O2 Si
##MW=216
##$NIST SOURCE=MSDC
##XUNITS=M/Z
##YUNITS=RELATIVE INTENSITY
##XFACTOR=1
##YFACTOR=1
##FIRSTX=26
##LASTX=218
##FIRSTY=20
##MAXX=218
##MINX=26
##MAXY=9999
##MINY=10
##NPOINTS=104
##PEAK TABLE=(XY..XY)
26,20 27,220 29,350 30,10
38,20 39,330 40,100 41,711
42,60 43,250 45,701 46,20
47,440 48,10 50,10 51,20
53,150 54,30 55,310 56,60
57,340 58,390 59,1061 60,150
61,721 62,50 63,120 64,230
65,20 67,220 68,240 71,190
72,100 73,40 74,170 75,6686
76,500 77,2252 78,120 79,150
81,10 83,10 85,390 86,90
87,420 88,340 89,6546 90,571
91,340 92,10 93,50 95,10
97,260 98,30 99,410 100,40
101,1982 102,150 103,1141 104,80
105,370 106,20 107,180 109,40
111,150 112,10 113,761 114,120
115,661 116,60 117,250 119,911
120,70 125,80 126,10 127,891
128,120 129,1351 130,160 131,8588
132,981 141,10 142,40 143,3193
144,340 145,781 146,80 147,100
155,10 159,1802 160,220 161,9999
162,1201 163,290 171,370 172,40
173,520 174,40 201,2092 202,310
203,50 216,370 217,70 218,20
##END=
