##TITLE=Malonic acid, dodecyl 3-hexyl ester
##JCAMP-DX=4.24
##DATA TYPE=MASS SPECTRUM
##ORIGIN=L.N.Kulikova, V.G. Zaikin, RPFU, Moscow, Russia
##OWNER=NIST Mass Spectrometry Data Center
Collection (C) 2014 copyright by the U.S. Secretary of Commerce
on behalf of the United States of America. All rights reserved.
##$NIST MASS SPEC NO=349126
##MOLFORM=C21 H40 O4
##MW=356
##$NIST SOURCE=MSDC
##XUNITS=M/Z
##YUNITS=RELATIVE INTENSITY
##XFACTOR=1
##YFACTOR=1
##FIRSTX=26
##LASTX=273
##FIRSTY=80
##MAXX=273
##MINX=26
##MAXY=9999
##MINY=20
##NPOINTS=82
##PEAK TABLE=(XY..XY)
26,80 27,370 28,220 29,561
31,90 39,340 40,80 41,1672
42,771 43,3403 44,200 45,30
51,30 52,20 53,130 54,260
55,2562 56,1521 57,3063 58,130
59,260 60,50 61,130 66,20
67,400 68,500 69,1872 70,1021
71,1852 72,110 73,180 77,20
79,70 80,20 81,220 82,711
83,1511 84,1672 85,2092 86,110
87,1301 89,40 91,20 95,130
96,170 97,1341 98,480 99,380
100,170 101,721 102,30 103,20
104,40 105,9999 106,330 107,70
109,40 110,110 111,881 112,280
113,240 115,20 116,20 117,60
124,30 125,290 126,130 127,100
131,40 138,20 139,60 140,490
141,30 153,40 167,180 168,671
169,180 171,40 189,40 255,2562
256,390 273,60
##END=
