##TITLE=Malonic acid, dodecyl 3-heptyl ester
##JCAMP-DX=4.24
##DATA TYPE=MASS SPECTRUM
##ORIGIN=L.N.Kulikova, V.G. Zaikin, RPFU, Moscow, Russia
##OWNER=NIST Mass Spectrometry Data Center
Collection (C) 2014 copyright by the U.S. Secretary of Commerce
on behalf of the United States of America. All rights reserved.
##$NIST MASS SPEC NO=349157
##MOLFORM=C22 H42 O4
##MW=370
##$NIST SOURCE=MSDC
##XUNITS=M/Z
##YUNITS=RELATIVE INTENSITY
##XFACTOR=1
##YFACTOR=1
##FIRSTX=26
##LASTX=274
##FIRSTY=50
##MAXX=274
##MINX=26
##MAXY=9999
##MINY=20
##NPOINTS=84
##PEAK TABLE=(XY..XY)
26,50 27,260 29,611 39,220
40,50 41,1541 42,550 43,2502
45,20 53,90 54,280 55,2252
56,1712 57,5095 58,220 60,50
61,410 66,30 67,360 68,490
69,1992 70,1291 71,1952 72,130
73,50 80,20 81,240 82,751
83,1762 84,681 85,1421 86,100
87,1331 88,40 89,70 95,140
96,340 97,1641 98,1421 99,611
100,50 102,40 103,130 104,50
105,9999 106,330 107,80 109,60
110,130 111,981 112,300 113,290
114,190 115,971 116,120 117,70
123,20 124,60 125,410 126,170
127,140 128,20 138,50 139,120
140,510 141,60 145,40 153,20
154,30 166,40 167,240 168,711
169,220 170,20 183,30 185,60
195,20 203,50 237,30 255,3253
256,510 257,50 273,180 274,20
##END=
