##TITLE=Malonic acid, isobutyl pentadecyl ester
##JCAMP-DX=4.24
##DATA TYPE=MASS SPECTRUM
##ORIGIN=L.N.Kulikova, V.G. Zaikin, RPFU, Moscow, Russia
##OWNER=NIST Mass Spectrometry Data Center
Collection (C) 2014 copyright by the U.S. Secretary of Commerce
on behalf of the United States of America. All rights reserved.
##$NIST MASS SPEC NO=349111
##MOLFORM=C22 H42 O4
##MW=370
##$NIST SOURCE=MSDC
##XUNITS=M/Z
##YUNITS=RELATIVE INTENSITY
##XFACTOR=1
##YFACTOR=1
##FIRSTX=26
##LASTX=315
##FIRSTY=20
##MAXX=315
##MINX=26
##MAXY=9999
##MINY=10
##NPOINTS=76
##PEAK TABLE=(XY..XY)
26,20 27,140 29,490 39,140
40,30 41,1151 42,310 43,1331
53,40 54,210 55,1411 56,1131
57,5175 58,220 60,60 67,290
68,330 69,1301 70,651 71,1011
72,70 73,10 81,190 82,470
83,1241 84,410 85,591 86,40
87,731 88,20 89,40 95,110
96,180 97,991 98,290 99,160
100,20 102,20 104,50 105,9999
106,340 107,80 109,40 110,80
111,520 112,170 113,110 118,110
119,60 123,20 124,40 125,250
126,100 127,90 130,30 131,30
132,50 138,20 139,90 140,60
141,50 143,120 145,50 153,20
154,30 155,20 160,20 161,2012
162,150 182,100 209,20 210,100
211,20 279,100 297,50 315,20
##END=
