##TITLE=Malonic acid, 3-heptyl undecyl ester
##JCAMP-DX=4.24
##DATA TYPE=MASS SPECTRUM
##ORIGIN=L.N.Kulikova, V.G. Zaikin, RPFU, Moscow, Russia
##OWNER=NIST Mass Spectrometry Data Center
Collection (C) 2014 copyright by the U.S. Secretary of Commerce
on behalf of the United States of America. All rights reserved.
##$NIST MASS SPEC NO=349156
##MOLFORM=C21 H40 O4
##MW=356
##$NIST SOURCE=MSDC
##XUNITS=M/Z
##YUNITS=RELATIVE INTENSITY
##XFACTOR=1
##YFACTOR=1
##FIRSTX=26
##LASTX=260
##FIRSTY=50
##MAXX=260
##MINX=26
##MAXY=9999
##MINY=10
##NPOINTS=75
##PEAK TABLE=(XY..XY)
26,50 27,290 29,671 39,230
40,40 41,1651 42,611 43,2442
45,20 53,90 54,250 55,2122
56,1742 57,5355 58,220 60,50
61,200 66,20 67,290 68,430
69,1692 70,1221 71,1912 72,130
81,180 82,571 83,1281 84,621
85,1591 86,110 87,1501 88,50
89,60 95,90 96,230 97,1251
98,1381 99,701 100,50 101,10
102,40 103,140 104,40 105,9999
106,340 107,80 109,30 110,70
111,470 112,170 113,210 114,190
115,1051 116,100 117,80 124,40
125,230 126,540 127,70 139,30
145,40 152,30 153,170 154,731
155,250 156,20 167,20 181,30
185,50 203,30 241,3243 242,480
243,60 259,170 260,20
##END=
