##TITLE=Succinic acid, 2-decyl tetradecyl ester
##JCAMP-DX=4.24
##DATA TYPE=MASS SPECTRUM
##ORIGIN=L.N.Kulikova, V.G. Zaikin, RPFU, Moscow, Russia
##OWNER=NIST Mass Spectrometry Data Center
Collection (C) 2014 copyright by the U.S. Secretary of Commerce
on behalf of the United States of America. All rights reserved.
##$NIST MASS SPEC NO=349434
##MOLFORM=C28 H54 O4
##MW=454
##$NIST SOURCE=MSDC
##XUNITS=M/Z
##YUNITS=RELATIVE INTENSITY
##XFACTOR=1
##YFACTOR=1
##FIRSTX=26
##LASTX=316
##FIRSTY=60
##MAXX=316
##MINX=26
##MAXY=9999
##MINY=20
##NPOINTS=76
##PEAK TABLE=(XY..XY)
26,60 27,220 29,490 39,220
41,1251 42,510 43,2422 44,70
45,60 53,100 54,240 55,2242
56,1471 57,3783 58,180 67,370
68,400 69,1822 70,1301 71,2913
72,110 73,130 74,260 75,190
79,30 81,220 82,631 83,1631
84,851 85,2432 86,110 91,20
95,120 96,420 97,1461 98,550
99,811 100,150 101,8708 102,360
103,40 109,40 110,120 111,811
112,380 113,571 117,30 118,90
119,9999 120,410 121,60 124,20
125,240 126,90 127,480 128,40
138,30 139,50 140,701 141,1041
142,70 154,20 155,150 156,130
157,500 158,20 168,110 196,220
197,1992 198,250 241,30 259,50
297,921 298,130 315,971 316,150
##END=
