##TITLE=Malonic acid, 2-hexyl tetradecyl ester
##JCAMP-DX=4.24
##DATA TYPE=MASS SPECTRUM
##ORIGIN=L.N.Kulikova, V.G. Zaikin, RPFU, Moscow, Russia
##OWNER=NIST Mass Spectrometry Data Center
Collection (C) 2014 copyright by the U.S. Secretary of Commerce
on behalf of the United States of America. All rights reserved.
##$NIST MASS SPEC NO=349327
##MOLFORM=C23 H44 O4
##MW=384
##$NIST SOURCE=MSDC
##XUNITS=M/Z
##YUNITS=RELATIVE INTENSITY
##XFACTOR=1
##YFACTOR=1
##FIRSTX=26
##LASTX=301
##FIRSTY=60
##MAXX=301
##MINX=26
##MAXY=9999
##MINY=20
##NPOINTS=83
##PEAK TABLE=(XY..XY)
26,60 27,340 28,180 29,450
39,280 40,60 41,1481 42,681
43,3123 44,80 45,60 51,30
52,20 53,110 54,260 55,2292
56,1301 57,2472 58,130 60,50
61,170 65,20 66,30 67,430
68,460 69,1752 70,881 71,1351
72,60 77,20 79,40 80,20
81,260 82,771 83,1682 84,1441
85,1641 86,90 87,781 89,40
95,140 96,250 97,1391 98,410
99,250 100,60 101,330 102,20
103,120 104,30 105,9999 106,310
107,70 109,60 110,120 111,811
112,280 113,160 115,20 123,20
124,60 125,420 126,180 127,90
132,20 138,20 139,140 140,90
145,30 153,40 154,50 161,80
168,310 171,30 173,20 189,50
195,160 196,440 197,80 265,90
283,681 284,90 301,40
##END=
