##TITLE=Succinic acid, decyl 4-phenoxybenzyl ester
##JCAMP-DX=4.24
##DATA TYPE=MASS SPECTRUM
##ORIGIN=L.N.Kulikova, V.G. Zaikin, RPFU, Moscow, Russia
##OWNER=NIST Mass Spectrometry Data Center
Collection (C) 2014 copyright by the U.S. Secretary of Commerce
on behalf of the United States of America. All rights reserved.
##$NIST MASS SPEC NO=349600
##MOLFORM=C27 H36 O5
##MW=440
##$NIST SOURCE=MSDC
##XUNITS=M/Z
##YUNITS=RELATIVE INTENSITY
##XFACTOR=1
##YFACTOR=1
##FIRSTX=26
##LASTX=442
##FIRSTY=60
##MAXX=442
##MINX=26
##MAXY=9999
##MINY=10
##NPOINTS=121
##PEAK TABLE=(XY..XY)
26,60 27,200 29,380 39,220
40,30 41,851 42,230 43,1842
44,170 50,60 51,240 52,30
53,60 54,70 55,1111 56,450
57,3133 58,100 63,90 64,50
65,200 66,30 67,140 68,80
69,631 70,220 71,2682 72,120
73,140 74,310 75,140 76,100
77,621 78,230 79,110 81,100
82,70 83,861 84,130 85,3013
86,160 89,621 90,310 91,1071
92,651 93,270 94,260 95,100
96,20 97,400 98,60 99,711
100,40 101,6746 102,290 103,40
104,20 105,70 106,60 107,300
108,20 111,60 112,30 115,290
116,40 119,190 122,90 127,120
128,190 129,160 137,30 139,90
140,60 141,1151 142,310 151,30
152,230 153,561 154,220 155,290
156,40 157,90 165,350 166,50
168,540 169,410 170,180 171,1201
172,130 180,20 181,731 182,370
183,9358 184,3453 185,390 195,30
196,90 197,400 198,1121 199,3503
200,9999 201,1411 202,110 210,10
223,20 241,260 242,20 253,30
254,761 255,140 256,20 282,190
283,50 300,751 301,611 302,100
340,40 412,60 440,4414 441,1301
442,190
##END=
