##TITLE=Succinic acid, 4-heptyl pentyl ester
##JCAMP-DX=4.24
##DATA TYPE=MASS SPECTRUM
##ORIGIN=L.N.Kulikova, V.G. Zaikin, RPFU, Moscow, Russia
##OWNER=NIST Mass Spectrometry Data Center
Collection (C) 2014 copyright by the U.S. Secretary of Commerce
on behalf of the United States of America. All rights reserved.
##$NIST MASS SPEC NO=349267
##MOLFORM=C16 H30 O4
##MW=286
##$NIST SOURCE=MSDC
##XUNITS=M/Z
##YUNITS=RELATIVE INTENSITY
##XFACTOR=1
##YFACTOR=1
##FIRSTX=26
##LASTX=199
##FIRSTY=20
##MAXX=199
##MINX=26
##MAXY=9999
##MINY=10
##NPOINTS=54
##PEAK TABLE=(XY..XY)
26,20 27,210 28,140 29,370
31,20 39,110 40,20 41,601
42,310 43,1311 44,50 45,70
53,20 54,30 55,571 56,510
57,1081 58,40 67,20 68,30
69,330 70,500 71,961 72,60
73,170 74,260 75,120 83,30
85,20 86,10 87,30 97,10
98,460 99,370 100,110 101,9999
102,440 103,90 114,200 115,791
116,60 118,10 119,861 120,30
144,90 145,10 159,10 171,2372
172,220 173,20 188,10 189,300
190,20 199,70
##END=
