##TITLE=Adipic acid, ethyl 4-heptyl ester
##JCAMP-DX=4.24
##DATA TYPE=MASS SPECTRUM
##ORIGIN=L.N.Kulikova, V.G. Zaikin, RPFU, Moscow, Russia
##OWNER=NIST Mass Spectrometry Data Center
Collection (C) 2014 copyright by the U.S. Secretary of Commerce
on behalf of the United States of America. All rights reserved.
##$NIST MASS SPEC NO=349734
##MOLFORM=C15 H28 O4
##MW=272
##$NIST SOURCE=MSDC
##XUNITS=M/Z
##YUNITS=RELATIVE INTENSITY
##XFACTOR=1
##YFACTOR=1
##FIRSTX=26
##LASTX=175
##FIRSTY=20
##MAXX=175
##MINX=26
##MAXY=9999
##MINY=20
##NPOINTS=54
##PEAK TABLE=(XY..XY)
26,20 27,260 29,661 31,40
39,120 40,20 41,631 42,200
43,691 44,40 45,80 53,50
54,60 55,801 56,530 57,1081
58,40 59,170 60,30 61,30
67,40 68,40 69,280 70,150
71,90 72,20 73,150 83,530
84,90 85,50 87,50 88,380
98,350 99,50 100,100 101,1191
102,90 111,4494 112,400 113,30
114,120 115,821 116,60 127,20
128,611 129,1692 130,550 131,50
156,220 157,9999 158,891 159,90
174,310 175,180
##END=
