##TITLE=Succinic acid, 2-ethylbutyl undecyl ester
##JCAMP-DX=4.24
##DATA TYPE=MASS SPECTRUM
##ORIGIN=L.N.Kulikova, V.G. Zaikin, RPFU, Moscow, Russia
##OWNER=NIST Mass Spectrometry Data Center
Collection (C) 2014 copyright by the U.S. Secretary of Commerce
on behalf of the United States of America. All rights reserved.
##$NIST MASS SPEC NO=349206
##MOLFORM=C21 H40 O4
##MW=356
##$NIST SOURCE=MSDC
##XUNITS=M/Z
##YUNITS=RELATIVE INTENSITY
##XFACTOR=1
##YFACTOR=1
##FIRSTX=26
##LASTX=327
##FIRSTY=40
##MAXX=327
##MINX=26
##MAXY=9999
##MINY=20
##NPOINTS=73
##PEAK TABLE=(XY..XY)
26,40 27,250 29,571 30,20
39,190 40,30 41,1331 42,540
43,3763 44,80 45,60 53,80
54,180 55,1812 56,1371 57,2772
58,110 59,20 67,210 68,230
69,1732 70,741 71,1621 72,90
73,170 74,240 75,120 81,90
82,280 83,801 84,2853 85,5865
86,390 95,40 96,100 97,581
98,220 99,611 100,80 101,9999
102,440 103,80 110,40 111,230
112,100 113,280 114,340 115,120
118,70 119,7006 120,300 121,50
125,100 126,180 127,20 128,30
129,20 132,90 133,70 146,40
154,200 155,861 156,90 185,100
199,20 203,601 204,50 228,50
255,250 256,30 273,330 274,40
327,50
##END=
