##TITLE=Malonic acid, di(2-methylpentyl) ester
##JCAMP-DX=4.24
##DATA TYPE=MASS SPECTRUM
##ORIGIN=L.N.Kulikova, V.G. Zaikin, RPFU, Moscow, Russia
##OWNER=NIST Mass Spectrometry Data Center
Collection (C) 2014 copyright by the U.S. Secretary of Commerce
on behalf of the United States of America. All rights reserved.
##$NIST MASS SPEC NO=349309
##MOLFORM=C15 H28 O4
##MW=272
##$NIST SOURCE=MSDC
##XUNITS=M/Z
##YUNITS=RELATIVE INTENSITY
##XFACTOR=1
##YFACTOR=1
##FIRSTX=27
##LASTX=189
##FIRSTY=220
##MAXX=189
##MINX=27
##MAXY=9999
##MINY=20
##NPOINTS=40
##PEAK TABLE=(XY..XY)
27,220 29,240 39,140 40,20
41,611 42,380 43,1972 45,30
53,40 55,150 56,110 57,470
67,30 69,540 70,30 71,110
72,30 83,40 84,681 85,9999
86,621 87,340 100,50 101,540
102,30 105,230 111,30 112,20
113,40 117,20 125,30 130,210
131,90 145,360 146,20 159,220
160,20 171,130 188,70 189,20
##END=
