##TITLE=Succinic acid, butyl 3,3-dimethylbut-2-yl ester
##JCAMP-DX=4.24
##DATA TYPE=MASS SPECTRUM
##ORIGIN=L.N.Kulikova, V.G. Zaikin, RPFU, Moscow, Russia
##OWNER=NIST Mass Spectrometry Data Center
Collection (C) 2014 copyright by the U.S. Secretary of Commerce
on behalf of the United States of America. All rights reserved.
##$NIST MASS SPEC NO=349508
##MOLFORM=C14 H26 O4
##MW=258
##$NIST SOURCE=MSDC
##XUNITS=M/Z
##YUNITS=RELATIVE INTENSITY
##XFACTOR=1
##YFACTOR=1
##FIRSTX=26
##LASTX=243
##FIRSTY=30
##MAXX=243
##MINX=26
##MAXY=9999
##MINY=20
##NPOINTS=45
##PEAK TABLE=(XY..XY)
26,30 27,190 28,220 29,561
39,130 40,20 41,891 42,80
43,1171 44,100 45,90 53,40
55,360 56,661 57,1381 58,60
67,20 69,681 70,60 73,160
74,320 75,140 83,40 84,540
85,3593 86,250 87,50 100,120
101,9999 102,450 103,90 119,350
128,110 129,50 130,571 131,140
157,2913 158,260 159,30 174,70
175,150 185,20 202,110 203,30
243,20
##END=
