##TITLE=Malonic acid, 2-butyl pentadecyl ester
##JCAMP-DX=4.24
##DATA TYPE=MASS SPECTRUM
##ORIGIN=L.N.Kulikova, V.G. Zaikin, RPFU, Moscow, Russia
##OWNER=NIST Mass Spectrometry Data Center
Collection (C) 2014 copyright by the U.S. Secretary of Commerce
on behalf of the United States of America. All rights reserved.
##$NIST MASS SPEC NO=349080
##MOLFORM=C22 H42 O4
##MW=370
##$NIST SOURCE=MSDC
##XUNITS=M/Z
##YUNITS=RELATIVE INTENSITY
##XFACTOR=1
##YFACTOR=1
##FIRSTX=26
##LASTX=315
##FIRSTY=20
##MAXX=315
##MINX=26
##MAXY=9999
##MINY=20
##NPOINTS=80
##PEAK TABLE=(XY..XY)
26,20 27,100 29,290 39,110
40,20 41,841 42,250 43,1061
44,40 45,40 53,50 54,170
55,1231 56,931 57,2192 58,100
60,50 61,70 66,20 67,260
68,330 69,1221 70,711 71,1031
72,80 73,160 81,180 82,651
83,1451 84,540 85,751 86,50
87,861 88,20 89,50 95,120
96,250 97,1281 98,360 99,200
102,20 104,50 105,9999 106,370
107,80 109,50 110,120 111,731
112,250 113,140 117,50 123,20
124,60 125,430 126,180 127,100
132,20 138,40 139,150 140,100
141,60 143,50 152,20 153,70
154,70 155,40 161,480 162,30
167,20 168,30 182,300 183,40
209,120 210,390 211,100 279,180
280,30 297,490 298,90 315,40
##END=
