##TITLE=Malonic acid, isobutyl nonyl ester
##JCAMP-DX=4.24
##DATA TYPE=MASS SPECTRUM
##ORIGIN=L.N.Kulikova, V.G. Zaikin, RPFU, Moscow, Russia
##OWNER=NIST Mass Spectrometry Data Center
Collection (C) 2014 copyright by the U.S. Secretary of Commerce
on behalf of the United States of America. All rights reserved.
##$NIST MASS SPEC NO=349105
##MOLFORM=C16 H30 O4
##MW=286
##$NIST SOURCE=MSDC
##XUNITS=M/Z
##YUNITS=RELATIVE INTENSITY
##XFACTOR=1
##YFACTOR=1
##FIRSTX=26
##LASTX=271
##FIRSTY=20
##MAXX=271
##MINX=26
##MAXY=9999
##MINY=20
##NPOINTS=62
##PEAK TABLE=(XY..XY)
26,20 27,250 29,751 30,40
39,210 40,50 41,1451 42,611
43,1401 53,60 54,150 55,1361
56,1792 57,5625 58,210 60,110
61,60 67,160 68,260 69,1061
70,891 71,1441 72,100 73,70
81,70 82,200 83,691 84,480
85,841 86,50 87,1151 88,30
89,20 90,30 95,30 96,60
97,510 98,390 99,20 100,30
101,20 104,30 105,9999 106,330
107,60 111,30 118,220 125,150
126,250 127,180 130,40 131,40
132,50 143,210 145,50 161,921
162,60 201,30 213,510 214,60
231,60 271,20
##END=
