##TITLE=Succinic acid, 2-ethylbutyl nonyl ester
##JCAMP-DX=4.24
##DATA TYPE=MASS SPECTRUM
##ORIGIN=L.N.Kulikova, V.G. Zaikin, RPFU, Moscow, Russia
##OWNER=NIST Mass Spectrometry Data Center
Collection (C) 2014 copyright by the U.S. Secretary of Commerce
on behalf of the United States of America. All rights reserved.
##$NIST MASS SPEC NO=349204
##MOLFORM=C19 H36 O4
##MW=328
##$NIST SOURCE=MSDC
##XUNITS=M/Z
##YUNITS=RELATIVE INTENSITY
##XFACTOR=1
##YFACTOR=1
##FIRSTX=26
##LASTX=299
##FIRSTY=20
##MAXX=299
##MINX=26
##MAXY=9999
##MINY=20
##NPOINTS=65
##PEAK TABLE=(XY..XY)
26,20 27,150 29,350 39,130
40,20 41,901 42,380 43,2722
45,60 53,60 54,110 55,1231
56,1141 57,1591 58,60 59,20
67,110 68,140 69,1311 70,550
71,1902 72,110 73,160 74,230
75,110 81,40 82,140 83,470
84,2502 85,5105 86,340 95,20
96,40 97,320 98,250 99,50
100,70 101,9999 102,470 103,80
111,30 114,350 115,100 118,50
119,5395 120,250 121,40 125,20
126,240 127,891 128,80 132,100
133,20 141,30 146,30 155,60
185,120 200,110 203,440 204,40
227,470 228,60 245,480 246,60
299,60
##END=
