##TITLE=Succinic acid, 4-methylpent-2-yl pentadecyl ester
##JCAMP-DX=4.24
##DATA TYPE=MASS SPECTRUM
##ORIGIN=L.N.Kulikova, V.G. Zaikin, RPFU, Moscow, Russia
##OWNER=NIST Mass Spectrometry Data Center
Collection (C) 2014 copyright by the U.S. Secretary of Commerce
on behalf of the United States of America. All rights reserved.
##$NIST MASS SPEC NO=349233
##MOLFORM=C25 H48 O4
##MW=412
##$NIST SOURCE=MSDC
##XUNITS=M/Z
##YUNITS=RELATIVE INTENSITY
##XFACTOR=1
##YFACTOR=1
##FIRSTX=26
##LASTX=398
##FIRSTY=40
##MAXX=398
##MINX=26
##MAXY=9999
##MINY=10
##NPOINTS=110
##PEAK TABLE=(XY..XY)
26,40 27,240 29,490 39,230
40,50 41,1451 42,440 43,3803
44,30 45,60 53,80 54,190
55,1722 56,1011 57,2933 58,140
59,20 65,10 66,10 67,310
68,320 69,2332 70,731 71,1792
72,90 73,140 74,280 75,230
80,10 81,170 82,500 83,1381
84,2112 85,6136 86,410 87,10
95,90 96,190 97,1031 98,290
99,540 100,140 101,7327 102,330
103,50 109,30 110,100 111,530
112,190 113,410 114,30 116,10
117,10 118,150 119,9999 120,450
121,80 123,10 124,60 125,240
126,130 127,370 128,30 129,10
138,30 139,90 140,90 141,340
142,30 145,10 146,40 152,20
153,40 154,50 155,240 156,20
157,10 159,20 166,10 167,20
168,30 169,110 175,30 180,10
181,10 182,140 183,10 185,40
203,260 204,20 210,260 211,1461
212,230 213,10 226,10 227,20
240,10 254,10 255,50 284,10
285,10 310,20 311,540 312,100
328,20 329,370 330,70 369,10
397,60 398,10
##END=
