##TITLE=Succinic acid, 3,3-dimethylbut-2-yl octyl ester
##JCAMP-DX=4.24
##DATA TYPE=MASS SPECTRUM
##ORIGIN=L.N.Kulikova, V.G. Zaikin, RPFU, Moscow, Russia
##OWNER=NIST Mass Spectrometry Data Center
Collection (C) 2014 copyright by the U.S. Secretary of Commerce
on behalf of the United States of America. All rights reserved.
##$NIST MASS SPEC NO=349513
##MOLFORM=C18 H34 O4
##MW=314
##$NIST SOURCE=MSDC
##XUNITS=M/Z
##YUNITS=RELATIVE INTENSITY
##XFACTOR=1
##YFACTOR=1
##FIRSTX=29
##LASTX=299
##FIRSTY=40
##MAXX=299
##MINX=29
##MAXY=9999
##MINY=20
##NPOINTS=58
##PEAK TABLE=(XY..XY)
29,40 39,140 40,30 41,1141
42,350 43,2502 44,150 45,60
53,70 54,80 55,981 56,891
57,3503 58,160 67,120 68,130
69,1441 70,540 71,2823 72,150
73,140 74,460 75,420 81,30
82,130 83,460 84,1421 85,5925
86,430 87,100 97,90 100,130
101,9999 102,480 103,80 110,20
111,90 112,470 113,1441 114,110
118,60 119,3603 120,150 121,20
128,190 129,120 146,30 157,20
159,20 185,20 186,490 187,120
213,1712 214,210 231,130 258,120
259,40 299,60
##END=
