##TITLE=Malonic acid, hexyl 4-methylpent-2-yl ester
##JCAMP-DX=4.24
##DATA TYPE=MASS SPECTRUM
##ORIGIN=L.N.Kulikova, V.G. Zaikin, RPFU, Moscow, Russia
##OWNER=NIST Mass Spectrometry Data Center
Collection (C) 2014 copyright by the U.S. Secretary of Commerce
on behalf of the United States of America. All rights reserved.
##$NIST MASS SPEC NO=349335
##MOLFORM=C15 H28 O4
##MW=272
##$NIST SOURCE=MSDC
##XUNITS=M/Z
##YUNITS=RELATIVE INTENSITY
##XFACTOR=1
##YFACTOR=1
##FIRSTX=26
##LASTX=257
##FIRSTY=40
##MAXX=257
##MINX=26
##MAXY=9999
##MINY=20
##NPOINTS=68
##PEAK TABLE=(XY..XY)
26,40 27,480 28,110 29,290
30,20 31,20 39,300 40,90
41,1952 42,1121 43,6346 53,110
54,130 55,1521 56,1842 57,1541
58,60 59,80 60,200 61,561
67,260 68,100 69,3343 70,270
71,220 72,30 81,40 82,310
83,631 84,5655 85,9999 86,751
87,1982 88,60 89,20 99,60
100,260 101,1241 102,80 103,30
104,40 105,9829 106,340 107,80
111,731 112,50 113,30 115,50
118,60 125,180 127,70 128,20
129,90 132,30 133,40 144,30
145,130 153,80 171,7467 172,791
173,70 185,20 186,50 189,641
190,50 215,130 229,80 257,20
##END=
