##TITLE=Succinic acid, hexadecyl 3-methylbutyl ester
##JCAMP-DX=4.24
##DATA TYPE=MASS SPECTRUM
##ORIGIN=L.N.Kulikova, V.G. Zaikin, RPFU, Moscow, Russia
##OWNER=NIST Mass Spectrometry Data Center
Collection (C) 2014 copyright by the U.S. Secretary of Commerce
on behalf of the United States of America. All rights reserved.
##$NIST MASS SPEC NO=349255
##MOLFORM=C25 H48 O4
##MW=412
##$NIST SOURCE=MSDC
##XUNITS=M/Z
##YUNITS=RELATIVE INTENSITY
##XFACTOR=1
##YFACTOR=1
##FIRSTX=26
##LASTX=398
##FIRSTY=30
##MAXX=398
##MINX=26
##MAXY=9999
##MINY=10
##NPOINTS=120
##PEAK TABLE=(XY..XY)
26,30 27,190 29,440 30,10
31,10 39,190 40,40 41,1171
42,410 43,3143 45,40 53,70
54,220 55,2002 56,871 57,2292
58,90 66,10 67,320 68,330
69,1481 70,1742 71,9999 72,591
73,130 74,130 75,60 80,10
81,180 82,380 83,1221 84,470
85,1161 86,70 87,10 89,70
95,100 96,150 97,971 98,260
99,330 100,60 101,5905 102,270
103,50 109,40 110,80 111,460
112,170 113,250 114,40 115,40
116,10 117,20 118,40 119,3333
120,140 121,20 123,10 124,40
125,190 126,110 127,220 128,120
129,60 138,30 139,60 140,70
141,180 142,10 144,50 145,80
146,20 147,20 152,20 153,30
154,50 155,180 156,10 166,10
167,10 168,30 169,120 170,60
171,2542 172,240 173,40 176,10
182,10 183,50 188,10 189,4854
190,500 191,30 196,60 197,10
198,10 203,20 211,10 212,30
216,50 222,10 224,60 225,550
226,120 229,20 240,30 254,20
257,20 268,20 269,20 324,40
325,80 326,10 343,230 344,40
369,160 370,20 397,70 398,10
##END=
