##TITLE=Succinic acid, isohexyl 4-methylpent-2-yl ester
##JCAMP-DX=4.24
##DATA TYPE=MASS SPECTRUM
##ORIGIN=L.N.Kulikova, V.G. Zaikin, RPFU, Moscow, Russia
##OWNER=NIST Mass Spectrometry Data Center
Collection (C) 2014 copyright by the U.S. Secretary of Commerce
on behalf of the United States of America. All rights reserved.
##$NIST MASS SPEC NO=349223
##MOLFORM=C16 H30 O4
##MW=286
##$NIST SOURCE=MSDC
##XUNITS=M/Z
##YUNITS=RELATIVE INTENSITY
##XFACTOR=1
##YFACTOR=1
##FIRSTX=26
##LASTX=271
##FIRSTY=30
##MAXX=271
##MINX=26
##MAXY=9999
##MINY=10
##NPOINTS=63
##PEAK TABLE=(XY..XY)
26,30 27,320 28,190 29,490
30,10 31,10 39,210 40,40
41,1021 42,330 43,3863 44,120
45,90 53,60 54,40 55,741
56,681 57,791 58,40 59,80
67,50 68,20 69,1551 70,100
71,110 72,20 73,140 74,260
75,20 82,10 83,150 84,2352
85,9999 86,651 87,20 91,60
93,10 100,70 101,5165 102,230
103,80 105,10 114,160 115,30
118,50 119,2332 120,100 121,10
131,10 132,200 133,20 155,10
158,140 159,40 173,70 174,20
185,601 186,60 187,10 202,30
203,150 204,10 271,10
##END=
