##TITLE=Adipic acid, 4-heptyl pentadecyl ester
##JCAMP-DX=4.24
##DATA TYPE=MASS SPECTRUM
##ORIGIN=L.N.Kulikova, V.G. Zaikin, RPFU, Moscow, Russia
##OWNER=NIST Mass Spectrometry Data Center
Collection (C) 2014 copyright by the U.S. Secretary of Commerce
on behalf of the United States of America. All rights reserved.
##$NIST MASS SPEC NO=349749
##MOLFORM=C28 H54 O4
##MW=454
##$NIST SOURCE=MSDC
##XUNITS=M/Z
##YUNITS=RELATIVE INTENSITY
##XFACTOR=1
##YFACTOR=1
##FIRSTX=26
##LASTX=357
##FIRSTY=20
##MAXX=357
##MINX=26
##MAXY=9999
##MINY=20
##NPOINTS=93
##PEAK TABLE=(XY..XY)
26,20 27,120 28,90 29,220
39,120 40,20 41,701 42,190
43,1021 44,70 53,40 54,130
55,1181 56,671 57,1762 58,70
59,80 60,20 61,50 67,180
68,190 69,821 70,440 71,571
72,30 73,210 79,20 81,120
82,260 83,751 84,320 85,400
86,30 87,270 95,80 96,140
97,470 98,611 99,130 100,440
101,851 102,340 103,230 109,40
110,60 111,1491 112,240 113,90
114,50 115,200 124,20 125,100
126,100 127,100 128,360 129,9999
130,681 131,90 138,20 139,50
140,40 141,30 144,50 145,20
146,50 147,2272 148,130 154,30
155,30 157,20 182,60 184,70
210,180 211,50 226,20 227,20
240,40 254,40 255,120 268,40
269,20 282,20 296,50 297,220
298,20 310,40 337,30 338,90
339,2582 340,561 341,50 356,60
357,60
##END=
