##TITLE=Succinic acid, 3-heptyl nonadecyl ester
##JCAMP-DX=4.24
##DATA TYPE=MASS SPECTRUM
##ORIGIN=L.N.Kulikova, V.G. Zaikin, RPFU, Moscow, Russia
##OWNER=NIST Mass Spectrometry Data Center
Collection (C) 2014 copyright by the U.S. Secretary of Commerce
on behalf of the United States of America. All rights reserved.
##$NIST MASS SPEC NO=349501
##MOLFORM=C30 H58 O4
##MW=482
##$NIST SOURCE=MSDC
##XUNITS=M/Z
##YUNITS=RELATIVE INTENSITY
##XFACTOR=1
##YFACTOR=1
##FIRSTX=26
##LASTX=386
##FIRSTY=60
##MAXX=386
##MINX=26
##MAXY=9999
##MINY=10
##NPOINTS=90
##PEAK TABLE=(XY..XY)
26,60 27,270 29,450 39,220
40,20 41,1281 42,390 43,1972
44,40 53,90 54,240 55,2042
56,1341 57,4144 58,180 59,20
67,370 68,370 69,1902 70,961
71,2022 72,90 73,130 74,200
75,150 77,10 79,20 80,10
81,260 82,581 83,1661 84,480
85,1551 86,60 91,20 95,160
96,220 97,1371 98,1081 99,1031
100,150 101,8458 102,340 103,50
109,60 110,110 111,691 112,200
113,470 114,190 115,711 116,40
117,20 118,150 119,9999 120,420
121,50 123,20 124,60 125,320
126,100 127,360 128,20 138,40
139,100 140,70 141,340 153,50
154,50 155,250 156,20 167,20
168,20 169,250 182,20 183,250
197,200 199,60 211,120 217,70
225,40 238,60 266,150 267,1732
268,330 311,20 367,450 368,80
385,270 386,30
##END=
