##TITLE=Adipic acid, 4-heptyl nonyl ester
##JCAMP-DX=4.24
##DATA TYPE=MASS SPECTRUM
##ORIGIN=L.N.Kulikova, V.G. Zaikin, RPFU, Moscow, Russia
##OWNER=NIST Mass Spectrometry Data Center
Collection (C) 2014 copyright by the U.S. Secretary of Commerce
on behalf of the United States of America. All rights reserved.
##$NIST MASS SPEC NO=349743
##MOLFORM=C22 H42 O4
##MW=370
##$NIST SOURCE=MSDC
##XUNITS=M/Z
##YUNITS=RELATIVE INTENSITY
##XFACTOR=1
##YFACTOR=1
##FIRSTX=26
##LASTX=273
##FIRSTY=20
##MAXX=273
##MINX=26
##MAXY=9999
##MINY=10
##NPOINTS=75
##PEAK TABLE=(XY..XY)
26,20 27,100 29,200 39,100
40,20 41,641 42,170 43,871
44,90 45,20 53,40 54,80
55,971 56,701 57,1371 58,60
59,100 60,20 61,130 67,90
68,130 69,571 70,440 71,581
72,40 73,230 81,40 82,120
83,561 84,300 85,380 86,30
87,340 95,20 96,50 97,230
98,671 99,70 100,500 101,901
102,380 103,220 110,20 111,1702
112,270 113,30 114,70 115,250
116,10 124,20 125,20 126,390
127,120 128,320 129,9999 130,681
131,80 140,30 146,30 147,1351
148,80 171,100 184,40 199,30
213,400 214,40 226,150 227,70
228,60 254,40 255,3473 256,561
257,50 272,90 273,80
##END=
