##TITLE=Malonic acid, 2-methylpentyl hexadecyl ester
##JCAMP-DX=4.24
##DATA TYPE=MASS SPECTRUM
##ORIGIN=L.N.Kulikova, V.G. Zaikin, RPFU, Moscow, Russia
##OWNER=NIST Mass Spectrometry Data Center
Collection (C) 2014 copyright by the U.S. Secretary of Commerce
on behalf of the United States of America. All rights reserved.
##$NIST MASS SPEC NO=349308
##MOLFORM=C25 H48 O4
##MW=412
##$NIST SOURCE=MSDC
##XUNITS=M/Z
##YUNITS=RELATIVE INTENSITY
##XFACTOR=1
##YFACTOR=1
##FIRSTX=26
##LASTX=383
##FIRSTY=40
##MAXX=383
##MINX=26
##MAXY=9999
##MINY=20
##NPOINTS=123
##PEAK TABLE=(XY..XY)
26,40 27,190 28,90 29,230
39,180 40,30 41,1031 42,300
43,2612 44,280 45,30 52,20
53,50 54,180 55,1221 56,751
57,2012 58,90 59,130 60,20
61,60 65,20 66,20 67,310
68,350 69,1601 70,691 71,1461
72,90 73,70 77,40 79,80
80,40 81,250 82,821 83,1651
84,1982 85,4804 86,350 87,801
88,20 89,110 91,20 94,20
95,200 96,370 97,1892 98,480
99,410 100,180 101,721 102,50
103,20 104,60 105,9999 106,370
107,90 109,120 110,210 111,1291
112,390 113,260 115,50 116,40
117,130 123,40 124,130 125,791
126,300 127,240 128,20 129,20
130,140 131,190 132,20 135,20
137,30 138,90 139,410 140,210
141,290 142,20 145,30 147,30
152,50 153,210 154,180 155,120
159,70 166,30 167,130 168,120
169,70 171,20 173,20 180,20
181,50 182,60 183,50 189,70
191,30 193,20 194,20 196,611
197,80 209,40 221,40 222,30
223,310 224,1051 225,290 253,20
267,20 269,20 293,721 294,120
311,4244 312,861 313,80 329,90
354,100 355,60 383,40
##END=
