##TITLE=Malonic acid, 2-methylpent-3-yl undecyl ester
##JCAMP-DX=4.24
##DATA TYPE=MASS SPECTRUM
##ORIGIN=L.N.Kulikova, V.G. Zaikin, RPFU, Moscow, Russia
##OWNER=NIST Mass Spectrometry Data Center
Collection (C) 2014 copyright by the U.S. Secretary of Commerce
on behalf of the United States of America. All rights reserved.
##$NIST MASS SPEC NO=349053
##MOLFORM=C20 H38 O4
##MW=342
##$NIST SOURCE=MSDC
##XUNITS=M/Z
##YUNITS=RELATIVE INTENSITY
##XFACTOR=1
##YFACTOR=1
##FIRSTX=26
##LASTX=313
##FIRSTY=40
##MAXX=313
##MINX=26
##MAXY=9999
##MINY=20
##NPOINTS=94
##PEAK TABLE=(XY..XY)
26,40 27,270 28,210 29,540
31,50 39,270 40,80 41,1762
42,741 43,4574 44,330 45,80
53,120 54,250 55,2102 56,1481
57,4214 58,220 59,180 60,70
61,260 65,20 66,30 67,370
68,520 69,2833 70,1111 71,2843
72,180 73,80 79,20 80,20
81,220 82,831 83,1762 84,3503
85,9118 86,641 87,1852 88,60
89,100 95,140 96,310 97,1782
98,540 99,791 100,340 101,1551
102,120 103,20 104,60 105,9999
106,360 107,80 109,50 110,120
111,751 112,290 113,380 114,40
115,40 116,20 117,70 123,20
124,60 125,280 126,801 127,100
128,20 130,200 131,300 132,40
139,20 142,20 145,40 152,40
153,380 154,1241 155,450 156,40
159,30 171,20 181,60 189,50
199,20 223,30 241,4964 242,771
243,80 259,130 284,80 285,30
299,40 313,50
##END=
