##TITLE=Succinic acid, 4-heptyl tetradecyl ester
##JCAMP-DX=4.24
##DATA TYPE=MASS SPECTRUM
##ORIGIN=L.N.Kulikova, V.G. Zaikin, RPFU, Moscow, Russia
##OWNER=NIST Mass Spectrometry Data Center
Collection (C) 2014 copyright by the U.S. Secretary of Commerce
on behalf of the United States of America. All rights reserved.
##$NIST MASS SPEC NO=349277
##MOLFORM=C25 H48 O4
##MW=412
##$NIST SOURCE=MSDC
##XUNITS=M/Z
##YUNITS=RELATIVE INTENSITY
##XFACTOR=1
##YFACTOR=1
##FIRSTX=26
##LASTX=316
##FIRSTY=50
##MAXX=316
##MINX=26
##MAXY=9999
##MINY=10
##NPOINTS=92
##PEAK TABLE=(XY..XY)
26,50 27,280 28,220 29,550
31,20 39,230 40,40 41,1511
42,450 43,2292 45,50 53,80
54,230 55,2052 56,1531 57,4934
58,200 66,10 67,290 68,350
69,1742 70,1141 71,2452 72,140
73,180 74,260 75,170 77,10
80,10 81,170 82,470 83,1321
84,420 85,1581 86,100 95,90
96,150 97,991 98,1291 99,1281
100,190 101,9999 102,430 103,60
109,20 110,80 111,490 112,190
113,681 114,360 115,1311 116,80
117,10 118,110 119,8948 120,400
121,60 123,10 124,40 125,220
126,120 127,601 128,40 138,20
139,70 140,70 141,450 142,20
145,10 146,10 149,10 153,20
154,30 155,190 168,140 169,10
173,10 189,10 194,10 196,260
197,2332 198,340 199,120 213,10
217,50 241,30 297,1271 298,230
299,10 314,20 315,440 316,70
##END=
