##TITLE=Malonic acid, 3-hexyl propyl ester
##JCAMP-DX=4.24
##DATA TYPE=MASS SPECTRUM
##ORIGIN=L.N.Kulikova, V.G. Zaikin, RPFU, Moscow, Russia
##OWNER=NIST Mass Spectrometry Data Center
Collection (C) 2014 copyright by the U.S. Secretary of Commerce
on behalf of the United States of America. All rights reserved.
##$NIST MASS SPEC NO=349118
##MOLFORM=C12 H22 O4
##MW=230
##$NIST SOURCE=MSDC
##XUNITS=M/Z
##YUNITS=RELATIVE INTENSITY
##XFACTOR=1
##YFACTOR=1
##FIRSTX=26
##LASTX=201
##FIRSTY=30
##MAXX=201
##MINX=26
##MAXY=9999
##MINY=20
##NPOINTS=64
##PEAK TABLE=(XY..XY)
26,30 27,470 28,120 29,320
30,20 31,70 36,30 39,210
40,40 41,961 42,641 43,4064
44,80 45,30 51,20 52,20
53,40 54,40 55,741 56,651
57,581 58,50 59,290 60,240
61,320 67,30 69,410 70,30
71,220 72,50 73,20 79,70
83,50 84,931 85,370 86,30
87,2482 88,90 99,20 100,130
101,1121 102,170 105,2352 106,70
111,410 112,20 115,60 116,20
117,90 118,30 125,120 129,9999
130,691 131,90 133,20 143,40
144,20 147,651 148,20 153,170
171,500 172,40 187,120 201,140
##END=
