##TITLE=Malonic acid, heptadecyl isobutyl ester
##JCAMP-DX=4.24
##DATA TYPE=MASS SPECTRUM
##ORIGIN=L.N.Kulikova, V.G. Zaikin, RPFU, Moscow, Russia
##OWNER=NIST Mass Spectrometry Data Center
Collection (C) 2014 copyright by the U.S. Secretary of Commerce
on behalf of the United States of America. All rights reserved.
##$NIST MASS SPEC NO=349113
##MOLFORM=C24 H46 O4
##MW=398
##$NIST SOURCE=MSDC
##XUNITS=M/Z
##YUNITS=RELATIVE INTENSITY
##XFACTOR=1
##YFACTOR=1
##FIRSTX=27
##LASTX=383
##FIRSTY=100
##MAXX=383
##MINX=27
##MAXY=9999
##MINY=10
##NPOINTS=80
##PEAK TABLE=(XY..XY)
27,100 28,130 29,330 39,130
40,30 41,941 42,270 43,1341
53,40 54,210 55,1451 56,1101
57,4874 58,220 60,50 61,40
66,20 67,300 68,360 69,1431
70,651 71,1101 72,70 80,10
81,240 82,510 83,1381 84,480
85,761 86,40 87,661 88,20
89,40 95,140 96,200 97,1191
98,280 99,180 100,20 102,20
103,10 104,50 105,9999 106,340
107,80 109,60 110,100 111,651
112,190 113,110 118,110 119,70
123,20 124,50 125,300 126,110
127,70 130,30 132,20 138,30
139,120 140,70 141,40 143,90
145,20 153,40 154,50 155,20
161,2142 162,160 167,20 168,30
181,10 182,20 210,60 237,40
238,60 239,30 307,120 383,30
##END=
