##TITLE=Succinic acid, di(2,2,2-trichloroethyl) ester
##JCAMP-DX=4.24
##DATA TYPE=MASS SPECTRUM
##ORIGIN=L.N.Kulikova, V.G. Zaikin, RPFU, Moscow, Russia
##OWNER=NIST Mass Spectrometry Data Center
Collection (C) 2014 copyright by the U.S. Secretary of Commerce
on behalf of the United States of America. All rights reserved.
##$NIST MASS SPEC NO=349181
##MOLFORM=C8 H8 Cl6 O4
##MW=378
##$NIST SOURCE=MSDC
##XUNITS=M/Z
##YUNITS=RELATIVE INTENSITY
##XFACTOR=1
##YFACTOR=1
##FIRSTX=26
##LASTX=346
##FIRSTY=170
##MAXX=346
##MINX=26
##MAXY=9999
##MINY=20
##NPOINTS=75
##PEAK TABLE=(XY..XY)
26,170 27,290 28,100 29,260
30,40 31,40 35,30 42,140
43,40 45,150 47,80 48,80
49,130 50,20 51,20 55,1261
56,320 57,80 60,150 61,661
62,60 63,260 72,20 73,510
74,60 77,40 82,160 83,90
84,110 85,60 86,20 95,1291
96,851 97,851 98,621 99,220
100,681 101,9999 102,440 103,70
111,30 112,40 113,40 114,30
117,320 119,320 121,100 125,20
130,190 131,2272 132,230 133,2152
134,100 135,701 137,70 139,50
141,30 167,60 169,50 195,861
196,50 197,561 198,30 199,90
230,130 231,4734 232,450 233,4524
234,350 235,1451 236,100 237,160
342,30 344,50 346,30
##END=
