##TITLE=Succinic acid, ethyl 4-heptyl ester
##JCAMP-DX=4.24
##DATA TYPE=MASS SPECTRUM
##ORIGIN=L.N.Kulikova, V.G. Zaikin, RPFU, Moscow, Russia
##OWNER=NIST Mass Spectrometry Data Center
Collection (C) 2014 copyright by the U.S. Secretary of Commerce
on behalf of the United States of America. All rights reserved.
##$NIST MASS SPEC NO=349263
##MOLFORM=C13 H24 O4
##MW=244
##$NIST SOURCE=MSDC
##XUNITS=M/Z
##YUNITS=RELATIVE INTENSITY
##XFACTOR=1
##YFACTOR=1
##FIRSTX=26
##LASTX=199
##FIRSTY=10
##MAXX=199
##MINX=26
##MAXY=9999
##MINY=10
##NPOINTS=49
##PEAK TABLE=(XY..XY)
26,10 27,190 28,180 29,450
30,10 31,30 39,90 40,10
41,490 42,100 43,450 44,130
45,100 53,20 54,30 55,611
56,631 57,1101 58,40 59,10
67,10 68,20 69,330 70,250
71,80 72,20 73,380 74,120
75,20 83,40 97,10 98,400
99,330 100,90 101,6766 102,510
103,60 114,220 115,921 116,60
128,80 129,9999 130,661 131,80
144,10 146,20 147,410 148,20
199,20
##END=
