##TITLE=Malonic acid, butyl 2-methylpentyl ester
##JCAMP-DX=4.24
##DATA TYPE=MASS SPECTRUM
##ORIGIN=L.N.Kulikova, V.G. Zaikin, RPFU, Moscow, Russia
##OWNER=NIST Mass Spectrometry Data Center
Collection (C) 2014 copyright by the U.S. Secretary of Commerce
on behalf of the United States of America. All rights reserved.
##$NIST MASS SPEC NO=349300
##MOLFORM=C13 H24 O4
##MW=244
##$NIST SOURCE=MSDC
##XUNITS=M/Z
##YUNITS=RELATIVE INTENSITY
##XFACTOR=1
##YFACTOR=1
##FIRSTX=26
##LASTX=215
##FIRSTY=40
##MAXX=215
##MINX=26
##MAXY=9999
##MINY=20
##NPOINTS=60
##PEAK TABLE=(XY..XY)
26,40 27,390 28,250 29,641
30,40 31,190 39,270 40,50
41,1471 42,571 43,1121 44,30
45,120 53,60 54,30 55,490
56,1091 57,4504 58,160 59,310
60,170 61,80 67,40 69,1311
70,50 71,340 72,80 73,280
83,490 84,1732 85,1852 86,160
87,3543 88,90 89,20 99,20
100,120 101,1331 102,70 105,1391
106,40 112,70 113,40 116,60
117,40 125,150 127,20 130,170
131,80 143,9999 144,791 145,50
159,20 160,20 161,240 171,20
186,70 187,30 201,210 215,80
##END=
