##TITLE=Succinic acid, butyl 4-heptyl ester
##JCAMP-DX=4.24
##DATA TYPE=MASS SPECTRUM
##ORIGIN=L.N.Kulikova, V.G. Zaikin, RPFU, Moscow, Russia
##OWNER=NIST Mass Spectrometry Data Center
Collection (C) 2014 copyright by the U.S. Secretary of Commerce
on behalf of the United States of America. All rights reserved.
##$NIST MASS SPEC NO=349266
##MOLFORM=C15 H28 O4
##MW=272
##$NIST SOURCE=MSDC
##XUNITS=M/Z
##YUNITS=RELATIVE INTENSITY
##XFACTOR=1
##YFACTOR=1
##FIRSTX=26
##LASTX=199
##FIRSTY=20
##MAXX=199
##MINX=26
##MAXY=9999
##MINY=10
##NPOINTS=53
##PEAK TABLE=(XY..XY)
26,20 27,230 28,210 29,520
30,10 31,20 39,120 40,20
41,751 42,90 43,400 44,90
45,70 53,20 54,30 55,470
56,691 57,1692 58,70 59,10
67,10 68,20 69,230 70,200
71,70 72,30 73,150 74,240
75,80 83,30 84,10 97,10
98,390 99,390 100,110 101,9999
102,430 103,90 114,200 115,761
116,50 119,360 120,10 130,130
131,20 145,10 157,3213 158,280
159,30 174,20 175,340 176,20
199,70
##END=
