##TITLE=Adipic acid, 4-heptyl propyl ester
##JCAMP-DX=4.24
##DATA TYPE=MASS SPECTRUM
##ORIGIN=L.N.Kulikova, V.G. Zaikin, RPFU, Moscow, Russia
##OWNER=NIST Mass Spectrometry Data Center
Collection (C) 2014 copyright by the U.S. Secretary of Commerce
on behalf of the United States of America. All rights reserved.
##$NIST MASS SPEC NO=349735
##MOLFORM=C16 H30 O4
##MW=286
##$NIST SOURCE=MSDC
##XUNITS=M/Z
##YUNITS=RELATIVE INTENSITY
##XFACTOR=1
##YFACTOR=1
##FIRSTX=27
##LASTX=227
##FIRSTY=130
##MAXX=227
##MINX=27
##MAXY=9999
##MINY=10
##NPOINTS=55
##PEAK TABLE=(XY..XY)
27,130 29,130 31,20 39,70
41,460 42,210 43,651 53,10
54,30 56,310 57,711 58,40
59,100 60,80 61,220 67,20
68,30 69,190 70,100 71,70
73,220 74,20 83,350 84,100
85,40 87,210 98,300 99,40
100,360 101,901 102,470 103,140
110,20 111,2983 112,340 113,30
114,100 115,380 116,30 127,20
129,6416 130,400 131,60 142,641
143,160 144,530 145,40 147,60
170,180 171,9999 172,1071 173,100
188,370 189,220 227,50
##END=
