##TITLE=Malonic acid, 2-butyl decyl ester
##JCAMP-DX=4.24
##DATA TYPE=MASS SPECTRUM
##ORIGIN=L.N.Kulikova, V.G. Zaikin, RPFU, Moscow, Russia
##OWNER=NIST Mass Spectrometry Data Center
Collection (C) 2014 copyright by the U.S. Secretary of Commerce
on behalf of the United States of America. All rights reserved.
##$NIST MASS SPEC NO=349075
##MOLFORM=C17 H32 O4
##MW=300
##$NIST SOURCE=MSDC
##XUNITS=M/Z
##YUNITS=RELATIVE INTENSITY
##XFACTOR=1
##YFACTOR=1
##FIRSTX=26
##LASTX=245
##FIRSTY=50
##MAXX=245
##MINX=26
##MAXY=9999
##MINY=10
##NPOINTS=70
##PEAK TABLE=(XY..XY)
26,50 27,250 28,300 29,761
31,20 39,230 40,50 41,1521
42,550 43,1401 44,100 45,70
53,80 54,190 55,1551 56,1651
57,3203 58,120 59,30 60,100
61,150 67,230 68,340 69,1171
70,1101 71,1311 72,110 73,430
74,20 79,20 81,120 82,430
83,1281 84,621 85,1221 86,90
87,1451 88,40 89,30 95,60
96,130 97,731 98,300 99,250
100,20 102,20 104,40 105,9999
106,370 107,90 109,30 110,60
111,340 112,581 113,60 116,10
117,80 125,150 132,20 138,20
139,130 140,520 141,180 142,20
143,90 147,50 161,280 227,1211
228,160 245,50
##END=
