##TITLE=Succinic acid, 2-decyl pentyl ester
##JCAMP-DX=4.24
##DATA TYPE=MASS SPECTRUM
##ORIGIN=L.N.Kulikova, V.G. Zaikin, RPFU, Moscow, Russia
##OWNER=NIST Mass Spectrometry Data Center
Collection (C) 2014 copyright by the U.S. Secretary of Commerce
on behalf of the United States of America. All rights reserved.
##$NIST MASS SPEC NO=349425
##MOLFORM=C19 H36 O4
##MW=328
##$NIST SOURCE=MSDC
##XUNITS=M/Z
##YUNITS=RELATIVE INTENSITY
##XFACTOR=1
##YFACTOR=1
##FIRSTX=26
##LASTX=241
##FIRSTY=10
##MAXX=241
##MINX=26
##MAXY=9999
##MINY=10
##NPOINTS=60
##PEAK TABLE=(XY..XY)
26,10 27,140 29,310 39,100
40,20 41,661 42,360 43,1621
53,40 54,60 55,811 56,510
57,861 58,60 67,70 68,70
69,490 70,751 71,1581 72,80
73,130 74,390 75,210 81,30
82,70 83,260 84,240 85,621
86,50 87,30 96,60 97,330
98,190 99,120 100,100 101,9999
102,460 103,100 111,200 112,130
118,20 119,1742 120,70 140,350
141,701 142,70 144,180 145,20
156,140 157,490 158,50 159,20
171,3383 172,340 173,30 186,30
188,40 189,1351 190,120 241,20
##END=
