##TITLE=Succinic acid, 4-biphenyl ethyl ester
##JCAMP-DX=4.24
##DATA TYPE=MASS SPECTRUM
##ORIGIN=L.N.Kulikova, V.G. Zaikin, RPFU, Moscow, Russia
##OWNER=NIST Mass Spectrometry Data Center
Collection (C) 2014 copyright by the U.S. Secretary of Commerce
on behalf of the United States of America. All rights reserved.
##$NIST MASS SPEC NO=349687
##MOLFORM=C18 H18 O4
##MW=298
##$NIST SOURCE=MSDC
##XUNITS=M/Z
##YUNITS=RELATIVE INTENSITY
##XFACTOR=1
##YFACTOR=1
##FIRSTX=26
##LASTX=299
##FIRSTY=20
##MAXX=299
##MINX=26
##MAXY=9999
##MINY=10
##NPOINTS=58
##PEAK TABLE=(XY..XY)
26,20 27,90 29,240 39,30
44,10 45,30 51,30 55,591
56,40 63,70 65,20 73,210
74,20 75,30 76,230 77,210
84,20 85,20 89,50 91,20
99,40 100,20 101,3073 102,190
103,30 113,30 114,30 115,500
116,60 126,20 127,160 128,40
129,2212 130,150 131,30 139,200
140,60 141,591 142,100 150,20
151,90 152,330 153,220 154,30
155,20 167,30 168,50 169,310
170,9999 171,1401 172,100 198,30
225,30 253,1451 254,250 255,20
298,310 299,60
##END=
