##TITLE=Succinic acid, 3-methylpentyl pentadecyl ester
##JCAMP-DX=4.24
##DATA TYPE=MASS SPECTRUM
##ORIGIN=L.N.Kulikova, V.G. Zaikin, RPFU, Moscow, Russia
##OWNER=NIST Mass Spectrometry Data Center
Collection (C) 2014 copyright by the U.S. Secretary of Commerce
on behalf of the United States of America. All rights reserved.
##$NIST MASS SPEC NO=349541
##MOLFORM=C25 H48 O4
##MW=412
##$NIST SOURCE=MSDC
##XUNITS=M/Z
##YUNITS=RELATIVE INTENSITY
##XFACTOR=1
##YFACTOR=1
##FIRSTX=26
##LASTX=383
##FIRSTY=60
##MAXX=383
##MINX=26
##MAXY=9999
##MINY=20
##NPOINTS=80
##PEAK TABLE=(XY..XY)
26,60 27,230 29,540 39,200
40,40 41,1281 42,380 43,3623
44,140 45,20 53,80 54,210
55,2012 56,1171 57,2602 58,110
67,300 68,290 69,1932 70,651
71,1271 72,60 73,110 74,100
75,80 79,20 81,160 82,370
83,1121 84,1732 85,9999 86,641
95,80 96,140 97,731 98,220
99,290 100,80 101,4384 102,180
103,40 109,30 110,60 111,330
112,130 113,210 118,30 119,2883
120,120 121,20 124,30 125,120
126,80 127,180 128,120 129,80
138,20 139,30 140,50 141,130
145,40 147,30 154,30 155,110
169,40 182,40 185,591 186,50
203,2112 204,210 205,20 210,40
211,320 212,60 230,20 311,30
329,220 330,40 355,70 383,70
##END=
