##TITLE=Succinic acid, 2-decyl octadecyl ester
##JCAMP-DX=4.24
##DATA TYPE=MASS SPECTRUM
##ORIGIN=L.N.Kulikova, V.G. Zaikin, RPFU, Moscow, Russia
##OWNER=NIST Mass Spectrometry Data Center
Collection (C) 2014 copyright by the U.S. Secretary of Commerce
on behalf of the United States of America. All rights reserved.
##$NIST MASS SPEC NO=349438
##MOLFORM=C32 H62 O4
##MW=510
##$NIST SOURCE=MSDC
##XUNITS=M/Z
##YUNITS=RELATIVE INTENSITY
##XFACTOR=1
##YFACTOR=1
##FIRSTX=26
##LASTX=372
##FIRSTY=90
##MAXX=372
##MINX=26
##MAXY=9999
##MINY=20
##NPOINTS=76
##PEAK TABLE=(XY..XY)
26,90 27,310 29,510 39,290
41,1521 42,581 43,2813 45,80
51,40 53,60 54,280 55,2432
56,1611 57,3773 58,130 67,460
68,470 69,2142 70,1411 71,2602
72,60 73,110 74,160 75,130
77,20 78,40 80,20 81,280
82,661 83,1942 84,771 85,2032
86,40 91,20 95,150 96,400
97,1752 98,571 99,651 100,80
101,7267 102,220 103,20 109,30
110,90 111,901 112,330 113,350
118,90 119,9999 120,340 121,20
125,260 126,70 127,280 138,20
139,60 140,681 141,691 154,20
155,190 156,80 157,320 169,180
183,120 197,70 211,20 224,30
252,80 253,1471 254,230 259,30
353,390 354,20 371,721 372,80
##END=
