##TITLE=Malonic acid, 2-hexyl nonyl ester
##JCAMP-DX=4.24
##DATA TYPE=MASS SPECTRUM
##ORIGIN=L.N.Kulikova, V.G. Zaikin, RPFU, Moscow, Russia
##OWNER=NIST Mass Spectrometry Data Center
Collection (C) 2014 copyright by the U.S. Secretary of Commerce
on behalf of the United States of America. All rights reserved.
##$NIST MASS SPEC NO=349324
##MOLFORM=C18 H34 O4
##MW=314
##$NIST SOURCE=MSDC
##XUNITS=M/Z
##YUNITS=RELATIVE INTENSITY
##XFACTOR=1
##YFACTOR=1
##FIRSTX=26
##LASTX=231
##FIRSTY=50
##MAXX=231
##MINX=26
##MAXY=9999
##MINY=10
##NPOINTS=73
##PEAK TABLE=(XY..XY)
26,50 27,340 28,260 29,651
31,20 39,260 40,70 41,1541
42,871 43,3463 44,80 45,160
53,100 54,190 55,1932 56,1712
57,2132 58,110 59,20 60,70
61,220 67,240 68,350 69,1471
70,861 71,2222 72,100 73,20
77,20 79,60 81,120 82,370
83,851 84,1812 85,2482 86,150
87,1201 88,30 95,70 96,140
97,601 98,671 99,60 100,70
101,591 102,50 103,210 104,30
105,9999 106,350 107,80 111,170
112,10 113,30 115,30 124,30
125,290 126,731 127,290 129,20
131,20 132,60 133,20 140,20
145,40 150,70 153,80 171,80
189,50 213,2793 214,340 215,20
231,180
##END=
