##TITLE=Succinic acid, 2-decyl hexadecyl ester
##JCAMP-DX=4.24
##DATA TYPE=MASS SPECTRUM
##ORIGIN=L.N.Kulikova, V.G. Zaikin, RPFU, Moscow, Russia
##OWNER=NIST Mass Spectrometry Data Center
Collection (C) 2014 copyright by the U.S. Secretary of Commerce
on behalf of the United States of America. All rights reserved.
##$NIST MASS SPEC NO=349436
##MOLFORM=C30 H58 O4
##MW=482
##$NIST SOURCE=MSDC
##XUNITS=M/Z
##YUNITS=RELATIVE INTENSITY
##XFACTOR=1
##YFACTOR=1
##FIRSTX=26
##LASTX=344
##FIRSTY=70
##MAXX=344
##MINX=26
##MAXY=9999
##MINY=10
##NPOINTS=82
##PEAK TABLE=(XY..XY)
26,70 27,230 28,180 29,460
39,240 40,60 41,1211 42,470
43,2392 44,140 45,60 53,80
54,240 55,2122 56,1391 57,3583
58,150 67,380 68,400 69,1852
70,1171 71,2532 72,90 73,100
74,200 75,160 80,10 81,250
82,631 83,1611 84,751 85,2152
86,90 91,20 95,140 96,170
97,1511 98,500 99,721 100,110
101,7577 102,300 103,40 109,40
110,110 111,851 112,330 113,440
117,20 118,110 119,9999 120,400
121,40 124,40 125,250 126,90
127,360 128,20 138,30 139,60
140,671 141,941 142,70 153,20
154,30 155,280 156,130 157,430
169,180 183,80 196,50 224,170
225,1882 226,290 241,20 259,50
268,20 324,20 325,661 326,120
343,871 344,150
##END=
