##TITLE=Succinic acid, hexadecyl 3-hexyl ester
##JCAMP-DX=4.24
##DATA TYPE=MASS SPECTRUM
##ORIGIN=L.N.Kulikova, V.G. Zaikin, RPFU, Moscow, Russia
##OWNER=NIST Mass Spectrometry Data Center
Collection (C) 2014 copyright by the U.S. Secretary of Commerce
on behalf of the United States of America. All rights reserved.
##$NIST MASS SPEC NO=349455
##MOLFORM=C26 H50 O4
##MW=426
##$NIST SOURCE=MSDC
##XUNITS=M/Z
##YUNITS=RELATIVE INTENSITY
##XFACTOR=1
##YFACTOR=1
##FIRSTX=26
##LASTX=344
##FIRSTY=40
##MAXX=344
##MINX=26
##MAXY=9999
##MINY=10
##NPOINTS=83
##PEAK TABLE=(XY..XY)
26,40 27,210 28,170 29,440
39,180 40,30 41,1091 42,470
43,2873 53,70 54,200 55,1952
56,1101 57,2783 58,120 59,40
67,310 68,330 69,1631 70,681
71,1982 72,100 73,150 74,280
75,190 81,200 82,530 83,1421
84,1271 85,2472 86,150 95,120
96,220 97,1191 98,310 99,651
100,210 101,9999 102,450 103,70
109,40 110,110 111,601 112,200
113,470 114,20 118,150 119,9449
120,430 121,70 123,10 124,60
125,280 126,130 127,410 128,20
138,40 139,100 140,90 141,390
142,20 146,20 152,20 153,40
154,60 155,340 156,20 167,20
168,30 169,220 183,90 185,170
196,100 203,190 222,20 224,200
225,1641 226,270 269,30 325,510
326,90 343,260 344,40
##END=
