##TITLE=Malonic acid, 4-methylpent-2-yl tridecyl ester
##JCAMP-DX=4.24
##DATA TYPE=MASS SPECTRUM
##ORIGIN=L.N.Kulikova, V.G. Zaikin, RPFU, Moscow, Russia
##OWNER=NIST Mass Spectrometry Data Center
Collection (C) 2014 copyright by the U.S. Secretary of Commerce
on behalf of the United States of America. All rights reserved.
##$NIST MASS SPEC NO=349341
##MOLFORM=C22 H42 O4
##MW=370
##$NIST SOURCE=MSDC
##XUNITS=M/Z
##YUNITS=RELATIVE INTENSITY
##XFACTOR=1
##YFACTOR=1
##FIRSTX=26
##LASTX=287
##FIRSTY=60
##MAXX=287
##MINX=26
##MAXY=9999
##MINY=20
##NPOINTS=85
##PEAK TABLE=(XY..XY)
26,60 27,330 28,250 29,621
30,20 39,310 40,80 41,1992
42,741 43,5345 44,60 45,110
53,110 54,270 55,2102 56,1381
57,3563 58,170 59,50 60,60
61,160 66,30 67,420 68,500
69,3253 70,1111 71,1852 72,90
73,20 79,20 80,20 81,230
82,891 83,1822 84,3183 85,6856
86,470 87,871 88,20 89,70
91,20 95,140 96,320 97,1441
98,470 99,360 100,130 101,490
102,50 103,80 104,60 105,9999
106,360 107,80 109,50 110,140
111,841 112,300 113,230 114,20
123,20 124,70 125,450 126,180
127,150 128,20 132,20 138,30
139,120 140,70 141,50 145,60
152,20 153,30 154,490 155,50
180,30 181,260 182,701 183,180
189,80 251,80 269,841 270,140
287,100
##END=
