##TITLE=Succinic acid, heptyl 2-hexyl ester
##JCAMP-DX=4.24
##DATA TYPE=MASS SPECTRUM
##ORIGIN=L.N.Kulikova, V.G. Zaikin, RPFU, Moscow, Russia
##OWNER=NIST Mass Spectrometry Data Center
Collection (C) 2014 copyright by the U.S. Secretary of Commerce
on behalf of the United States of America. All rights reserved.
##$NIST MASS SPEC NO=349555
##MOLFORM=C17 H32 O4
##MW=300
##$NIST SOURCE=MSDC
##XUNITS=M/Z
##YUNITS=RELATIVE INTENSITY
##XFACTOR=1
##YFACTOR=1
##FIRSTX=26
##LASTX=218
##FIRSTY=40
##MAXX=218
##MINX=26
##MAXY=9999
##MINY=10
##NPOINTS=51
##PEAK TABLE=(XY..XY)
26,40 27,250 29,480 39,150
40,30 41,871 42,470 43,1852
44,140 45,80 53,40 54,70
55,931 56,931 57,2983 58,130
67,50 68,80 69,490 70,380
71,80 73,140 74,410 75,250
81,20 82,10 83,120 84,681
85,811 86,50 96,20 97,100
98,310 99,751 100,180 101,9999
102,450 103,70 113,20 115,20
118,20 119,2692 120,120 172,110
173,30 185,120 199,1251 200,140
203,30 217,360 218,30
##END=
