##TITLE=Succinic acid, 2-hexyl pentadecyl ester
##JCAMP-DX=4.24
##DATA TYPE=MASS SPECTRUM
##ORIGIN=L.N.Kulikova, V.G. Zaikin, RPFU, Moscow, Russia
##OWNER=NIST Mass Spectrometry Data Center
Collection (C) 2014 copyright by the U.S. Secretary of Commerce
on behalf of the United States of America. All rights reserved.
##$NIST MASS SPEC NO=349563
##MOLFORM=C25 H48 O4
##MW=412
##$NIST SOURCE=MSDC
##XUNITS=M/Z
##YUNITS=RELATIVE INTENSITY
##XFACTOR=1
##YFACTOR=1
##FIRSTX=26
##LASTX=330
##FIRSTY=40
##MAXX=330
##MINX=26
##MAXY=9999
##MINY=10
##NPOINTS=84
##PEAK TABLE=(XY..XY)
26,40 27,210 29,450 39,180
40,40 41,1131 42,500 43,2903
44,140 45,70 53,70 54,200
55,1922 56,1181 57,2672 58,130
66,10 67,290 68,320 69,1591
70,721 71,1792 72,90 73,150
74,330 75,220 81,170 82,520
83,1401 84,1321 85,2322 86,150
95,100 96,220 97,1051 98,310
99,530 100,200 101,9999 102,460
103,80 109,40 110,100 111,530
112,200 113,390 114,30 117,20
118,150 119,9328 120,440 121,70
124,60 125,230 126,130 127,340
128,40 138,30 139,80 140,80
141,300 142,20 146,30 152,20
153,40 154,50 155,220 156,20
168,20 169,100 182,120 185,150
203,270 204,20 210,200 211,1231
212,210 227,20 255,40 310,20
311,500 312,100 329,340 330,60
##END=
