##TITLE=Succinic acid, decyl 2-ethylbutyl ester
##JCAMP-DX=4.24
##DATA TYPE=MASS SPECTRUM
##ORIGIN=L.N.Kulikova, V.G. Zaikin, RPFU, Moscow, Russia
##OWNER=NIST Mass Spectrometry Data Center
Collection (C) 2014 copyright by the U.S. Secretary of Commerce
on behalf of the United States of America. All rights reserved.
##$NIST MASS SPEC NO=349205
##MOLFORM=C20 H38 O4
##MW=342
##$NIST SOURCE=MSDC
##XUNITS=M/Z
##YUNITS=RELATIVE INTENSITY
##XFACTOR=1
##YFACTOR=1
##FIRSTX=26
##LASTX=313
##FIRSTY=30
##MAXX=313
##MINX=26
##MAXY=9999
##MINY=10
##NPOINTS=71
##PEAK TABLE=(XY..XY)
26,30 27,220 29,500 30,10
39,170 40,30 41,1121 42,460
43,3203 45,60 53,70 54,160
55,1531 56,1171 57,2072 58,90
59,20 67,190 68,200 69,1461
70,661 71,1461 72,80 73,160
74,220 75,110 81,90 82,240
83,731 84,2662 85,5765 86,390
95,40 96,110 97,420 98,170
99,390 100,80 101,9999 102,460
103,80 109,20 110,50 111,210
112,210 114,350 115,110 118,60
119,6396 120,290 121,50 128,30
129,20 132,100 133,50 138,40
140,230 141,951 142,90 146,40
155,60 185,140 203,571 204,40
214,80 241,390 242,40 243,30
259,470 260,60 313,60
##END=
