##TITLE=Succinic acid, 2,4-dimethylpent-3-yl ethyl ester
##JCAMP-DX=4.24
##DATA TYPE=MASS SPECTRUM
##ORIGIN=L.N.Kulikova, V.G. Zaikin, RPFU, Moscow, Russia
##OWNER=NIST Mass Spectrometry Data Center
Collection (C) 2014 copyright by the U.S. Secretary of Commerce
on behalf of the United States of America. All rights reserved.
##$NIST MASS SPEC NO=349081
##MOLFORM=C13 H24 O4
##MW=244
##$NIST SOURCE=MSDC
##XUNITS=M/Z
##YUNITS=RELATIVE INTENSITY
##XFACTOR=1
##YFACTOR=1
##FIRSTX=26
##LASTX=147
##FIRSTY=10
##MAXX=147
##MINX=26
##MAXY=9999
##MINY=10
##NPOINTS=39
##PEAK TABLE=(XY..XY)
26,10 27,100 29,180 31,10
39,40 41,190 42,20 43,320
45,30 53,10 55,370 56,300
57,1051 58,40 67,20 69,70
70,50 71,160 72,30 73,320
74,40 83,641 84,50 97,20
98,160 99,891 100,100 101,5345
102,370 103,30 114,170 115,711
116,40 128,40 129,9999 130,711
131,70 146,10 147,50
##END=
