##TITLE=Succinic acid, heptyl 3-heptyl ester
##JCAMP-DX=4.24
##DATA TYPE=MASS SPECTRUM
##ORIGIN=L.N.Kulikova, V.G. Zaikin, RPFU, Moscow, Russia
##OWNER=NIST Mass Spectrometry Data Center
Collection (C) 2014 copyright by the U.S. Secretary of Commerce
on behalf of the United States of America. All rights reserved.
##$NIST MASS SPEC NO=349489
##MOLFORM=C18 H34 O4
##MW=314
##$NIST SOURCE=MSDC
##XUNITS=M/Z
##YUNITS=RELATIVE INTENSITY
##XFACTOR=1
##YFACTOR=1
##FIRSTX=27
##LASTX=218
##FIRSTY=100
##MAXX=218
##MINX=27
##MAXY=9999
##MINY=20
##NPOINTS=47
##PEAK TABLE=(XY..XY)
27,100 28,110 29,270 39,80
40,20 41,661 42,220 43,641
44,50 45,50 53,30 54,60
55,561 56,781 57,3543 58,180
67,40 68,80 69,430 70,510
71,60 73,120 74,270 75,160
81,20 83,100 85,20 97,110
98,831 99,1241 100,150 101,9999
102,460 103,80 114,240 115,891
116,70 118,20 119,2462 120,110
172,100 173,20 199,2532 200,310
201,20 217,581 218,60
##END=
