##TITLE=Malonic acid, 2,4-dimethylpent-3-yl dodecyl ester
##JCAMP-DX=4.24
##DATA TYPE=MASS SPECTRUM
##ORIGIN=L.N.Kulikova, V.G. Zaikin, RPFU, Moscow, Russia
##OWNER=NIST Mass Spectrometry Data Center
Collection (C) 2014 copyright by the U.S. Secretary of Commerce
on behalf of the United States of America. All rights reserved.
##$NIST MASS SPEC NO=349018
##MOLFORM=C22 H42 O4
##MW=370
##$NIST SOURCE=MSDC
##XUNITS=M/Z
##YUNITS=RELATIVE INTENSITY
##XFACTOR=1
##YFACTOR=1
##FIRSTX=26
##LASTX=328
##FIRSTY=50
##MAXX=328
##MINX=26
##MAXY=9999
##MINY=10
##NPOINTS=101
##PEAK TABLE=(XY..XY)
26,50 27,360 28,220 29,550
31,30 39,260 40,70 41,1551
42,540 43,3143 44,300 45,50
53,90 54,190 55,1882 56,1201
57,8197 58,360 59,20 60,40
61,100 65,10 66,20 67,330
68,380 69,1331 70,901 71,2722
72,260 73,430 74,20 77,20
79,40 80,20 81,230 82,641
83,2863 84,661 85,1942 86,130
87,2242 88,70 89,120 95,140
96,320 97,1611 98,1661 99,3153
100,260 101,80 102,30 103,20
104,50 105,6786 106,260 107,60
109,70 110,140 111,1161 112,320
113,571 114,260 115,1862 116,160
123,30 124,60 125,390 126,150
127,240 128,30 129,20 130,250
131,530 132,50 133,30 138,40
139,90 140,671 141,140 142,20
145,20 159,170 166,50 167,430
168,1331 169,430 170,40 185,20
195,50 213,20 237,80 253,10
255,9999 256,1742 257,200 273,120
298,130 299,150 300,10 327,701
328,130
##END=
