##TITLE=Malonic acid, hexadecyl 3-methylpent-2-yl ester
##JCAMP-DX=4.24
##DATA TYPE=MASS SPECTRUM
##ORIGIN=L.N.Kulikova, V.G. Zaikin, RPFU, Moscow, Russia
##OWNER=NIST Mass Spectrometry Data Center
Collection (C) 2014 copyright by the U.S. Secretary of Commerce
on behalf of the United States of America. All rights reserved.
##$NIST MASS SPEC NO=349317
##MOLFORM=C25 H48 O4
##MW=412
##$NIST SOURCE=MSDC
##XUNITS=M/Z
##YUNITS=RELATIVE INTENSITY
##XFACTOR=1
##YFACTOR=1
##FIRSTX=26
##LASTX=369
##FIRSTY=40
##MAXX=369
##MINX=26
##MAXY=9999
##MINY=10
##NPOINTS=113
##PEAK TABLE=(XY..XY)
26,40 27,190 28,130 29,340
31,20 39,190 40,50 41,1171
42,350 43,2793 44,170 45,110
51,20 52,20 53,90 54,220
55,1641 56,871 57,2512 58,110
59,20 60,40 61,150 66,30
67,410 68,490 69,2272 70,921
71,1641 72,110 73,60 79,60
80,20 81,340 82,1051 83,2062
84,3143 85,7257 86,500 87,651
89,130 91,30 93,30 95,250
96,170 97,2082 98,500 99,410
100,120 101,601 102,40 103,30
104,80 105,9999 106,350 107,90
109,120 110,200 111,1341 112,410
113,290 115,60 116,50 117,30
123,50 124,130 125,731 126,270
127,200 128,20 131,10 132,100
133,90 135,20 137,30 138,80
139,340 140,230 141,100 144,110
145,170 150,20 151,20 152,50
153,210 154,150 155,80 166,20
167,110 168,110 169,50 173,40
181,40 182,40 183,20 189,50
196,490 197,40 221,20 222,30
223,360 224,841 225,200 253,20
293,871 294,150 311,1441 312,280
313,20 329,60 355,30 368,150
369,20
##END=
