##TITLE=Succinic acid, 4-methylpent-2-yl propyl ester
##JCAMP-DX=4.24
##DATA TYPE=MASS SPECTRUM
##ORIGIN=L.N.Kulikova, V.G. Zaikin, RPFU, Moscow, Russia
##OWNER=NIST Mass Spectrometry Data Center
Collection (C) 2014 copyright by the U.S. Secretary of Commerce
on behalf of the United States of America. All rights reserved.
##$NIST MASS SPEC NO=349219
##MOLFORM=C13 H24 O4
##MW=244
##$NIST SOURCE=MSDC
##XUNITS=M/Z
##YUNITS=RELATIVE INTENSITY
##XFACTOR=1
##YFACTOR=1
##FIRSTX=26
##LASTX=229
##FIRSTY=20
##MAXX=229
##MINX=26
##MAXY=9999
##MINY=10
##NPOINTS=56
##PEAK TABLE=(XY..XY)
26,20 27,340 28,130 29,320
30,10 31,30 39,180 40,40
41,851 42,300 43,2222 44,50
45,130 53,20 55,460 56,370
57,370 58,40 59,70 61,10
67,30 68,10 69,1311 70,70
71,10 73,290 74,340 75,290
83,70 84,1171 85,3653 86,250
87,10 100,180 101,9999 102,470
103,90 114,10 116,390 117,80
119,300 120,10 129,60 141,10
142,30 143,4544 144,360 145,40
158,20 160,40 161,591 162,40
174,20 185,20 201,10 229,10
##END=
