##TITLE=Malonic acid, butyl 3-heptyl ester
##JCAMP-DX=4.24
##DATA TYPE=MASS SPECTRUM
##ORIGIN=L.N.Kulikova, V.G. Zaikin, RPFU, Moscow, Russia
##OWNER=NIST Mass Spectrometry Data Center
Collection (C) 2014 copyright by the U.S. Secretary of Commerce
on behalf of the United States of America. All rights reserved.
##$NIST MASS SPEC NO=349149
##MOLFORM=C14 H26 O4
##MW=258
##$NIST SOURCE=MSDC
##XUNITS=M/Z
##YUNITS=RELATIVE INTENSITY
##XFACTOR=1
##YFACTOR=1
##FIRSTX=26
##LASTX=229
##FIRSTY=30
##MAXX=229
##MINX=26
##MAXY=9999
##MINY=20
##NPOINTS=59
##PEAK TABLE=(XY..XY)
26,30 27,300 29,1041 30,20
39,230 40,20 41,1521 42,601
43,80 53,60 54,90 55,841
56,1842 57,6396 58,180 60,150
61,60 67,30 68,60 69,120
70,450 71,40 72,90 73,60
83,460 87,3183 88,90 89,20
97,60 98,901 99,360 100,30
102,40 105,3663 106,120 107,30
114,110 115,1451 116,160 117,110
125,250 126,20 127,20 132,20
139,50 143,9999 144,751 145,110
158,150 159,20 160,30 161,761
162,60 167,80 185,290 186,30
188,30 201,120 229,120
##END=
