##TITLE=Succinic acid, butyl 3-methylbutyl ester
##JCAMP-DX=4.24
##DATA TYPE=MASS SPECTRUM
##ORIGIN=L.N.Kulikova, V.G. Zaikin, RPFU, Moscow, Russia
##OWNER=NIST Mass Spectrometry Data Center
Collection (C) 2014 copyright by the U.S. Secretary of Commerce
on behalf of the United States of America. All rights reserved.
##$NIST MASS SPEC NO=349243
##MOLFORM=C13 H24 O4
##MW=244
##$NIST SOURCE=MSDC
##XUNITS=M/Z
##YUNITS=RELATIVE INTENSITY
##XFACTOR=1
##YFACTOR=1
##FIRSTX=26
##LASTX=245
##FIRSTY=30
##MAXX=245
##MINX=26
##MAXY=9999
##MINY=10
##NPOINTS=69
##PEAK TABLE=(XY..XY)
26,30 27,330 28,300 29,751
30,30 31,30 39,200 40,40
41,1011 42,280 43,1882 44,80
45,120 53,50 54,40 55,1111
56,671 57,931 58,40 67,10
68,10 69,140 70,1571 71,5135
72,290 73,270 74,310 75,110
84,40 85,90 86,10 87,10
99,30 100,190 101,9999 102,450
103,70 114,60 115,30 116,10
118,10 119,691 120,20 127,60
128,100 129,10 130,190 131,10
143,80 144,80 145,90 155,20
156,30 157,1481 158,120 159,20
161,10 170,10 171,771 172,70
173,10 175,400 176,30 189,200
190,10 201,140 202,20 229,10
245,10
##END=
