##TITLE=Malonic acid, dodecyl 4-methylpent-2-yl ester
##JCAMP-DX=4.24
##DATA TYPE=MASS SPECTRUM
##ORIGIN=L.N.Kulikova, V.G. Zaikin, RPFU, Moscow, Russia
##OWNER=NIST Mass Spectrometry Data Center
Collection (C) 2014 copyright by the U.S. Secretary of Commerce
on behalf of the United States of America. All rights reserved.
##$NIST MASS SPEC NO=349340
##MOLFORM=C21 H40 O4
##MW=356
##$NIST SOURCE=MSDC
##XUNITS=M/Z
##YUNITS=RELATIVE INTENSITY
##XFACTOR=1
##YFACTOR=1
##FIRSTX=26
##LASTX=341
##FIRSTY=70
##MAXX=341
##MINX=26
##MAXY=9999
##MINY=10
##NPOINTS=100
##PEAK TABLE=(XY..XY)
26,70 27,380 28,300 29,751
30,20 31,20 39,350 40,90
41,2172 42,791 43,5665 44,110
45,50 51,20 53,120 54,260
55,2232 56,1561 57,3974 58,150
59,50 60,60 61,180 65,20
66,30 67,430 68,540 69,3453
70,1111 71,2102 72,100 73,20
77,20 79,40 80,20 81,230
82,851 83,1752 84,3423 85,7337
86,490 87,931 88,20 89,60
91,120 93,30 95,120 96,320
97,1451 98,500 99,460 100,130
101,520 102,50 103,80 104,70
105,9999 106,350 107,100 109,50
110,130 111,881 112,310 113,310
115,30 119,30 123,20 124,50
125,310 126,150 127,150 128,20
129,20 131,20 132,20 133,30
135,50 137,40 138,30 139,90
140,601 141,80 145,70 147,30
154,20 155,20 161,60 166,30
167,270 168,811 169,250 175,10
182,20 183,20 189,110 237,20
255,1191 256,170 273,120 341,20
##END=
