##TITLE=Succinic acid, 2-ethylbutyl tridecyl ester
##JCAMP-DX=4.24
##DATA TYPE=MASS SPECTRUM
##ORIGIN=L.N.Kulikova, V.G. Zaikin, RPFU, Moscow, Russia
##OWNER=NIST Mass Spectrometry Data Center
Collection (C) 2014 copyright by the U.S. Secretary of Commerce
on behalf of the United States of America. All rights reserved.
##$NIST MASS SPEC NO=349208
##MOLFORM=C23 H44 O4
##MW=384
##$NIST SOURCE=MSDC
##XUNITS=M/Z
##YUNITS=RELATIVE INTENSITY
##XFACTOR=1
##YFACTOR=1
##FIRSTX=26
##LASTX=355
##FIRSTY=40
##MAXX=355
##MINX=26
##MAXY=9999
##MINY=10
##NPOINTS=83
##PEAK TABLE=(XY..XY)
26,40 27,260 29,601 30,20
39,210 40,30 41,1411 42,530
43,3924 45,50 53,90 54,210
55,2112 56,1421 57,2913 58,120
59,20 67,280 68,280 69,1942
70,801 71,1842 72,90 73,170
74,230 75,110 81,140 82,380
83,1131 84,2903 85,6276 86,410
95,70 96,130 97,801 98,280
99,520 100,80 101,9999 102,450
103,80 109,20 110,70 111,390
112,170 113,420 114,330 115,150
118,120 119,8498 120,380 121,60
124,40 125,160 126,100 127,320
128,50 129,20 132,90 133,100
138,10 139,40 140,50 141,140
146,50 154,140 155,70 175,20
182,170 183,881 184,120 185,140
203,931 204,90 212,20 227,30
243,10 256,20 283,180 284,20
301,340 302,40 355,50
##END=
