##TITLE=Succinic acid, 3-ethylphenyl hexadecyl ester
##JCAMP-DX=4.24
##DATA TYPE=MASS SPECTRUM
##ORIGIN=L.N.Kulikova, V.G. Zaikin, RPFU, Moscow, Russia
##OWNER=NIST Mass Spectrometry Data Center
Collection (C) 2014 copyright by the U.S. Secretary of Commerce
on behalf of the United States of America. All rights reserved.
##$NIST MASS SPEC NO=349669
##MOLFORM=C28 H46 O4
##MW=446
##$NIST SOURCE=MSDC
##XUNITS=M/Z
##YUNITS=RELATIVE INTENSITY
##XFACTOR=1
##YFACTOR=1
##FIRSTX=26
##LASTX=346
##FIRSTY=90
##MAXX=346
##MINX=26
##MAXY=9999
##MINY=10
##NPOINTS=109
##PEAK TABLE=(XY..XY)
26,90 27,310 28,220 29,561
38,20 39,330 40,50 41,1611
42,490 43,3553 44,150 50,30
51,90 52,50 53,130 54,200
55,3533 56,1041 57,8087 58,350
63,40 65,110 66,30 67,350
68,250 69,2022 70,711 71,6926
72,370 73,130 74,40 75,30
77,591 78,190 79,250 80,30
81,210 82,280 83,1451 84,370
85,5565 86,350 91,290 92,30
93,90 94,130 95,300 96,60
97,1011 98,210 99,2092 100,260
101,9999 102,460 103,250 104,40
105,270 106,30 107,2172 108,180
109,50 110,40 111,440 112,110
113,1431 114,110 117,40 119,80
120,80 121,330 122,8988 123,2712
124,240 125,170 126,60 127,1141
128,100 132,30 135,60 139,50
140,40 141,941 142,90 149,20
153,10 154,20 155,811 156,90
169,581 170,60 176,20 177,200
178,40 183,270 184,20 196,20
205,2752 206,330 223,150 224,40
225,2532 226,450 227,20 240,10
324,20 325,1561 326,350 327,20
346,30
##END=
