##TITLE=Succinic acid, 3-ethylphenyl isohexyl ester
##JCAMP-DX=4.24
##DATA TYPE=MASS SPECTRUM
##ORIGIN=L.N.Kulikova, V.G. Zaikin, RPFU, Moscow, Russia
##OWNER=NIST Mass Spectrometry Data Center
Collection (C) 2014 copyright by the U.S. Secretary of Commerce
on behalf of the United States of America. All rights reserved.
##$NIST MASS SPEC NO=349658
##MOLFORM=C18 H26 O4
##MW=306
##$NIST SOURCE=MSDC
##XUNITS=M/Z
##YUNITS=RELATIVE INTENSITY
##XFACTOR=1
##YFACTOR=1
##FIRSTX=26
##LASTX=264
##FIRSTY=30
##MAXX=264
##MINX=26
##MAXY=9999
##MINY=20
##NPOINTS=72
##PEAK TABLE=(XY..XY)
26,30 27,210 28,80 29,200
39,170 40,30 41,671 42,310
43,3843 44,150 45,30 50,20
51,70 52,30 53,70 55,1071
56,330 57,811 58,30 63,40
64,20 65,100 66,20 67,110
69,460 70,20 73,100 77,550
78,170 79,200 81,30 83,120
84,60 85,9999 86,671 87,20
89,20 91,240 92,30 93,60
94,100 95,140 100,30 101,1852
102,100 103,190 104,30 105,210
106,20 107,1682 108,130 119,20
120,40 121,240 122,5045 123,1161
124,80 132,20 135,30 142,20
149,20 177,120 178,20 185,2512
186,280 187,20 205,1872 206,270
207,20 223,20 263,170 264,20
##END=
