##TITLE=Malonic acid, di(3-methylpent-2-yl) ester
##JCAMP-DX=4.24
##DATA TYPE=MASS SPECTRUM
##ORIGIN=L.N.Kulikova, V.G. Zaikin, RPFU, Moscow, Russia
##OWNER=NIST Mass Spectrometry Data Center
Collection (C) 2014 copyright by the U.S. Secretary of Commerce
on behalf of the United States of America. All rights reserved.
##$NIST MASS SPEC NO=349318
##MOLFORM=C15 H28 O4
##MW=272
##$NIST SOURCE=MSDC
##XUNITS=M/Z
##YUNITS=RELATIVE INTENSITY
##XFACTOR=1
##YFACTOR=1
##FIRSTX=27
##LASTX=189
##FIRSTY=170
##MAXX=189
##MINX=27
##MAXY=9999
##MINY=10
##NPOINTS=40
##PEAK TABLE=(XY..XY)
27,170 29,400 39,140 40,20
41,671 42,390 43,1852 53,50
54,20 55,280 56,130 57,550
67,20 69,550 70,20 71,20
72,30 73,30 83,40 84,1161
85,9999 86,631 87,140 101,651
102,30 105,180 111,30 116,50
126,30 127,20 131,130 132,70
133,20 144,350 145,60 157,20
171,70 173,20 188,50 189,10
##END=
