##TITLE=Malonic acid, 2-decyl pentyl ester
##JCAMP-DX=4.24
##DATA TYPE=MASS SPECTRUM
##ORIGIN=L.N.Kulikova, V.G. Zaikin, RPFU, Moscow, Russia
##OWNER=NIST Mass Spectrometry Data Center
Collection (C) 2014 copyright by the U.S. Secretary of Commerce
on behalf of the United States of America. All rights reserved.
##$NIST MASS SPEC NO=349090
##MOLFORM=C18 H34 O4
##MW=314
##$NIST SOURCE=MSDC
##XUNITS=M/Z
##YUNITS=RELATIVE INTENSITY
##XFACTOR=1
##YFACTOR=1
##FIRSTX=26
##LASTX=285
##FIRSTY=50
##MAXX=285
##MINX=26
##MAXY=9999
##MINY=20
##NPOINTS=73
##PEAK TABLE=(XY..XY)
26,50 27,360 29,761 30,20
39,260 40,50 41,1521 42,1011
43,3633 53,90 54,160 55,1812
56,1291 57,1531 58,100 59,30
60,150 61,160 67,180 68,210
69,1271 70,2172 71,3533 72,190
81,90 82,210 83,581 84,621
85,951 86,100 87,1982 88,60
89,20 95,30 96,190 97,1251
98,540 99,170 100,40 102,160
103,170 104,50 105,9999 106,340
107,80 110,40 111,571 112,280
113,60 115,70 127,20 130,40
131,80 132,20 139,80 140,911
141,721 142,70 145,30 156,220
157,6035 158,550 159,70 167,20
172,240 173,30 174,30 175,2332
176,210 201,110 209,20 227,60
285,20
##END=
