##TITLE=Malonic acid, isobutyl pentyl ester
##JCAMP-DX=4.24
##DATA TYPE=MASS SPECTRUM
##ORIGIN=L.N.Kulikova, V.G. Zaikin, RPFU, Moscow, Russia
##OWNER=NIST Mass Spectrometry Data Center
Collection (C) 2014 copyright by the U.S. Secretary of Commerce
on behalf of the United States of America. All rights reserved.
##$NIST MASS SPEC NO=349102
##MOLFORM=C12 H22 O4
##MW=230
##$NIST SOURCE=MSDC
##XUNITS=M/Z
##YUNITS=RELATIVE INTENSITY
##XFACTOR=1
##YFACTOR=1
##FIRSTX=26
##LASTX=215
##FIRSTY=30
##MAXX=215
##MINX=26
##MAXY=9999
##MINY=10
##NPOINTS=67
##PEAK TABLE=(XY..XY)
26,30 27,510 28,470 29,1171
30,30 39,380 40,70 41,1772
42,1391 43,2813 53,50 54,40
55,1141 56,1621 57,5225 58,210
60,340 61,140 67,20 68,50
69,300 70,1491 71,2632 72,190
73,180 83,110 84,60 86,40
87,2422 88,80 89,20 90,90
97,490 100,90 101,40 102,60
104,50 105,9999 106,330 107,80
111,50 112,30 113,20 114,10
117,100 118,470 119,40 127,80
129,70 130,140 131,40 132,60
143,691 144,50 145,70 147,10
157,2222 158,190 159,30 160,30
161,260 175,320 176,20 187,20
188,20 201,60 215,20
##END=
