##TITLE=Malonic acid, butyl 2-hexyl ester
##JCAMP-DX=4.24
##DATA TYPE=MASS SPECTRUM
##ORIGIN=L.N.Kulikova, V.G. Zaikin, RPFU, Moscow, Russia
##OWNER=NIST Mass Spectrometry Data Center
Collection (C) 2014 copyright by the U.S. Secretary of Commerce
on behalf of the United States of America. All rights reserved.
##$NIST MASS SPEC NO=349320
##MOLFORM=C13 H24 O4
##MW=244
##$NIST SOURCE=MSDC
##XUNITS=M/Z
##YUNITS=RELATIVE INTENSITY
##XFACTOR=1
##YFACTOR=1
##FIRSTX=26
##LASTX=187
##FIRSTY=90
##MAXX=187
##MINX=26
##MAXY=9999
##MINY=20
##NPOINTS=62
##PEAK TABLE=(XY..XY)
26,90 27,631 28,480 29,1201
30,30 31,50 39,390 40,90
41,2212 42,1141 43,2482 44,70
45,330 53,80 54,100 55,1491
56,3213 57,4784 58,240 59,40
60,440 61,190 67,40 69,711
71,80 72,70 73,140 83,450
84,1702 85,1151 86,100 87,3223
88,80 99,30 100,70 101,1101
102,90 103,90 104,40 105,5965
106,220 107,40 111,220 113,20
114,20 116,110 117,80 125,180
132,20 143,9999 144,821 145,50
153,150 158,360 159,30 160,40
161,1181 162,60 171,520 172,40
174,50 187,200
##END=
