##TITLE=Succinic acid, 2-hexyl octyl ester
##JCAMP-DX=4.24
##DATA TYPE=MASS SPECTRUM
##ORIGIN=L.N.Kulikova, V.G. Zaikin, RPFU, Moscow, Russia
##OWNER=NIST Mass Spectrometry Data Center
Collection (C) 2014 copyright by the U.S. Secretary of Commerce
on behalf of the United States of America. All rights reserved.
##$NIST MASS SPEC NO=349556
##MOLFORM=C18 H34 O4
##MW=314
##$NIST SOURCE=MSDC
##XUNITS=M/Z
##YUNITS=RELATIVE INTENSITY
##XFACTOR=1
##YFACTOR=1
##FIRSTX=26
##LASTX=232
##FIRSTY=50
##MAXX=232
##MINX=26
##MAXY=9999
##MINY=20
##NPOINTS=53
##PEAK TABLE=(XY..XY)
26,50 27,290 29,561 39,170
40,40 41,981 42,571 43,2262
44,170 45,90 53,50 54,90
55,1131 56,951 57,2242 58,160
67,90 68,120 69,731 70,440
71,1922 72,90 73,150 74,400
75,250 81,30 82,110 83,390
84,1011 85,891 86,40 97,50
100,160 101,9999 102,450 103,70
111,50 112,260 113,941 114,70
118,30 119,3563 120,150 121,20
129,20 185,110 186,110 187,30
203,40 213,1091 214,130 231,340
232,30
##END=
