##TITLE=Succinic acid, 2,3-dimethylphenyl octyl ester
##JCAMP-DX=4.24
##DATA TYPE=MASS SPECTRUM
##ORIGIN=L.N.Kulikova, V.G. Zaikin, RPFU, Moscow, Russia
##OWNER=NIST Mass Spectrometry Data Center
Collection (C) 2014 copyright by the U.S. Secretary of Commerce
on behalf of the United States of America. All rights reserved.
##$NIST MASS SPEC NO=349624
##MOLFORM=C20 H30 O4
##MW=334
##$NIST SOURCE=MSDC
##XUNITS=M/Z
##YUNITS=RELATIVE INTENSITY
##XFACTOR=1
##YFACTOR=1
##FIRSTX=27
##LASTX=215
##FIRSTY=80
##MAXX=215
##MINX=27
##MAXY=9999
##MINY=20
##NPOINTS=61
##PEAK TABLE=(XY..XY)
27,80 29,120 39,100 40,20
41,561 42,210 43,1131 44,60
51,60 52,30 53,80 55,1351
56,310 57,4334 58,200 63,20
65,90 67,70 69,360 70,110
71,4474 72,260 73,110 77,530
78,140 79,230 80,20 82,40
83,50 84,90 91,390 92,60
93,70 94,40 100,20 101,9999
102,480 103,250 104,80 105,410
106,40 107,1061 108,90 111,30
112,60 113,1021 114,80 118,20
120,30 121,591 122,7086 123,1511
124,100 135,40 177,170 178,20
205,1762 206,220 213,2512 214,330
215,30
##END=
