##TITLE=Malonic acid, butyl 4-methylpent-2-yl ester
##JCAMP-DX=4.24
##DATA TYPE=MASS SPECTRUM
##ORIGIN=L.N.Kulikova, V.G. Zaikin, RPFU, Moscow, Russia
##OWNER=NIST Mass Spectrometry Data Center
Collection (C) 2014 copyright by the U.S. Secretary of Commerce
on behalf of the United States of America. All rights reserved.
##$NIST MASS SPEC NO=349333
##MOLFORM=C13 H24 O4
##MW=244
##$NIST SOURCE=MSDC
##XUNITS=M/Z
##YUNITS=RELATIVE INTENSITY
##XFACTOR=1
##YFACTOR=1
##FIRSTX=26
##LASTX=229
##FIRSTY=60
##MAXX=229
##MINX=26
##MAXY=9999
##MINY=20
##NPOINTS=52
##PEAK TABLE=(XY..XY)
26,60 27,651 28,500 29,1261
30,50 31,60 39,470 40,100
41,2612 42,951 43,3803 53,70
54,40 55,661 56,2302 57,5195
58,240 59,110 60,460 61,220
69,3163 72,60 73,110 83,180
84,3813 85,5655 86,360 87,2772
88,90 99,20 100,300 101,1091
102,70 104,30 105,5425 106,180
107,30 116,120 117,50 143,9999
144,831 145,40 158,190 159,20
160,80 161,1121 162,70 171,110
185,40 187,210 201,40 229,20
##END=
