##TITLE=Succinic acid, 3-ethylphenyl propyl ester
##JCAMP-DX=4.24
##DATA TYPE=MASS SPECTRUM
##ORIGIN=L.N.Kulikova, V.G. Zaikin, RPFU, Moscow, Russia
##OWNER=NIST Mass Spectrometry Data Center
Collection (C) 2014 copyright by the U.S. Secretary of Commerce
on behalf of the United States of America. All rights reserved.
##$NIST MASS SPEC NO=349654
##MOLFORM=C15 H20 O4
##MW=264
##$NIST SOURCE=MSDC
##XUNITS=M/Z
##YUNITS=RELATIVE INTENSITY
##XFACTOR=1
##YFACTOR=1
##FIRSTX=27
##LASTX=264
##FIRSTY=100
##MAXX=264
##MINX=27
##MAXY=9999
##MINY=20
##NPOINTS=55
##PEAK TABLE=(XY..XY)
27,100 28,20 29,50 39,80
41,190 42,40 43,761 44,40
45,60 50,20 51,80 52,40
53,40 55,821 56,100 63,40
64,20 65,90 66,20 67,280
68,20 73,240 74,30 77,480
78,160 79,170 81,110 89,20
91,200 92,20 93,40 94,80
95,330 96,20 100,90 101,9999
102,470 103,360 104,30 105,180
107,1501 108,120 120,30 121,170
122,2452 123,450 124,20 143,3153
144,250 145,20 177,100 205,2322
206,310 207,20 264,30
##END=
