##TITLE=Succinic acid, 2-ethylbutyl hexadecyl ester
##JCAMP-DX=4.24
##DATA TYPE=MASS SPECTRUM
##ORIGIN=L.N.Kulikova, V.G. Zaikin, RPFU, Moscow, Russia
##OWNER=NIST Mass Spectrometry Data Center
Collection (C) 2014 copyright by the U.S. Secretary of Commerce
on behalf of the United States of America. All rights reserved.
##$NIST MASS SPEC NO=349211
##MOLFORM=C26 H50 O4
##MW=426
##$NIST SOURCE=MSDC
##XUNITS=M/Z
##YUNITS=RELATIVE INTENSITY
##XFACTOR=1
##YFACTOR=1
##FIRSTX=26
##LASTX=398
##FIRSTY=60
##MAXX=398
##MINX=26
##MAXY=9999
##MINY=10
##NPOINTS=115
##PEAK TABLE=(XY..XY)
26,60 27,260 29,540 30,10
39,220 40,30 41,1381 42,510
43,4284 45,30 53,90 54,260
55,2362 56,1451 57,3333 58,130
59,10 65,10 66,20 67,390
68,390 69,2222 70,831 71,2012
72,100 73,140 74,220 75,110
80,20 81,250 82,561 83,1571
84,2893 85,6906 86,450 87,10
93,10 95,140 96,180 97,1241
98,330 99,540 100,140 101,9939
102,450 103,80 109,60 110,110
111,611 112,210 113,370 114,280
115,180 116,20 117,20 118,170
119,9999 120,460 121,80 123,20
124,70 125,260 126,120 127,320
128,40 129,40 132,70 133,120
137,10 138,40 139,80 140,90
141,260 142,10 145,10 146,50
152,20 153,30 154,60 155,240
156,20 157,30 158,10 166,10
167,20 168,30 169,160 175,90
182,10 183,60 184,20 185,170
186,10 196,90 197,10 203,1351
204,130 212,20 222,20 224,130
225,821 226,150 230,10 240,20
243,10 254,20 268,10 269,20
324,30 325,130 326,10 343,340
344,60 397,70 398,10
##END=
