##TITLE=Succinic acid, 3-ethylphenyl tridecyl ester
##JCAMP-DX=4.24
##DATA TYPE=MASS SPECTRUM
##ORIGIN=L.N.Kulikova, V.G. Zaikin, RPFU, Moscow, Russia
##OWNER=NIST Mass Spectrometry Data Center
Collection (C) 2014 copyright by the U.S. Secretary of Commerce
on behalf of the United States of America. All rights reserved.
##$NIST MASS SPEC NO=349666
##MOLFORM=C25 H40 O4
##MW=404
##$NIST SOURCE=MSDC
##XUNITS=M/Z
##YUNITS=RELATIVE INTENSITY
##XFACTOR=1
##YFACTOR=1
##FIRSTX=26
##LASTX=304
##FIRSTY=70
##MAXX=304
##MINX=26
##MAXY=9999
##MINY=10
##NPOINTS=105
##PEAK TABLE=(XY..XY)
26,70 27,330 28,220 29,561
39,290 40,60 41,1441 42,470
43,3153 44,100 45,20 50,30
51,80 52,40 53,130 54,130
55,3873 56,911 57,7006 58,320
62,20 63,50 64,20 65,130
66,30 67,250 68,150 69,1431
70,540 71,5845 72,320 73,130
74,50 77,681 78,210 79,280
81,110 82,160 83,861 84,290
85,4684 86,300 89,20 90,10
91,320 92,40 93,80 94,140
95,230 96,20 97,831 98,140
99,1621 100,200 101,9999 102,480
103,310 104,40 105,350 106,40
107,2222 108,170 109,20 110,20
111,240 112,70 113,1291 114,100
117,20 119,330 120,80 121,350
122,9278 123,2562 124,210 125,100
126,50 127,991 128,80 132,30
135,50 140,10 141,480 142,40
149,20 154,70 155,20 169,20
171,30 177,280 178,40 179,20
181,40 182,40 183,2192 184,290
185,150 204,40 205,4104 206,540
223,90 283,2002 284,360 285,20
304,20
##END=
