##TITLE=Malonic acid, heptyl 2-hexyl ester
##JCAMP-DX=4.24
##DATA TYPE=MASS SPECTRUM
##ORIGIN=L.N.Kulikova, V.G. Zaikin, RPFU, Moscow, Russia
##OWNER=NIST Mass Spectrometry Data Center
Collection (C) 2014 copyright by the U.S. Secretary of Commerce
on behalf of the United States of America. All rights reserved.
##$NIST MASS SPEC NO=349322
##MOLFORM=C16 H30 O4
##MW=286
##$NIST SOURCE=MSDC
##XUNITS=M/Z
##YUNITS=RELATIVE INTENSITY
##XFACTOR=1
##YFACTOR=1
##FIRSTX=26
##LASTX=229
##FIRSTY=60
##MAXX=229
##MINX=26
##MAXY=9999
##MINY=20
##NPOINTS=63
##PEAK TABLE=(XY..XY)
26,60 27,360 28,200 29,500
39,250 40,80 41,1511 42,961
43,1892 44,90 52,20 53,100
54,180 55,1531 56,1611 57,5285
58,170 59,30 60,110 61,360
67,150 68,280 69,921 70,1131
71,110 81,90 82,60 83,220
84,1071 85,310 86,30 87,1551
88,30 95,20 96,50 97,270
98,1011 99,390 100,90 101,821
102,100 103,210 104,30 105,9999
106,320 107,70 111,130 113,40
114,20 125,300 131,20 139,20
143,30 145,30 153,30 167,20
171,100 185,4674 186,460 187,20
189,20 203,280 229,50
##END=
