##TITLE=Malonic acid, 2-decyl undecyl ester
##JCAMP-DX=4.24
##DATA TYPE=MASS SPECTRUM
##ORIGIN=L.N.Kulikova, V.G. Zaikin, RPFU, Moscow, Russia
##OWNER=NIST Mass Spectrometry Data Center
Collection (C) 2014 copyright by the U.S. Secretary of Commerce
on behalf of the United States of America. All rights reserved.
##$NIST MASS SPEC NO=349096
##MOLFORM=C24 H46 O4
##MW=398
##$NIST SOURCE=MSDC
##XUNITS=M/Z
##YUNITS=RELATIVE INTENSITY
##XFACTOR=1
##YFACTOR=1
##FIRSTX=26
##LASTX=285
##FIRSTY=40
##MAXX=285
##MINX=26
##MAXY=9999
##MINY=10
##NPOINTS=73
##PEAK TABLE=(XY..XY)
26,40 27,210 29,460 39,200
40,30 41,1241 42,581 43,2282
44,60 45,120 53,80 54,220
55,1922 56,1381 57,3073 58,170
59,20 60,40 61,90 66,20
67,290 68,380 69,1581 70,1281
71,1932 72,110 81,160 82,591
83,1331 84,871 85,1661 86,110
87,691 88,20 89,30 95,90
96,270 97,1371 98,571 99,450
100,40 102,40 103,240 104,50
105,9999 106,330 107,80 109,30
110,90 111,631 112,310 113,160
114,20 115,30 124,30 125,140
126,410 127,40 140,601 141,270
142,30 152,30 153,170 154,561
155,220 156,130 157,340 158,30
241,901 242,120 259,440 260,60
285,10
##END=
