##TITLE=Succinic acid, 3,3-dimethylbut-2-yl hexadecyl ester
##JCAMP-DX=4.24
##DATA TYPE=MASS SPECTRUM
##ORIGIN=L.N.Kulikova, V.G. Zaikin, RPFU, Moscow, Russia
##OWNER=NIST Mass Spectrometry Data Center
Collection (C) 2014 copyright by the U.S. Secretary of Commerce
on behalf of the United States of America. All rights reserved.
##$NIST MASS SPEC NO=349520
##MOLFORM=C26 H50 O4
##MW=426
##$NIST SOURCE=MSDC
##XUNITS=M/Z
##YUNITS=RELATIVE INTENSITY
##XFACTOR=1
##YFACTOR=1
##FIRSTX=26
##LASTX=412
##FIRSTY=20
##MAXX=412
##MINX=26
##MAXY=9999
##MINY=10
##NPOINTS=100
##PEAK TABLE=(XY..XY)
26,20 27,100 29,200 39,150
40,30 41,981 42,270 43,2442
44,120 45,20 53,70 54,150
55,1341 56,841 57,2893 58,120
67,270 68,290 69,1912 70,661
71,1822 72,90 73,90 74,250
75,270 79,20 81,180 82,510
83,1261 84,1682 85,7557 86,530
87,60 95,100 96,210 97,1061
98,280 99,641 100,140 101,7046
102,330 103,50 109,40 110,110
111,581 112,200 113,500 114,20
115,20 118,200 119,9999 120,460
121,80 123,20 124,60 125,280
126,130 127,430 128,210 129,150
138,40 139,100 140,100 141,410
142,30 146,60 147,90 152,20
153,50 154,70 155,350 156,20
157,30 159,20 167,20 168,40
169,260 170,20 175,90 182,10
183,110 185,30 196,140 203,50
222,30 224,360 225,1792 226,320
269,80 298,50 299,20 324,20
325,661 326,130 342,50 343,130
370,20 371,30 411,180 412,30
##END=
