##TITLE=Malonic acid, 3-heptyl tridecyl ester
##JCAMP-DX=4.24
##DATA TYPE=MASS SPECTRUM
##ORIGIN=L.N.Kulikova, V.G. Zaikin, RPFU, Moscow, Russia
##OWNER=NIST Mass Spectrometry Data Center
Collection (C) 2014 copyright by the U.S. Secretary of Commerce
on behalf of the United States of America. All rights reserved.
##$NIST MASS SPEC NO=349158
##MOLFORM=C23 H44 O4
##MW=384
##$NIST SOURCE=MSDC
##XUNITS=M/Z
##YUNITS=RELATIVE INTENSITY
##XFACTOR=1
##YFACTOR=1
##FIRSTX=26
##LASTX=288
##FIRSTY=30
##MAXX=288
##MINX=26
##MAXY=9999
##MINY=20
##NPOINTS=80
##PEAK TABLE=(XY..XY)
26,30 27,180 29,440 39,170
40,30 41,1161 42,420 43,1812
53,70 54,210 55,1651 56,1291
57,4114 58,180 60,40 61,70
66,20 67,280 68,360 69,1521
70,981 71,1591 72,110 81,190
82,601 83,1261 84,440 85,1161
86,80 87,1191 88,40 89,70
95,100 96,230 97,1171 98,1201
99,540 100,40 102,40 103,120
104,50 105,9999 106,330 107,80
109,40 110,100 111,691 112,230
113,230 114,190 115,881 116,80
117,70 123,20 124,50 125,420
126,140 127,170 128,20 138,20
139,100 140,60 141,70 145,40
153,20 154,410 155,50 180,20
181,210 182,641 183,200 184,20
185,40 203,50 251,70 269,2963
270,520 271,50 287,170 288,20
##END=
