##TITLE=Succinic acid, 3-methylbutyl undecyl ester
##JCAMP-DX=4.24
##DATA TYPE=MASS SPECTRUM
##ORIGIN=L.N.Kulikova, V.G. Zaikin, RPFU, Moscow, Russia
##OWNER=NIST Mass Spectrometry Data Center
Collection (C) 2014 copyright by the U.S. Secretary of Commerce
on behalf of the United States of America. All rights reserved.
##$NIST MASS SPEC NO=349251
##MOLFORM=C20 H38 O4
##MW=342
##$NIST SOURCE=MSDC
##XUNITS=M/Z
##YUNITS=RELATIVE INTENSITY
##XFACTOR=1
##YFACTOR=1
##FIRSTX=26
##LASTX=327
##FIRSTY=40
##MAXX=327
##MINX=26
##MAXY=9999
##MINY=10
##NPOINTS=87
##PEAK TABLE=(XY..XY)
26,40 27,320 28,270 29,691
30,20 31,10 39,260 40,50
41,1471 42,601 43,3593 44,40
45,80 53,90 54,180 55,2172
56,1011 57,2282 58,90 67,210
68,250 69,1161 70,2142 71,9999
72,540 73,180 74,160 75,70
81,80 82,230 83,671 84,400
85,1001 86,60 87,20 89,60
95,30 96,90 97,490 98,190
99,390 100,80 101,6166 102,260
103,50 110,30 111,190 112,80
113,170 114,40 115,30 118,20
119,2432 120,100 121,10 124,10
125,70 126,140 127,60 128,120
129,30 144,40 145,70 146,10
147,10 152,10 154,110 155,500
156,40 157,20 169,20 170,30
171,1371 172,120 173,10 189,1952
190,170 191,10 199,10 216,20
228,10 229,20 255,100 273,150
274,10 299,70 327,10
##END=
