##TITLE=Succinic acid, 3-ethylphenyl tetradecyl ester
##JCAMP-DX=4.24
##DATA TYPE=MASS SPECTRUM
##ORIGIN=L.N.Kulikova, V.G. Zaikin, RPFU, Moscow, Russia
##OWNER=NIST Mass Spectrometry Data Center
Collection (C) 2014 copyright by the U.S. Secretary of Commerce
on behalf of the United States of America. All rights reserved.
##$NIST MASS SPEC NO=349667
##MOLFORM=C26 H42 O4
##MW=418
##$NIST SOURCE=MSDC
##XUNITS=M/Z
##YUNITS=RELATIVE INTENSITY
##XFACTOR=1
##YFACTOR=1
##FIRSTX=26
##LASTX=318
##FIRSTY=60
##MAXX=318
##MINX=26
##MAXY=9999
##MINY=10
##NPOINTS=100
##PEAK TABLE=(XY..XY)
26,60 27,240 29,460 39,240
40,50 41,1321 42,410 43,2933
44,130 50,20 51,60 52,30
53,110 54,160 55,2472 56,881
57,6556 58,300 63,30 65,90
66,30 67,270 68,200 69,1561
70,571 71,5785 72,320 73,120
74,50 75,20 77,490 78,150
79,210 80,10 81,150 82,220
83,1071 84,330 85,4754 86,310
89,10 91,250 92,30 93,70
94,110 95,230 96,40 97,691
98,170 99,1571 100,200 101,9999
102,490 103,240 104,30 105,250
106,20 107,1902 108,160 109,40
110,40 111,310 112,100 113,1241
114,90 117,30 119,290 120,70
121,300 122,8187 123,2282 124,200
125,130 126,60 127,1051 128,80
132,20 135,70 139,30 140,30
141,791 142,70 149,30 150,50
155,370 156,30 168,50 169,30
177,170 178,30 197,2352 198,190
204,40 205,2442 206,310 223,100
297,1882 298,350 299,30 318,20
##END=
