##TITLE=Malonic acid, 2-butyl heptadecyl ester
##JCAMP-DX=4.24
##DATA TYPE=MASS SPECTRUM
##ORIGIN=L.N.Kulikova, V.G. Zaikin, RPFU, Moscow, Russia
##OWNER=NIST Mass Spectrometry Data Center
Collection (C) 2014 copyright by the U.S. Secretary of Commerce
on behalf of the United States of America. All rights reserved.
##$NIST MASS SPEC NO=349083
##MOLFORM=C24 H46 O4
##MW=398
##$NIST SOURCE=MSDC
##XUNITS=M/Z
##YUNITS=RELATIVE INTENSITY
##XFACTOR=1
##YFACTOR=1
##FIRSTX=27
##LASTX=343
##FIRSTY=20
##MAXX=343
##MINX=27
##MAXY=9999
##MINY=20
##NPOINTS=91
##PEAK TABLE=(XY..XY)
27,20 36,20 39,100 40,20
41,651 42,160 43,741 44,90
45,60 53,40 54,180 55,1231
56,831 57,2142 58,90 60,50
61,90 66,20 67,310 68,370
69,1361 70,701 71,1051 72,80
73,170 79,50 80,20 81,230
82,751 83,1732 84,601 85,831
86,50 87,821 88,20 89,60
91,20 95,180 96,260 97,1611
98,420 99,230 104,50 105,9999
106,380 107,100 109,90 110,150
111,921 112,290 113,150 115,50
116,20 117,40 123,40 124,80
125,520 126,190 127,90 132,20
137,20 138,60 139,180 140,140
141,60 143,60 147,20 152,30
153,70 154,90 155,50 161,520
162,30 166,30 167,40 168,60
169,30 173,20 181,30 182,50
183,20 196,20 210,210 237,80
238,320 239,80 307,280 308,40
325,360 326,70 343,20
##END=
