##TITLE=Succinic acid, hexyl 3-methylbutyl ester
##JCAMP-DX=4.24
##DATA TYPE=MASS SPECTRUM
##ORIGIN=L.N.Kulikova, V.G. Zaikin, RPFU, Moscow, Russia
##OWNER=NIST Mass Spectrometry Data Center
Collection (C) 2014 copyright by the U.S. Secretary of Commerce
on behalf of the United States of America. All rights reserved.
##$NIST MASS SPEC NO=349246
##MOLFORM=C15 H28 O4
##MW=272
##$NIST SOURCE=MSDC
##XUNITS=M/Z
##YUNITS=RELATIVE INTENSITY
##XFACTOR=1
##YFACTOR=1
##FIRSTX=26
##LASTX=257
##FIRSTY=20
##MAXX=257
##MINX=26
##MAXY=9999
##MINY=10
##NPOINTS=73
##PEAK TABLE=(XY..XY)
26,20 27,240 28,180 29,470
30,20 31,10 39,170 40,40
41,941 42,510 43,3173 44,90
45,90 53,60 54,80 55,1331
56,931 57,891 58,30 67,60
68,40 69,440 70,1571 71,6326
72,380 73,220 74,280 75,120
82,30 83,50 84,380 85,1371
86,90 87,20 89,20 99,60
100,150 101,9999 102,480 103,80
114,50 115,30 118,10 119,1842
120,80 127,70 128,130 129,40
144,80 145,110 146,20 147,10
155,40 157,10 158,100 159,10
170,20 171,1151 172,110 173,10
175,10 185,731 186,70 189,821
190,70 199,10 203,400 204,30
215,10 216,10 229,210 230,30
257,20
##END=
