##TITLE=Succinic acid, 3-methylbutyl tridecyl ester
##JCAMP-DX=4.24
##DATA TYPE=MASS SPECTRUM
##ORIGIN=L.N.Kulikova, V.G. Zaikin, RPFU, Moscow, Russia
##OWNER=NIST Mass Spectrometry Data Center
Collection (C) 2014 copyright by the U.S. Secretary of Commerce
on behalf of the United States of America. All rights reserved.
##$NIST MASS SPEC NO=349253
##MOLFORM=C22 H42 O4
##MW=370
##$NIST SOURCE=MSDC
##XUNITS=M/Z
##YUNITS=RELATIVE INTENSITY
##XFACTOR=1
##YFACTOR=1
##FIRSTX=26
##LASTX=371
##FIRSTY=40
##MAXX=371
##MINX=26
##MAXY=9999
##MINY=10
##NPOINTS=101
##PEAK TABLE=(XY..XY)
26,40 27,270 29,591 30,10
31,10 39,220 40,50 41,1341
42,510 43,3333 44,50 45,50
53,80 54,200 55,2082 56,861
57,1962 58,80 66,10 67,240
68,270 69,1241 70,1942 71,9999
72,540 73,150 74,140 75,50
81,120 82,270 83,861 84,370
85,861 86,50 87,20 89,60
95,50 96,110 97,601 98,210
99,310 100,60 101,5785 102,250
103,50 109,10 110,40 111,270
112,130 113,250 114,30 115,30
118,20 119,2672 120,110 121,10
124,20 125,110 126,80 127,210
128,130 129,40 138,10 139,20
140,30 141,80 144,50 145,90
146,20 147,10 154,100 155,50
157,10 169,10 170,40 171,1982
172,190 173,20 180,10 182,90
183,540 184,70 189,3433 190,330
191,30 212,20 216,40 226,10
227,20 229,20 240,10 257,10
282,20 283,110 284,10 301,210
302,30 327,120 328,10 355,40
371,10
##END=
