##TITLE=Malonic acid, decyl 2,4-dimethylpent-3-yl ester
##JCAMP-DX=4.24
##DATA TYPE=MASS SPECTRUM
##ORIGIN=L.N.Kulikova, V.G. Zaikin, RPFU, Moscow, Russia
##OWNER=NIST Mass Spectrometry Data Center
Collection (C) 2014 copyright by the U.S. Secretary of Commerce
on behalf of the United States of America. All rights reserved.
##$NIST MASS SPEC NO=349016
##MOLFORM=C20 H38 O4
##MW=342
##$NIST SOURCE=MSDC
##XUNITS=M/Z
##YUNITS=RELATIVE INTENSITY
##XFACTOR=1
##YFACTOR=1
##FIRSTX=26
##LASTX=300
##FIRSTY=40
##MAXX=300
##MINX=26
##MAXY=9999
##MINY=20
##NPOINTS=85
##PEAK TABLE=(XY..XY)
26,40 27,340 28,210 29,540
31,20 39,260 40,70 41,1521
42,571 43,3153 44,320 45,50
53,80 54,140 55,1561 56,991
57,6556 58,270 59,20 60,60
61,140 67,200 68,240 69,831
70,681 71,2102 72,190 73,290
79,30 81,120 82,310 83,1892
84,380 85,1672 86,110 87,1481
88,50 89,40 95,70 96,110
97,550 98,881 99,1702 100,130
101,50 105,2612 106,90 107,20
109,20 110,60 111,260 112,440
113,120 114,120 115,1171 116,100
125,30 129,60 130,170 131,360
132,30 133,60 138,40 139,260
140,931 141,390 142,50 155,130
159,150 167,100 169,20 172,40
173,400 174,30 185,30 209,30
227,9999 228,1531 229,180 245,100
270,100 271,140 298,20 299,711
300,130
##END=
