##TITLE=Succinic acid, 4-methylpent-2-yl tridecyl ester
##JCAMP-DX=4.24
##DATA TYPE=MASS SPECTRUM
##ORIGIN=L.N.Kulikova, V.G. Zaikin, RPFU, Moscow, Russia
##OWNER=NIST Mass Spectrometry Data Center
Collection (C) 2014 copyright by the U.S. Secretary of Commerce
on behalf of the United States of America. All rights reserved.
##$NIST MASS SPEC NO=349231
##MOLFORM=C23 H44 O4
##MW=384
##$NIST SOURCE=MSDC
##XUNITS=M/Z
##YUNITS=RELATIVE INTENSITY
##XFACTOR=1
##YFACTOR=1
##FIRSTX=26
##LASTX=370
##FIRSTY=50
##MAXX=370
##MINX=26
##MAXY=9999
##MINY=10
##NPOINTS=103
##PEAK TABLE=(XY..XY)
26,50 27,260 29,540 30,10
31,10 39,250 40,50 41,1601
42,500 43,4084 44,20 45,80
53,90 54,190 55,1752 56,1111
57,3263 58,150 59,30 66,10
67,290 68,320 69,2532 70,831
71,2012 72,100 73,170 74,320
75,260 81,140 82,460 83,1261
84,2402 85,6886 86,470 87,10
95,70 96,170 97,891 98,330
99,671 100,340 101,8448 102,400
103,70 109,20 110,90 111,460
112,190 113,581 114,40 116,10
117,10 118,130 119,9999 120,460
121,80 123,10 124,40 125,220
126,120 127,460 128,30 129,10
138,20 139,60 140,60 141,210
142,20 145,10 146,40 152,10
153,20 154,190 155,20 157,10
159,20 175,40 180,20 182,340
183,1772 184,240 185,50 197,10
199,30 203,230 204,20 212,10
226,10 227,60 243,10 256,40
257,30 282,10 283,951 284,160
285,10 300,20 301,591 302,100
341,20 369,80 370,10
##END=
