##TITLE=Succinic acid, ethyl 3-oxobut-2-yl ester
##JCAMP-DX=4.24
##DATA TYPE=MASS SPECTRUM
##ORIGIN=L.N.Kulikova, V.G. Zaikin, RPFU, Moscow, Russia
##OWNER=NIST Mass Spectrometry Data Center
Collection (C) 2014 copyright by the U.S. Secretary of Commerce
on behalf of the United States of America. All rights reserved.
##$NIST MASS SPEC NO=349578
##MOLFORM=C10 H16 O5
##MW=216
##$NIST SOURCE=MSDC
##XUNITS=M/Z
##YUNITS=RELATIVE INTENSITY
##XFACTOR=1
##YFACTOR=1
##FIRSTX=26
##LASTX=210
##FIRSTY=50
##MAXX=210
##MINX=26
##MAXY=9999
##MINY=20
##NPOINTS=38
##PEAK TABLE=(XY..XY)
26,50 27,360 28,300 29,751
31,40 39,20 41,60 42,140
43,1672 44,110 45,300 55,911
56,540 57,80 71,1672 72,80
73,731 74,130 75,20 82,20
88,20 89,30 91,20 97,20
99,30 100,110 101,9999 102,661
103,70 128,140 129,8358 130,581
131,50 171,1451 172,110 173,140
174,20 210,20
##END=
