##TITLE=Succinic acid, 2,3-dimethylphenyl nonyl ester
##JCAMP-DX=4.24
##DATA TYPE=MASS SPECTRUM
##ORIGIN=L.N.Kulikova, V.G. Zaikin, RPFU, Moscow, Russia
##OWNER=NIST Mass Spectrometry Data Center
Collection (C) 2014 copyright by the U.S. Secretary of Commerce
on behalf of the United States of America. All rights reserved.
##$NIST MASS SPEC NO=349625
##MOLFORM=C21 H32 O4
##MW=348
##$NIST SOURCE=MSDC
##XUNITS=M/Z
##YUNITS=RELATIVE INTENSITY
##XFACTOR=1
##YFACTOR=1
##FIRSTX=26
##LASTX=229
##FIRSTY=20
##MAXX=229
##MINX=26
##MAXY=9999
##MINY=20
##NPOINTS=74
##PEAK TABLE=(XY..XY)
26,20 27,170 28,100 29,250
39,130 40,20 41,571 42,200
43,1461 44,70 51,40 52,20
53,60 54,20 55,881 56,260
57,1862 58,70 65,60 67,40
69,280 70,70 71,2813 72,140
73,60 77,350 78,90 79,170
81,30 82,40 83,140 84,50
85,2252 86,140 91,350 92,50
93,60 94,30 95,20 97,60
98,70 99,50 100,20 101,8638
102,440 103,230 104,90 105,450
106,50 107,1181 108,120 109,20
117,30 118,120 119,100 120,40
121,781 122,9999 123,2272 124,180
125,40 126,70 127,1571 128,120
135,60 177,280 178,50 191,40
205,2933 206,380 223,40 227,3793
228,550 229,40
##END=
