##TITLE=Succinic acid, 3-heptyl hexadecyl ester
##JCAMP-DX=4.24
##DATA TYPE=MASS SPECTRUM
##ORIGIN=L.N.Kulikova, V.G. Zaikin, RPFU, Moscow, Russia
##OWNER=NIST Mass Spectrometry Data Center
Collection (C) 2014 copyright by the U.S. Secretary of Commerce
on behalf of the United States of America. All rights reserved.
##$NIST MASS SPEC NO=349498
##MOLFORM=C27 H52 O4
##MW=440
##$NIST SOURCE=MSDC
##XUNITS=M/Z
##YUNITS=RELATIVE INTENSITY
##XFACTOR=1
##YFACTOR=1
##FIRSTX=26
##LASTX=344
##FIRSTY=30
##MAXX=344
##MINX=26
##MAXY=9999
##MINY=10
##NPOINTS=90
##PEAK TABLE=(XY..XY)
26,30 27,180 29,410 39,160
40,30 41,1131 42,330 43,1842
45,10 53,60 54,200 55,1792
56,1281 57,4304 58,200 59,40
67,300 68,350 69,1672 70,951
71,2042 72,110 73,130 74,250
75,170 81,200 82,520 83,1421
84,460 85,1661 86,90 95,110
96,200 97,1231 98,1161 99,1161
100,190 101,9328 102,430 103,70
109,40 110,110 111,621 112,210
113,550 114,300 115,981 116,70
117,20 118,160 119,9999 120,460
121,80 124,60 125,280 126,130
127,450 128,30 138,30 139,100
140,100 141,460 142,70 146,20
152,20 153,40 154,60 155,410
156,30 167,20 168,40 169,290
170,40 183,120 196,120 199,100
217,80 222,20 224,240 225,2192
226,380 240,20 268,60 269,40
324,70 325,861 326,170 342,30
343,430 344,80
##END=
