##TITLE=Succinic acid, 2-ethylbutyl octadecyl ester
##JCAMP-DX=4.24
##DATA TYPE=MASS SPECTRUM
##ORIGIN=L.N.Kulikova, V.G. Zaikin, RPFU, Moscow, Russia
##OWNER=NIST Mass Spectrometry Data Center
Collection (C) 2014 copyright by the U.S. Secretary of Commerce
on behalf of the United States of America. All rights reserved.
##$NIST MASS SPEC NO=349213
##MOLFORM=C28 H54 O4
##MW=454
##$NIST SOURCE=MSDC
##XUNITS=M/Z
##YUNITS=RELATIVE INTENSITY
##XFACTOR=1
##YFACTOR=1
##FIRSTX=26
##LASTX=426
##FIRSTY=50
##MAXX=426
##MINX=26
##MAXY=9999
##MINY=10
##NPOINTS=128
##PEAK TABLE=(XY..XY)
26,50 27,200 29,430 30,10
39,180 40,30 41,1161 42,420
43,3743 45,20 53,80 54,240
55,2062 56,1171 57,2803 58,110
59,10 65,10 66,20 67,350
68,360 69,2042 70,761 71,1772
72,100 73,120 74,190 75,90
77,10 80,20 81,240 82,550
83,1601 84,2612 85,6426 86,410
91,10 93,10 94,10 95,160
96,190 97,1291 98,300 99,500
100,140 101,9268 102,420 103,80
109,70 110,120 111,681 112,210
113,350 114,240 115,190 116,30
117,30 118,180 119,9999 120,460
121,80 123,30 124,70 125,310
126,130 127,290 128,40 129,40
132,60 133,120 137,10 138,60
139,120 140,100 141,230 142,10
145,10 146,50 152,30 153,50
154,70 155,230 156,20 157,10
158,10 166,20 167,30 168,50
169,200 170,10 173,10 180,10
181,10 182,30 183,160 184,30
185,200 186,10 196,20 197,100
198,10 203,1672 204,170 205,10
211,40 212,30 224,70 225,10
226,30 230,10 240,30 243,10
250,20 252,110 253,761 254,170
268,30 282,10 296,10 297,40
310,10 352,50 353,110 354,10
371,330 372,60 425,70 426,10
##END=
