##TITLE=Succinic acid, butyl 3-hexyl ester
##JCAMP-DX=4.24
##DATA TYPE=MASS SPECTRUM
##ORIGIN=L.N.Kulikova, V.G. Zaikin, RPFU, Moscow, Russia
##OWNER=NIST Mass Spectrometry Data Center
Collection (C) 2014 copyright by the U.S. Secretary of Commerce
on behalf of the United States of America. All rights reserved.
##$NIST MASS SPEC NO=349443
##MOLFORM=C14 H26 O4
##MW=258
##$NIST SOURCE=MSDC
##XUNITS=M/Z
##YUNITS=RELATIVE INTENSITY
##XFACTOR=1
##YFACTOR=1
##FIRSTX=26
##LASTX=185
##FIRSTY=20
##MAXX=185
##MINX=26
##MAXY=9999
##MINY=20
##NPOINTS=41
##PEAK TABLE=(XY..XY)
26,20 27,170 28,150 29,390
31,20 39,80 41,500 42,140
43,731 44,30 45,60 53,20
54,20 55,370 56,510 57,681
58,30 59,40 69,120 71,40
72,20 73,170 74,260 75,90
84,350 85,561 86,30 100,170
101,9999 102,440 103,90 119,420
130,170 131,30 157,2652 158,240
159,20 174,20 175,330 176,20
185,130
##END=
