##TITLE=Succinic acid, dodecyl 3-methylbutyl ester
##JCAMP-DX=4.24
##DATA TYPE=MASS SPECTRUM
##ORIGIN=L.N.Kulikova, V.G. Zaikin, RPFU, Moscow, Russia
##OWNER=NIST Mass Spectrometry Data Center
Collection (C) 2014 copyright by the U.S. Secretary of Commerce
on behalf of the United States of America. All rights reserved.
##$NIST MASS SPEC NO=349252
##MOLFORM=C21 H40 O4
##MW=356
##$NIST SOURCE=MSDC
##XUNITS=M/Z
##YUNITS=RELATIVE INTENSITY
##XFACTOR=1
##YFACTOR=1
##FIRSTX=26
##LASTX=357
##FIRSTY=40
##MAXX=357
##MINX=26
##MAXY=9999
##MINY=10
##NPOINTS=103
##PEAK TABLE=(XY..XY)
26,40 27,270 28,240 29,611
30,10 31,10 39,230 40,50
41,1411 42,530 43,3413 44,40
45,70 53,90 54,200 55,2112
56,951 57,2502 58,110 66,10
67,240 68,280 69,1311 70,2052
71,9999 72,550 73,180 74,160
75,60 81,110 82,270 83,881
84,430 85,961 86,60 87,20
89,60 95,40 96,100 97,621
98,250 99,390 100,80 101,7006
102,320 103,60 109,10 110,50
111,290 112,140 113,320 114,40
115,30 118,30 119,3253 120,140
121,20 124,10 125,90 126,70
127,150 128,150 129,50 138,10
139,20 140,130 141,20 144,50
145,100 146,20 147,20 154,10
155,50 166,10 168,120 169,591
170,90 171,2002 172,190 173,30
176,10 183,50 189,3303 190,320
191,30 212,10 213,20 215,10
216,40 226,10 229,30 242,10
257,10 268,20 269,150 270,10
283,10 287,260 288,30 313,150
314,20 341,50 357,30
##END=
