##TITLE=Succinic acid, 2-ethylbutyl pentadecyl ester
##JCAMP-DX=4.24
##DATA TYPE=MASS SPECTRUM
##ORIGIN=L.N.Kulikova, V.G. Zaikin, RPFU, Moscow, Russia
##OWNER=NIST Mass Spectrometry Data Center
Collection (C) 2014 copyright by the U.S. Secretary of Commerce
on behalf of the United States of America. All rights reserved.
##$NIST MASS SPEC NO=349210
##MOLFORM=C25 H48 O4
##MW=412
##$NIST SOURCE=MSDC
##XUNITS=M/Z
##YUNITS=RELATIVE INTENSITY
##XFACTOR=1
##YFACTOR=1
##FIRSTX=26
##LASTX=383
##FIRSTY=40
##MAXX=383
##MINX=26
##MAXY=9999
##MINY=10
##NPOINTS=113
##PEAK TABLE=(XY..XY)
26,40 27,240 29,561 30,10
31,10 39,210 40,30 41,1411
42,510 43,4164 45,50 53,90
54,240 55,2182 56,1351 57,3003
58,130 59,20 65,10 66,10
67,320 68,330 69,2122 70,811
71,1882 72,100 73,150 74,230
75,100 80,10 81,180 82,470
83,1411 84,2903 85,6556 86,440
87,10 95,100 96,160 97,1051
98,300 99,510 100,100 101,9999
102,440 103,80 109,40 110,100
111,510 112,190 113,360 114,290
115,170 116,20 117,10 118,150
119,9378 120,420 121,80 123,10
124,50 125,220 126,120 127,320
128,50 129,30 132,80 133,100
138,30 139,70 140,90 141,270
142,20 145,10 146,50 152,20
153,30 154,50 155,210 156,20
157,10 158,10 159,10 166,10
167,10 168,20 169,90 173,10
175,30 182,100 183,10 184,20
185,150 186,10 198,10 203,1111
204,110 210,130 211,741 212,120
226,20 230,20 240,20 243,10
254,20 255,30 268,10 310,20
311,120 312,10 329,280 330,50
383,50
##END=
