##TITLE=Succinic acid, butyl 2-heptyl ester
##JCAMP-DX=4.24
##DATA TYPE=MASS SPECTRUM
##ORIGIN=L.N.Kulikova, V.G. Zaikin, RPFU, Moscow, Russia
##OWNER=NIST Mass Spectrometry Data Center
Collection (C) 2014 copyright by the U.S. Secretary of Commerce
on behalf of the United States of America. All rights reserved.
##$NIST MASS SPEC NO=349465
##MOLFORM=C15 H28 O4
##MW=272
##$NIST SOURCE=MSDC
##XUNITS=M/Z
##YUNITS=RELATIVE INTENSITY
##XFACTOR=1
##YFACTOR=1
##FIRSTX=26
##LASTX=199
##FIRSTY=20
##MAXX=199
##MINX=26
##MAXY=9999
##MINY=20
##NPOINTS=48
##PEAK TABLE=(XY..XY)
26,20 27,200 28,210 29,530
39,120 40,20 41,801 42,150
43,440 44,30 45,70 53,30
54,40 55,530 56,931 57,1992
58,90 68,20 69,260 70,260
71,50 72,20 73,210 74,400
75,150 83,50 97,20 98,480
99,430 100,150 101,9999 102,440
103,100 114,120 115,410 116,20
119,661 120,20 130,270 131,40
157,3203 158,280 159,30 172,20
174,30 175,591 176,40 199,90
##END=
