##TITLE=Succinic acid, 4-heptyl propyl ester
##JCAMP-DX=4.24
##DATA TYPE=MASS SPECTRUM
##ORIGIN=L.N.Kulikova, V.G. Zaikin, RPFU, Moscow, Russia
##OWNER=NIST Mass Spectrometry Data Center
Collection (C) 2014 copyright by the U.S. Secretary of Commerce
on behalf of the United States of America. All rights reserved.
##$NIST MASS SPEC NO=349264
##MOLFORM=C14 H26 O4
##MW=258
##$NIST SOURCE=MSDC
##XUNITS=M/Z
##YUNITS=RELATIVE INTENSITY
##XFACTOR=1
##YFACTOR=1
##FIRSTX=26
##LASTX=199
##FIRSTY=20
##MAXX=199
##MINX=26
##MAXY=9999
##MINY=10
##NPOINTS=51
##PEAK TABLE=(XY..XY)
26,20 27,290 28,120 29,310
30,10 31,40 39,110 40,20
41,621 42,170 43,951 44,110
45,90 53,10 54,30 55,420
56,550 57,1111 58,50 59,30
67,10 68,20 69,260 70,220
71,70 72,20 73,220 74,200
75,140 83,30 84,10 98,370
99,480 100,130 101,9999 102,440
103,80 114,210 115,791 116,190
117,10 119,70 131,10 142,10
143,4654 144,350 145,30 160,10
161,350 162,20 199,70
##END=
