##TITLE=Malonic acid, isobutyl octyl ester
##JCAMP-DX=4.24
##DATA TYPE=MASS SPECTRUM
##ORIGIN=L.N.Kulikova, V.G. Zaikin, RPFU, Moscow, Russia
##OWNER=NIST Mass Spectrometry Data Center
Collection (C) 2014 copyright by the U.S. Secretary of Commerce
on behalf of the United States of America. All rights reserved.
##$NIST MASS SPEC NO=349104
##MOLFORM=C15 H28 O4
##MW=272
##$NIST SOURCE=MSDC
##XUNITS=M/Z
##YUNITS=RELATIVE INTENSITY
##XFACTOR=1
##YFACTOR=1
##FIRSTX=27
##LASTX=257
##FIRSTY=110
##MAXX=257
##MINX=27
##MAXY=9999
##MINY=20
##NPOINTS=62
##PEAK TABLE=(XY..XY)
27,110 29,380 30,30 39,170
40,40 41,1231 42,601 43,971
53,50 54,120 55,1151 56,1611
57,6065 58,240 60,110 61,80
67,140 68,230 69,931 70,931
71,1752 72,130 73,80 81,60
82,180 83,761 84,641 87,1321
88,40 89,20 90,30 97,110
100,40 101,40 104,30 105,9999
106,370 107,70 110,20 111,130
112,350 113,210 114,30 115,20
118,280 119,20 125,30 127,50
130,50 131,40 132,50 139,90
143,260 144,20 145,60 161,811
162,60 199,881 200,100 201,60
217,100 257,30
##END=
