##TITLE=Succinic acid, 2-hexyl propyl ester
##JCAMP-DX=4.24
##DATA TYPE=MASS SPECTRUM
##ORIGIN=L.N.Kulikova, V.G. Zaikin, RPFU, Moscow, Russia
##OWNER=NIST Mass Spectrometry Data Center
Collection (C) 2014 copyright by the U.S. Secretary of Commerce
on behalf of the United States of America. All rights reserved.
##$NIST MASS SPEC NO=349549
##MOLFORM=C13 H24 O4
##MW=244
##$NIST SOURCE=MSDC
##XUNITS=M/Z
##YUNITS=RELATIVE INTENSITY
##XFACTOR=1
##YFACTOR=1
##FIRSTX=26
##LASTX=185
##FIRSTY=30
##MAXX=185
##MINX=26
##MAXY=9999
##MINY=20
##NPOINTS=47
##PEAK TABLE=(XY..XY)
26,30 27,270 28,120 29,310
31,30 39,110 40,20 41,530
42,300 43,1541 44,110 45,120
53,20 54,20 55,530 56,500
57,200 58,30 59,40 67,20
69,230 73,220 74,330 75,240
83,30 84,480 85,771 86,50
97,20 100,220 101,9999 102,450
103,80 116,260 117,40 119,260
129,40 142,20 143,3483 144,270
145,30 158,20 160,20 161,400
162,20 174,20 185,120
##END=
