##TITLE=Succinic acid, 2,3-dimethylphenyl hexadecyl ester
##JCAMP-DX=4.24
##DATA TYPE=MASS SPECTRUM
##ORIGIN=L.N.Kulikova, V.G. Zaikin, RPFU, Moscow, Russia
##OWNER=NIST Mass Spectrometry Data Center
Collection (C) 2014 copyright by the U.S. Secretary of Commerce
on behalf of the United States of America. All rights reserved.
##$NIST MASS SPEC NO=349631
##MOLFORM=C28 H46 O4
##MW=446
##$NIST SOURCE=MSDC
##XUNITS=M/Z
##YUNITS=RELATIVE INTENSITY
##XFACTOR=1
##YFACTOR=1
##FIRSTX=26
##LASTX=327
##FIRSTY=70
##MAXX=327
##MINX=26
##MAXY=9999
##MINY=10
##NPOINTS=101
##PEAK TABLE=(XY..XY)
26,70 27,260 29,490 38,20
39,270 40,50 41,1401 42,420
43,3123 44,140 50,20 51,80
52,40 53,130 54,200 55,3003
56,981 57,7487 58,320 65,100
66,20 67,340 68,250 69,1922
70,681 71,6486 72,340 73,110
74,30 75,20 77,540 78,150
79,300 80,40 81,220 82,290
83,1391 84,370 85,5285 86,320
91,460 92,70 93,90 94,50
95,140 96,250 97,1001 98,210
99,1952 100,190 101,9539 102,430
103,220 104,100 105,490 106,50
107,1301 108,120 109,50 110,50
111,430 112,110 113,1351 114,80
117,30 118,70 119,260 120,40
121,791 122,9999 123,2873 124,230
125,170 126,50 127,1091 128,70
135,90 139,40 140,30 141,951
142,70 149,40 154,20 155,791
156,60 169,561 170,40 176,20
177,280 178,30 183,240 196,20
205,2752 206,330 223,130 224,10
225,2432 226,430 325,1922 326,390
327,20
##END=
