##TITLE=Succinic acid, 4-heptyl hexyl ester
##JCAMP-DX=4.24
##DATA TYPE=MASS SPECTRUM
##ORIGIN=L.N.Kulikova, V.G. Zaikin, RPFU, Moscow, Russia
##OWNER=NIST Mass Spectrometry Data Center
Collection (C) 2014 copyright by the U.S. Secretary of Commerce
on behalf of the United States of America. All rights reserved.
##$NIST MASS SPEC NO=349269
##MOLFORM=C17 H32 O4
##MW=300
##$NIST SOURCE=MSDC
##XUNITS=M/Z
##YUNITS=RELATIVE INTENSITY
##XFACTOR=1
##YFACTOR=1
##FIRSTX=27
##LASTX=204
##FIRSTY=30
##MAXX=204
##MINX=27
##MAXY=9999
##MINY=10
##NPOINTS=54
##PEAK TABLE=(XY..XY)
27,30 28,20 29,60 39,60
40,10 41,430 42,170 43,1081
44,80 45,50 53,20 54,40
55,510 56,651 57,1171 58,50
67,40 68,30 69,350 70,230
71,90 72,20 73,160 74,240
75,140 81,10 82,20 83,120
84,230 85,1481 86,100 97,10
98,480 99,210 100,80 101,9999
102,480 103,80 114,210 115,881
116,70 118,10 119,1461 120,70
128,10 158,90 159,30 185,2292
186,260 187,20 199,30 200,10
203,390 204,40
##END=
