##TITLE=Succinic acid, 3,5-dichlorophenyl dodecyl ester
##JCAMP-DX=4.24
##DATA TYPE=MASS SPECTRUM
##ORIGIN=L.N.Kulikova, V.G. Zaikin, RPFU, Moscow, Russia
##OWNER=NIST Mass Spectrometry Data Center
Collection (C) 2014 copyright by the U.S. Secretary of Commerce
on behalf of the United States of America. All rights reserved.
##$NIST MASS SPEC NO=349729
##MOLFORM=C22 H32 Cl2 O4
##MW=430
##$NIST SOURCE=MSDC
##XUNITS=M/Z
##YUNITS=RELATIVE INTENSITY
##XFACTOR=1
##YFACTOR=1
##FIRSTX=26
##LASTX=271
##FIRSTY=50
##MAXX=271
##MINX=26
##MAXY=9999
##MINY=20
##NPOINTS=87
##PEAK TABLE=(XY..XY)
26,50 27,240 29,550 38,20
39,180 41,1381 42,450 43,2983
44,30 45,20 49,20 50,20
53,70 54,130 55,2312 56,901
57,6456 58,270 61,20 62,50
63,190 67,190 68,160 69,1231
70,571 71,4634 72,250 73,190
74,50 75,50 81,70 82,110
83,721 84,300 85,3593 86,240
91,20 95,30 96,20 97,460
98,250 99,1561 100,210 101,9999
102,440 103,70 109,60 110,70
111,200 112,80 113,941 114,80
125,50 126,80 127,430 128,80
133,190 134,30 135,120 136,20
137,20 140,70 145,270 146,20
149,20 161,40 162,2973 163,510
164,1892 165,310 166,330 167,40
168,50 169,1702 170,50 172,20
175,30 245,1141 246,120 247,731
248,80 249,110 263,90 265,60
269,1361 270,230 271,20
##END=
