##TITLE=Succinic acid, ethyl 2-hexyl ester
##JCAMP-DX=4.24
##DATA TYPE=MASS SPECTRUM
##ORIGIN=L.N.Kulikova, V.G. Zaikin, RPFU, Moscow, Russia
##OWNER=NIST Mass Spectrometry Data Center
Collection (C) 2014 copyright by the U.S. Secretary of Commerce
on behalf of the United States of America. All rights reserved.
##$NIST MASS SPEC NO=349548
##MOLFORM=C12 H22 O4
##MW=230
##$NIST SOURCE=MSDC
##XUNITS=M/Z
##YUNITS=RELATIVE INTENSITY
##XFACTOR=1
##YFACTOR=1
##FIRSTX=26
##LASTX=185
##FIRSTY=50
##MAXX=185
##MINX=26
##MAXY=9999
##MINY=20
##NPOINTS=44
##PEAK TABLE=(XY..XY)
26,50 27,420 28,350 29,871
30,20 31,40 39,130 40,20
41,581 42,380 43,1641 44,190
45,290 53,30 54,30 55,901
56,691 57,320 58,40 59,20
67,20 69,330 70,20 73,480
74,290 75,70 83,20 84,721
85,881 86,50 100,270 101,9509
102,1081 103,130 128,130 129,9999
130,661 131,80 144,40 146,50
147,611 148,30 160,50 185,50
##END=
