##TITLE=Succinic acid, 3-ethylphenyl heptyl ester
##JCAMP-DX=4.24
##DATA TYPE=MASS SPECTRUM
##ORIGIN=L.N.Kulikova, V.G. Zaikin, RPFU, Moscow, Russia
##OWNER=NIST Mass Spectrometry Data Center
Collection (C) 2014 copyright by the U.S. Secretary of Commerce
on behalf of the United States of America. All rights reserved.
##$NIST MASS SPEC NO=349660
##MOLFORM=C19 H28 O4
##MW=320
##$NIST SOURCE=MSDC
##XUNITS=M/Z
##YUNITS=RELATIVE INTENSITY
##XFACTOR=1
##YFACTOR=1
##FIRSTX=27
##LASTX=206
##FIRSTY=70
##MAXX=206
##MINX=27
##MAXY=9999
##MINY=20
##NPOINTS=63
##PEAK TABLE=(XY..XY)
27,70 28,70 29,170 39,140
40,20 41,611 42,180 43,841
44,50 45,30 51,50 52,30
53,60 54,20 55,1211 56,310
57,5315 58,250 63,30 65,80
67,90 68,20 69,150 70,120
71,70 73,110 77,450 78,140
79,170 81,40 83,50 89,20
91,210 92,20 93,50 94,90
95,140 97,50 98,70 99,751
100,110 101,9999 102,470 103,220
104,30 105,190 106,20 107,1551
108,120 119,20 120,30 121,220
122,4774 123,991 124,70 135,20
177,100 178,20 199,2192 200,270
201,20 205,1692 206,220
##END=
