##TITLE=Malonic acid, 3-heptyl isobutyl ester
##JCAMP-DX=4.24
##DATA TYPE=MASS SPECTRUM
##ORIGIN=L.N.Kulikova, V.G. Zaikin, RPFU, Moscow, Russia
##OWNER=NIST Mass Spectrometry Data Center
Collection (C) 2014 copyright by the U.S. Secretary of Commerce
on behalf of the United States of America. All rights reserved.
##$NIST MASS SPEC NO=349148
##MOLFORM=C14 H26 O4
##MW=258
##$NIST SOURCE=MSDC
##XUNITS=M/Z
##YUNITS=RELATIVE INTENSITY
##XFACTOR=1
##YFACTOR=1
##FIRSTX=26
##LASTX=229
##FIRSTY=20
##MAXX=229
##MINX=26
##MAXY=9999
##MINY=10
##NPOINTS=64
##PEAK TABLE=(XY..XY)
26,20 27,250 29,661 39,260
40,30 41,1511 42,671 43,350
53,60 54,80 55,771 56,1742
57,9999 58,350 60,160 61,20
67,30 68,50 69,210 70,460
71,120 72,110 73,170 83,561
87,2853 88,80 89,20 90,30
97,70 98,901 99,611 100,120
101,30 102,100 105,3423 106,110
107,30 113,10 114,100 115,1431
116,150 117,140 118,260 119,20
125,571 126,40 127,60 130,50
131,20 132,30 139,110 143,8207
144,651 145,210 158,140 159,30
160,40 161,350 162,20 167,160
185,550 186,60 201,120 229,130
##END=
