##TITLE=Succinic acid, heptadecyl 3-heptyl ester
##JCAMP-DX=4.24
##DATA TYPE=MASS SPECTRUM
##ORIGIN=L.N.Kulikova, V.G. Zaikin, RPFU, Moscow, Russia
##OWNER=NIST Mass Spectrometry Data Center
Collection (C) 2014 copyright by the U.S. Secretary of Commerce
on behalf of the United States of America. All rights reserved.
##$NIST MASS SPEC NO=349499
##MOLFORM=C28 H54 O4
##MW=454
##$NIST SOURCE=MSDC
##XUNITS=M/Z
##YUNITS=RELATIVE INTENSITY
##XFACTOR=1
##YFACTOR=1
##FIRSTX=26
##LASTX=358
##FIRSTY=50
##MAXX=358
##MINX=26
##MAXY=9999
##MINY=20
##NPOINTS=93
##PEAK TABLE=(XY..XY)
26,50 27,220 29,490 39,190
40,40 41,1251 42,360 43,2042
44,90 53,70 54,230 55,1902
56,1381 57,4514 58,200 59,40
67,350 68,380 69,1792 70,971
71,2152 72,100 73,140 74,230
75,160 81,240 82,591 83,1521
84,490 85,1702 86,90 95,140
96,250 97,1321 98,1121 99,1121
100,190 101,9048 102,400 103,60
109,50 110,110 111,681 112,210
113,530 114,260 115,871 116,60
117,20 118,160 119,9999 120,430
121,70 123,20 124,60 125,300
126,120 127,410 128,30 138,40
139,110 140,90 141,390 142,20
146,30 152,20 153,50 154,60
155,370 156,30 167,20 168,30
169,330 170,20 182,20 183,220
197,80 199,80 210,90 211,20
217,70 238,190 239,1962 240,340
241,20 259,20 283,20 338,20
339,661 340,120 356,20 357,370
358,60
##END=
