##TITLE=Succinic acid, 4-heptyl nonadecyl ester
##JCAMP-DX=4.24
##DATA TYPE=MASS SPECTRUM
##ORIGIN=L.N.Kulikova, V.G. Zaikin, RPFU, Moscow, Russia
##OWNER=NIST Mass Spectrometry Data Center
Collection (C) 2014 copyright by the U.S. Secretary of Commerce
on behalf of the United States of America. All rights reserved.
##$NIST MASS SPEC NO=349281
##MOLFORM=C30 H58 O4
##MW=482
##$NIST SOURCE=MSDC
##XUNITS=M/Z
##YUNITS=RELATIVE INTENSITY
##XFACTOR=1
##YFACTOR=1
##FIRSTX=26
##LASTX=386
##FIRSTY=70
##MAXX=386
##MINX=26
##MAXY=9999
##MINY=10
##NPOINTS=113
##PEAK TABLE=(XY..XY)
26,70 27,290 29,470 39,260
40,40 41,1431 42,400 43,2302
44,50 45,10 51,10 53,80
54,270 55,2142 56,1491 57,4584
58,180 66,20 67,410 68,450
69,1972 70,1041 71,2242 72,120
73,150 74,220 75,160 77,20
79,20 80,20 81,290 82,631
83,1702 84,470 85,1541 86,80
91,20 93,10 94,10 95,180
96,240 97,1451 98,1171 99,1071
100,180 101,8458 102,360 103,60
104,10 109,70 110,120 111,751
112,210 113,460 114,260 115,981
116,60 117,20 118,170 119,9999
120,430 121,70 123,30 124,70
125,330 126,130 127,390 128,20
129,20 137,10 138,40 139,130
140,70 141,310 142,10 146,10
152,20 153,60 154,50 155,270
156,10 166,10 167,30 168,30
169,250 170,10 171,10 181,10
182,30 183,230 184,10 189,10
196,10 197,180 198,10 199,80
211,120 212,10 217,50 225,40
238,70 264,10 266,160 267,1722
268,330 269,10 311,20 366,20
367,470 368,90 384,30 385,230
386,30
##END=
