##TITLE=Malonic acid, 2-heptyl pentadecyl ester
##JCAMP-DX=4.24
##DATA TYPE=MASS SPECTRUM
##ORIGIN=L.N.Kulikova, V.G. Zaikin, RPFU, Moscow, Russia
##OWNER=NIST Mass Spectrometry Data Center
Collection (C) 2014 copyright by the U.S. Secretary of Commerce
on behalf of the United States of America. All rights reserved.
##$NIST MASS SPEC NO=349144
##MOLFORM=C25 H48 O4
##MW=412
##$NIST SOURCE=MSDC
##XUNITS=M/Z
##YUNITS=RELATIVE INTENSITY
##XFACTOR=1
##YFACTOR=1
##FIRSTX=26
##LASTX=316
##FIRSTY=20
##MAXX=316
##MINX=26
##MAXY=9999
##MINY=10
##NPOINTS=84
##PEAK TABLE=(XY..XY)
26,20 27,100 29,240 39,110
40,20 41,781 42,290 43,1311
44,50 45,120 53,50 54,170
55,1401 56,1091 57,3083 58,150
60,30 61,80 66,20 67,250
68,350 69,1401 70,871 71,1131
72,60 81,190 82,621 83,1421
84,460 85,761 86,50 87,621
88,10 89,60 95,120 96,280
97,1221 98,1151 99,420 100,30
102,30 103,160 104,50 105,9999
106,340 107,90 109,50 110,110
111,691 112,220 113,160 114,90
115,330 116,30 123,20 124,60
125,410 126,160 127,120 138,40
139,180 140,110 141,80 152,20
153,90 154,70 155,50 159,20
167,40 168,30 169,20 182,300
183,50 185,20 203,80 209,150
210,450 211,130 279,240 280,40
297,651 298,120 315,130 316,20
##END=
