##TITLE=Malonic acid, 2-hexyl isobutyl ester
##JCAMP-DX=4.24
##DATA TYPE=MASS SPECTRUM
##ORIGIN=L.N.Kulikova, V.G. Zaikin, RPFU, Moscow, Russia
##OWNER=NIST Mass Spectrometry Data Center
Collection (C) 2014 copyright by the U.S. Secretary of Commerce
on behalf of the United States of America. All rights reserved.
##$NIST MASS SPEC NO=349319
##MOLFORM=C13 H24 O4
##MW=244
##$NIST SOURCE=MSDC
##XUNITS=M/Z
##YUNITS=RELATIVE INTENSITY
##XFACTOR=1
##YFACTOR=1
##FIRSTX=27
##LASTX=187
##FIRSTY=601
##MAXX=187
##MINX=27
##MAXY=9999
##MINY=20
##NPOINTS=67
##PEAK TABLE=(XY..XY)
27,601 28,390 29,981 30,40
31,60 37,40 39,480 40,110
41,2372 42,1421 43,3423 44,330
45,270 53,90 54,80 55,1461
56,3213 57,9509 58,430 59,90
60,380 67,40 69,460 71,160
72,130 73,370 83,701 84,1732
85,2492 86,170 87,3513 88,100
89,30 90,40 100,130 101,1441
102,270 105,6856 106,240 107,30
111,861 112,80 113,50 114,20
116,60 117,150 118,530 119,50
125,671 126,40 127,100 130,30
131,140 132,60 143,9999 144,741
145,230 153,440 154,20 157,20
158,380 159,60 160,70 161,470
171,1161 172,80 187,190
##END=
