##TITLE=Succinic acid, 2-hexyl octadecyl ester
##JCAMP-DX=4.24
##DATA TYPE=MASS SPECTRUM
##ORIGIN=L.N.Kulikova, V.G. Zaikin, RPFU, Moscow, Russia
##OWNER=NIST Mass Spectrometry Data Center
Collection (C) 2014 copyright by the U.S. Secretary of Commerce
on behalf of the United States of America. All rights reserved.
##$NIST MASS SPEC NO=349566
##MOLFORM=C28 H54 O4
##MW=454
##$NIST SOURCE=MSDC
##XUNITS=M/Z
##YUNITS=RELATIVE INTENSITY
##XFACTOR=1
##YFACTOR=1
##FIRSTX=26
##LASTX=372
##FIRSTY=50
##MAXX=372
##MINX=26
##MAXY=9999
##MINY=10
##NPOINTS=99
##PEAK TABLE=(XY..XY)
26,50 27,210 29,400 39,200
40,40 41,1051 42,480 43,2752
44,170 45,60 53,70 54,220
55,1892 56,1101 57,2582 58,130
66,20 67,350 68,360 69,1621
70,691 71,1692 72,80 73,120
74,280 75,200 79,30 80,20
81,240 82,591 83,1571 84,1221
85,2112 86,120 95,150 96,270
97,1301 98,310 99,500 100,200
101,8958 102,410 103,70 109,60
110,120 111,681 112,210 113,360
114,20 116,20 117,30 118,190
119,9999 120,460 121,80 123,30
124,70 125,320 126,130 127,290
128,40 129,20 138,50 139,120
140,100 141,240 142,10 146,30
152,30 153,60 154,60 155,210
166,20 167,30 168,50 169,200
181,20 182,30 183,170 185,150
196,20 197,110 203,350 204,30
211,50 212,20 224,90 240,20
250,30 252,170 253,1241 254,250
297,40 352,30 353,350 354,60
370,20 371,290 372,60
##END=
