##TITLE=Succinic acid, ethyl 2-heptyl ester
##JCAMP-DX=4.24
##DATA TYPE=MASS SPECTRUM
##ORIGIN=L.N.Kulikova, V.G. Zaikin, RPFU, Moscow, Russia
##OWNER=NIST Mass Spectrometry Data Center
Collection (C) 2014 copyright by the U.S. Secretary of Commerce
on behalf of the United States of America. All rights reserved.
##$NIST MASS SPEC NO=349462
##MOLFORM=C13 H24 O4
##MW=244
##$NIST SOURCE=MSDC
##XUNITS=M/Z
##YUNITS=RELATIVE INTENSITY
##XFACTOR=1
##YFACTOR=1
##FIRSTX=26
##LASTX=199
##FIRSTY=30
##MAXX=199
##MINX=26
##MAXY=9999
##MINY=20
##NPOINTS=47
##PEAK TABLE=(XY..XY)
26,30 27,280 28,260 29,661
31,20 39,110 40,20 41,621
42,190 43,530 44,40 45,180
53,30 54,50 55,691 56,821
57,1521 58,80 59,20 67,20
68,30 69,380 70,360 71,50
73,400 74,220 75,50 83,70
97,30 98,601 99,410 100,120
101,7116 102,851 103,90 114,180
115,701 116,50 128,110 129,9999
130,671 131,80 144,50 146,50
147,781 148,40 199,30
##END=
