##TITLE=Malonic acid, hexyl isobutyl ester
##JCAMP-DX=4.24
##DATA TYPE=MASS SPECTRUM
##ORIGIN=L.N.Kulikova, V.G. Zaikin, RPFU, Moscow, Russia
##OWNER=NIST Mass Spectrometry Data Center
Collection (C) 2014 copyright by the U.S. Secretary of Commerce
on behalf of the United States of America. All rights reserved.
##$NIST MASS SPEC NO=349103
##MOLFORM=C13 H24 O4
##MW=244
##$NIST SOURCE=MSDC
##XUNITS=M/Z
##YUNITS=RELATIVE INTENSITY
##XFACTOR=1
##YFACTOR=1
##FIRSTX=26
##LASTX=229
##FIRSTY=80
##MAXX=229
##MINX=26
##MAXY=9999
##MINY=20
##NPOINTS=78
##PEAK TABLE=(XY..XY)
26,80 27,260 29,571 39,250
40,40 41,851 42,430 43,1331
49,30 50,210 51,330 52,801
53,130 54,60 55,651 56,1401
57,3073 58,90 60,90 61,40
67,100 69,300 70,30 71,160
72,60 73,70 75,20 76,20
78,150 79,1291 80,80 81,20
82,290 83,360 84,1702 85,1712
86,130 87,1792 88,70 89,20
90,120 99,50 100,100 101,140
102,20 104,30 105,9999 106,360
107,90 111,340 112,40 113,20
114,20 117,60 118,561 119,50
125,150 127,70 129,80 130,80
131,40 132,70 143,601 144,60
145,70 153,30 159,20 160,20
161,470 162,30 171,1732 172,170
187,20 189,220 190,20 201,70
202,20 229,30
##END=
