##TITLE=Malonic acid, 3-heptyl hexadecyl ester
##JCAMP-DX=4.24
##DATA TYPE=MASS SPECTRUM
##ORIGIN=L.N.Kulikova, V.G. Zaikin, RPFU, Moscow, Russia
##OWNER=NIST Mass Spectrometry Data Center
Collection (C) 2014 copyright by the U.S. Secretary of Commerce
on behalf of the United States of America. All rights reserved.
##$NIST MASS SPEC NO=349161
##MOLFORM=C26 H50 O4
##MW=426
##$NIST SOURCE=MSDC
##XUNITS=M/Z
##YUNITS=RELATIVE INTENSITY
##XFACTOR=1
##YFACTOR=1
##FIRSTX=26
##LASTX=330
##FIRSTY=30
##MAXX=330
##MINX=26
##MAXY=9999
##MINY=20
##NPOINTS=100
##PEAK TABLE=(XY..XY)
26,30 27,140 28,120 29,310
31,20 39,140 40,40 41,891
42,280 43,1411 44,120 53,60
54,190 55,1441 56,1041 57,2973
58,150 59,120 60,30 61,90
66,20 67,310 68,400 69,1621
70,891 71,1331 72,90 73,30
79,20 80,30 81,240 82,731
83,1631 84,530 85,1021 86,70
87,921 88,30 89,80 91,20
95,170 96,350 97,1581 98,1161
99,460 100,30 102,30 103,110
104,60 105,9999 106,350 107,90
109,90 110,160 111,931 112,290
113,220 114,180 115,691 116,70
117,60 123,50 124,100 125,550
126,200 127,170 128,20 137,20
138,60 139,250 140,160 141,120
142,20 145,40 150,20 152,40
153,130 154,90 155,90 167,100
168,80 169,50 181,30 182,40
183,30 185,40 196,380 197,70
203,70 222,30 223,150 224,611
225,190 293,350 294,60 311,2722
312,561 313,60 329,120 330,20
##END=
