##TITLE=Succinic acid, 2-ethylbutyl hexyl ester
##JCAMP-DX=4.24
##DATA TYPE=MASS SPECTRUM
##ORIGIN=L.N.Kulikova, V.G. Zaikin, RPFU, Moscow, Russia
##OWNER=NIST Mass Spectrometry Data Center
Collection (C) 2014 copyright by the U.S. Secretary of Commerce
on behalf of the United States of America. All rights reserved.
##$NIST MASS SPEC NO=349201
##MOLFORM=C16 H30 O4
##MW=286
##$NIST SOURCE=MSDC
##XUNITS=M/Z
##YUNITS=RELATIVE INTENSITY
##XFACTOR=1
##YFACTOR=1
##FIRSTX=26
##LASTX=257
##FIRSTY=20
##MAXX=257
##MINX=26
##MAXY=9999
##MINY=10
##NPOINTS=49
##PEAK TABLE=(XY..XY)
26,20 27,250 29,440 30,20
31,20 39,150 40,20 41,841
42,410 43,3153 44,10 45,80
53,50 54,70 55,851 56,1031
57,520 58,20 59,20 67,40
69,841 70,50 71,40 73,170
74,250 75,130 83,100 84,1992
85,3783 86,250 100,80 101,9999
102,430 103,80 114,290 115,60
118,20 119,2232 120,100 132,50
155,40 158,170 159,30 185,851
186,80 203,490 204,50 216,30
257,40
##END=
