##TITLE=Succinic acid, docosyl hexyl ester
##JCAMP-DX=4.24
##DATA TYPE=MASS SPECTRUM
##ORIGIN=L.N.Kulikova, V.G. Zaikin, RPFU, Moscow, Russia
##OWNER=NIST Mass Spectrometry Data Center
Collection (C) 2014 copyright by the U.S. Secretary of Commerce
on behalf of the United States of America. All rights reserved.
##$NIST MASS SPEC NO=349577
##MOLFORM=C32 H62 O4
##MW=510
##$NIST SOURCE=MSDC
##XUNITS=M/Z
##YUNITS=RELATIVE INTENSITY
##XFACTOR=1
##YFACTOR=1
##FIRSTX=26
##LASTX=428
##FIRSTY=50
##MAXX=428
##MINX=26
##MAXY=9999
##MINY=20
##NPOINTS=98
##PEAK TABLE=(XY..XY)
26,50 27,180 29,310 39,170
40,30 41,901 42,350 43,2542
44,110 53,50 54,220 55,1591
56,901 57,2272 58,80 66,20
67,330 68,330 69,1331 70,530
71,1241 72,50 73,100 74,140
75,80 79,40 80,20 81,260
82,490 83,1301 84,550 85,2562
86,150 91,20 95,180 96,190
97,1031 98,250 99,300 100,110
101,9999 102,430 103,80 109,70
110,100 111,520 112,130 113,190
115,30 117,40 118,40 119,3253
120,120 121,20 123,30 124,50
125,210 126,70 127,150 128,30
129,30 137,20 138,30 139,70
140,70 141,140 142,20 149,170
152,20 153,50 154,50 155,100
167,30 168,20 169,90 170,70
183,80 185,1722 186,160 197,60
203,4174 204,420 205,30 211,40
212,20 225,50 226,20 230,20
239,30 240,20 254,20 293,20
309,380 310,90 408,40 409,40
427,180 428,30
##END=
