##TITLE=Succinic acid, butyl docosyl ester
##JCAMP-DX=4.24
##DATA TYPE=MASS SPECTRUM
##ORIGIN=L.N.Kulikova, V.G. Zaikin, RPFU, Moscow, Russia
##OWNER=NIST Mass Spectrometry Data Center
Collection (C) 2014 copyright by the U.S. Secretary of Commerce
on behalf of the United States of America. All rights reserved.
##$NIST MASS SPEC NO=349574
##MOLFORM=C30 H58 O4
##MW=482
##$NIST SOURCE=MSDC
##XUNITS=M/Z
##YUNITS=RELATIVE INTENSITY
##XFACTOR=1
##YFACTOR=1
##FIRSTX=26
##LASTX=427
##FIRSTY=40
##MAXX=427
##MINX=26
##MAXY=9999
##MINY=20
##NPOINTS=95
##PEAK TABLE=(XY..XY)
26,40 27,150 29,380 39,130
40,30 41,861 42,220 43,1351
44,70 53,40 54,190 55,1341
56,791 57,2382 58,100 67,280
68,280 69,1101 70,460 71,1021
72,60 73,120 74,160 75,130
79,30 80,20 81,220 82,360
83,1091 84,290 85,681 86,30
95,140 96,210 97,861 98,180
99,220 100,160 101,9999 102,460
103,80 109,60 110,80 111,440
112,120 113,150 117,30 118,20
119,1211 120,50 123,30 124,40
125,180 126,70 127,110 128,30
129,30 130,50 138,30 139,70
140,50 141,90 149,210 150,20
153,20 154,40 155,90 156,90
157,4104 158,360 159,40 168,20
169,50 174,40 175,4844 176,430
177,40 183,60 197,50 202,50
211,50 212,30 225,40 226,30
239,30 240,20 253,30 254,30
267,20 268,20 309,340 310,90
408,50 409,40 427,50
##END=
