##TITLE=Succinic acid, heptyl 4-heptyl ester
##JCAMP-DX=4.24
##DATA TYPE=MASS SPECTRUM
##ORIGIN=L.N.Kulikova, V.G. Zaikin, RPFU, Moscow, Russia
##OWNER=NIST Mass Spectrometry Data Center
Collection (C) 2014 copyright by the U.S. Secretary of Commerce
on behalf of the United States of America. All rights reserved.
##$NIST MASS SPEC NO=349270
##MOLFORM=C18 H34 O4
##MW=314
##$NIST SOURCE=MSDC
##XUNITS=M/Z
##YUNITS=RELATIVE INTENSITY
##XFACTOR=1
##YFACTOR=1
##FIRSTX=26
##LASTX=218
##FIRSTY=20
##MAXX=218
##MINX=26
##MAXY=9999
##MINY=10
##NPOINTS=66
##PEAK TABLE=(XY..XY)
26,20 27,200 28,140 29,360
31,20 39,100 40,20 41,731
42,240 43,781 44,80 45,40
53,30 54,60 55,681 56,721
57,3283 58,150 67,70 68,120
69,500 70,530 71,170 72,30
73,130 74,240 75,140 81,70
82,110 83,180 84,20 85,30
95,50 96,110 97,190 98,901
99,1411 100,200 101,9999 102,470
103,70 109,20 110,20 111,40
112,10 113,20 114,260 115,1061
116,80 118,20 119,2372 120,100
121,10 123,10 124,10 125,10
127,10 128,10 159,10 172,90
173,10 199,2442 200,300 201,20
217,440 218,40
##END=
