##TITLE=Succinic acid, 3-ethylphenyl pentadecyl ester
##JCAMP-DX=4.24
##DATA TYPE=MASS SPECTRUM
##ORIGIN=L.N.Kulikova, V.G. Zaikin, RPFU, Moscow, Russia
##OWNER=NIST Mass Spectrometry Data Center
Collection (C) 2014 copyright by the U.S. Secretary of Commerce
on behalf of the United States of America. All rights reserved.
##$NIST MASS SPEC NO=349668
##MOLFORM=C27 H44 O4
##MW=432
##$NIST SOURCE=MSDC
##XUNITS=M/Z
##YUNITS=RELATIVE INTENSITY
##XFACTOR=1
##YFACTOR=1
##FIRSTX=26
##LASTX=332
##FIRSTY=80
##MAXX=332
##MINX=26
##MAXY=9999
##MINY=20
##NPOINTS=102
##PEAK TABLE=(XY..XY)
26,80 27,330 29,601 39,320
40,60 41,1661 42,490 43,3653
44,170 50,30 51,80 52,40
53,130 54,200 55,3383 56,1071
57,7987 58,350 63,40 65,110
66,30 67,320 68,230 69,1932
70,671 71,6846 72,370 73,130
74,40 75,20 77,581 78,180
79,250 80,20 81,180 82,250
83,1311 84,370 85,5595 86,350
91,300 92,30 93,80 94,140
95,270 96,50 97,861 98,200
99,1922 100,220 101,9999 102,460
103,280 104,30 105,280 106,30
107,2232 108,190 109,40 110,40
111,370 112,110 113,1371 114,100
117,30 119,80 120,80 121,340
122,9128 123,2662 124,220 125,140
126,60 127,1141 128,90 132,20
135,60 139,40 140,30 141,951
142,80 149,20 154,20 155,701
156,60 169,320 170,20 177,200
178,30 182,40 204,30 205,2742
206,340 210,20 211,2462 212,400
223,120 310,20 311,1732 312,340
313,20 332,20
##END=
