##TITLE=Succinic acid, 2-heptyl pentyl ester
##JCAMP-DX=4.24
##DATA TYPE=MASS SPECTRUM
##ORIGIN=L.N.Kulikova, V.G. Zaikin, RPFU, Moscow, Russia
##OWNER=NIST Mass Spectrometry Data Center
Collection (C) 2014 copyright by the U.S. Secretary of Commerce
on behalf of the United States of America. All rights reserved.
##$NIST MASS SPEC NO=349466
##MOLFORM=C16 H30 O4
##MW=286
##$NIST SOURCE=MSDC
##XUNITS=M/Z
##YUNITS=RELATIVE INTENSITY
##XFACTOR=1
##YFACTOR=1
##FIRSTX=26
##LASTX=199
##FIRSTY=30
##MAXX=199
##MINX=26
##MAXY=9999
##MINY=20
##NPOINTS=52
##PEAK TABLE=(XY..XY)
26,30 27,210 28,170 29,440
39,120 40,20 41,691 42,360
43,1421 44,150 45,60 53,30
54,50 55,641 56,651 57,1491
58,80 67,30 68,40 69,370
70,671 71,951 72,40 73,160
74,440 75,220 83,40 87,30
97,20 98,520 99,480 100,170
101,9999 102,450 103,100 114,110
115,410 116,20 118,20 119,1441
120,50 143,30 144,170 145,40
171,2482 172,240 173,20 186,20
188,20 189,571 190,40 199,110
##END=
