##TITLE=Succinic acid, 3-methylpentyl nonyl ester
##JCAMP-DX=4.24
##DATA TYPE=MASS SPECTRUM
##ORIGIN=L.N.Kulikova, V.G. Zaikin, RPFU, Moscow, Russia
##OWNER=NIST Mass Spectrometry Data Center
Collection (C) 2014 copyright by the U.S. Secretary of Commerce
on behalf of the United States of America. All rights reserved.
##$NIST MASS SPEC NO=349535
##MOLFORM=C19 H36 O4
##MW=328
##$NIST SOURCE=MSDC
##XUNITS=M/Z
##YUNITS=RELATIVE INTENSITY
##XFACTOR=1
##YFACTOR=1
##FIRSTX=26
##LASTX=299
##FIRSTY=70
##MAXX=299
##MINX=26
##MAXY=9999
##MINY=20
##NPOINTS=71
##PEAK TABLE=(XY..XY)
26,70 27,320 29,771 31,20
39,230 40,50 41,1531 42,520
43,4144 44,210 45,30 53,90
54,180 55,2112 56,1702 57,2422
58,90 67,220 68,220 69,2122
70,881 71,1972 72,90 73,170
74,160 75,110 79,20 81,80
82,220 83,671 84,2362 85,9999
86,681 95,40 96,60 97,380
98,250 99,100 100,110 101,7186
102,310 103,50 111,70 112,20
119,3153 120,130 124,20 125,30
126,170 127,641 128,190 129,90
140,50 141,80 145,90 146,20
147,20 155,60 185,561 186,50
200,20 203,1461 204,130 227,220
228,20 243,20 245,520 246,60
271,140 272,20 299,100
##END=
