##TITLE=Malonic acid, 4-methylpent-2-yl undecyl ester
##JCAMP-DX=4.24
##DATA TYPE=MASS SPECTRUM
##ORIGIN=L.N.Kulikova, V.G. Zaikin, RPFU, Moscow, Russia
##OWNER=NIST Mass Spectrometry Data Center
Collection (C) 2014 copyright by the U.S. Secretary of Commerce
on behalf of the United States of America. All rights reserved.
##$NIST MASS SPEC NO=349339
##MOLFORM=C20 H38 O4
##MW=342
##$NIST SOURCE=MSDC
##XUNITS=M/Z
##YUNITS=RELATIVE INTENSITY
##XFACTOR=1
##YFACTOR=1
##FIRSTX=26
##LASTX=327
##FIRSTY=20
##MAXX=327
##MINX=26
##MAXY=9999
##MINY=10
##NPOINTS=89
##PEAK TABLE=(XY..XY)
26,20 27,180 28,150 29,390
31,20 39,250 40,60 41,1722
42,691 43,4424 44,60 45,120
53,100 54,210 55,1942 56,1411
57,3613 58,160 59,50 60,70
61,180 66,20 67,340 68,420
69,2993 70,1051 71,1892 72,100
79,20 81,170 82,671 83,1451
84,3423 85,7377 86,490 87,1011
88,30 89,50 91,40 95,100
96,230 97,1341 98,420 99,450
100,150 101,591 102,60 103,100
104,60 105,9999 106,350 107,90
109,40 110,70 111,540 112,220
113,210 114,20 115,20 124,50
125,210 126,631 127,100 128,20
129,20 131,20 132,20 133,20
135,50 137,50 140,20 142,60
145,80 152,30 153,250 154,871
155,300 156,20 161,40 171,10
173,20 181,20 189,80 241,1661
242,240 243,20 259,150 299,20
327,20
##END=
