##TITLE=Succinic acid, 2,3-dimethylphenyl tridecyl ester
##JCAMP-DX=4.24
##DATA TYPE=MASS SPECTRUM
##ORIGIN=L.N.Kulikova, V.G. Zaikin, RPFU, Moscow, Russia
##OWNER=NIST Mass Spectrometry Data Center
Collection (C) 2014 copyright by the U.S. Secretary of Commerce
on behalf of the United States of America. All rights reserved.
##$NIST MASS SPEC NO=349628
##MOLFORM=C25 H40 O4
##MW=404
##$NIST SOURCE=MSDC
##XUNITS=M/Z
##YUNITS=RELATIVE INTENSITY
##XFACTOR=1
##YFACTOR=1
##FIRSTX=26
##LASTX=285
##FIRSTY=50
##MAXX=285
##MINX=26
##MAXY=9999
##MINY=10
##NPOINTS=102
##PEAK TABLE=(XY..XY)
26,50 27,210 29,390 39,170
40,30 41,991 42,290 43,2052
44,70 50,20 51,50 52,20
53,100 54,100 55,2032 56,631
57,5155 58,230 63,20 65,70
66,20 67,220 68,140 69,1131
70,450 71,4644 72,250 73,100
74,30 77,460 78,120 79,240
80,30 81,130 82,190 83,831
84,280 85,3843 86,240 91,470
92,70 93,80 94,40 95,100
97,581 98,160 99,1441 100,150
101,9078 102,440 103,220 104,100
105,500 106,50 107,1191 108,110
109,40 110,40 111,280 112,90
113,1241 114,70 117,90 118,410
119,290 120,50 121,761 122,9999
123,2602 124,200 125,120 126,50
127,971 128,70 129,120 133,20
135,90 139,30 140,20 141,450
142,20 147,50 149,50 154,60
155,10 159,20 161,40 162,20
169,20 175,30 176,20 177,280
178,50 182,30 183,2242 184,310
205,2963 206,370 223,100 283,2823
284,500 285,40
##END=
