##TITLE=Succinic acid, 3-methylbutyl octadecyl ester
##JCAMP-DX=4.24
##DATA TYPE=MASS SPECTRUM
##ORIGIN=L.N.Kulikova, V.G. Zaikin, RPFU, Moscow, Russia
##OWNER=NIST Mass Spectrometry Data Center
Collection (C) 2014 copyright by the U.S. Secretary of Commerce
on behalf of the United States of America. All rights reserved.
##$NIST MASS SPEC NO=349258
##MOLFORM=C27 H52 O4
##MW=440
##$NIST SOURCE=MSDC
##XUNITS=M/Z
##YUNITS=RELATIVE INTENSITY
##XFACTOR=1
##YFACTOR=1
##FIRSTX=26
##LASTX=426
##FIRSTY=40
##MAXX=426
##MINX=26
##MAXY=9999
##MINY=10
##NPOINTS=126
##PEAK TABLE=(XY..XY)
26,40 27,190 29,420 30,10
39,180 40,30 41,1061 42,380
43,2953 44,10 45,30 53,60
54,220 55,1872 56,701 57,2042
58,90 66,10 67,290 68,320
69,1381 70,1621 71,9999 72,550
73,100 74,110 75,50 80,10
81,190 82,370 83,1181 84,270
85,661 86,40 87,10 89,70
95,120 96,150 97,941 98,230
99,290 100,70 101,4724 102,210
103,40 109,50 110,80 111,450
112,140 113,210 114,20 115,30
116,10 117,20 118,40 119,2492
120,100 121,20 123,20 124,50
125,190 126,90 127,170 128,100
129,60 137,10 138,30 139,70
140,70 141,140 142,10 144,50
145,60 146,10 147,20 152,20
153,30 154,50 155,140 156,20
166,20 167,10 168,30 169,120
170,60 171,2572 172,240 173,40
180,10 182,20 183,100 188,10
189,4954 190,510 191,30 196,10
197,60 198,10 211,30 212,30
216,50 224,40 225,10 226,30
229,20 240,30 250,10 252,40
253,460 254,110 257,20 267,10
268,30 282,10 296,10 297,30
310,10 313,10 352,50 353,60
371,190 372,40 397,130 398,20
425,70 426,10
##END=
