##TITLE=Malonic acid, 2,4-dimethylpent-3-yl octadecyl ester
##JCAMP-DX=4.24
##DATA TYPE=MASS SPECTRUM
##ORIGIN=L.N.Kulikova, V.G. Zaikin, RPFU, Moscow, Russia
##OWNER=NIST Mass Spectrometry Data Center
Collection (C) 2014 copyright by the U.S. Secretary of Commerce
on behalf of the United States of America. All rights reserved.
##$NIST MASS SPEC NO=349024
##MOLFORM=C28 H54 O4
##MW=454
##$NIST SOURCE=MSDC
##XUNITS=M/Z
##YUNITS=RELATIVE INTENSITY
##XFACTOR=1
##YFACTOR=1
##FIRSTX=26
##LASTX=412
##FIRSTY=30
##MAXX=412
##MINX=26
##MAXY=9999
##MINY=10
##NPOINTS=135
##PEAK TABLE=(XY..XY)
26,30 27,180 28,110 29,280
31,20 39,250 40,70 41,1221
42,370 43,2642 44,300 45,40
51,20 52,20 53,100 54,230
55,2112 56,1261 57,7857 58,350
59,20 60,30 61,90 65,20
66,30 67,460 68,530 69,1782
70,971 71,2272 72,220 73,611
74,20 77,30 78,20 79,70
80,40 81,380 82,1041 83,3323
84,731 85,1611 86,100 87,1541
88,40 89,180 91,40 93,40
94,30 95,290 96,370 97,2152
98,1752 99,2722 100,220 101,60
102,40 103,70 104,70 105,9999
106,360 107,110 109,150 110,220
111,1341 112,350 113,400 114,200
115,1161 116,100 118,20 119,20
121,20 123,90 124,130 125,761
126,240 127,250 128,30 129,20
130,190 131,360 132,40 133,20
135,30 137,20 138,110 139,400
140,180 141,260 142,30 145,20
147,20 151,20 152,60 153,210
154,140 155,140 159,90 165,10
166,50 167,160 168,120 169,130
180,20 181,100 182,80 183,80
191,20 194,20 195,50 196,50
197,30 203,10 207,140 208,20
209,50 210,20 224,420 225,50
250,40 251,130 252,781 253,420
254,20 321,761 322,160 339,5065
340,1151 341,130 357,80 382,110
383,80 411,390 412,90
##END=
