##TITLE=Malonic acid, hexyl 3-hexyl ester
##JCAMP-DX=4.24
##DATA TYPE=MASS SPECTRUM
##ORIGIN=L.N.Kulikova, V.G. Zaikin, RPFU, Moscow, Russia
##OWNER=NIST Mass Spectrometry Data Center
Collection (C) 2014 copyright by the U.S. Secretary of Commerce
on behalf of the United States of America. All rights reserved.
##$NIST MASS SPEC NO=349122
##MOLFORM=C15 H28 O4
##MW=272
##$NIST SOURCE=MSDC
##XUNITS=M/Z
##YUNITS=RELATIVE INTENSITY
##XFACTOR=1
##YFACTOR=1
##FIRSTX=26
##LASTX=243
##FIRSTY=80
##MAXX=243
##MINX=26
##MAXY=9999
##MINY=20
##NPOINTS=76
##PEAK TABLE=(XY..XY)
26,80 27,691 28,420 29,1061
30,40 31,150 36,50 37,20
38,20 39,380 40,90 41,2112
42,1381 43,6286 44,290 45,80
50,20 51,40 52,30 53,160
54,190 55,2412 56,2552 57,1551
58,110 59,410 60,130 61,420
67,220 68,100 69,1271 70,130
71,310 72,80 73,190 80,20
81,50 82,250 83,550 84,3333
85,6206 86,390 87,3433 88,100
95,20 96,20 97,30 99,40
100,240 101,1882 102,110 104,20
105,9929 106,330 107,60 111,1011
112,70 113,20 115,40 116,20
117,120 118,50 125,270 127,20
129,80 130,20 131,70 133,20
141,20 153,170 171,9999 172,931
173,60 189,380 229,60 243,40
##END=
