##TITLE=Malonic acid, 2-butyl octyl ester
##JCAMP-DX=4.24
##DATA TYPE=MASS SPECTRUM
##ORIGIN=L.N.Kulikova, V.G. Zaikin, RPFU, Moscow, Russia
##OWNER=NIST Mass Spectrometry Data Center
Collection (C) 2014 copyright by the U.S. Secretary of Commerce
on behalf of the United States of America. All rights reserved.
##$NIST MASS SPEC NO=349073
##MOLFORM=C15 H28 O4
##MW=272
##$NIST SOURCE=MSDC
##XUNITS=M/Z
##YUNITS=RELATIVE INTENSITY
##XFACTOR=1
##YFACTOR=1
##FIRSTX=26
##LASTX=217
##FIRSTY=50
##MAXX=217
##MINX=26
##MAXY=9999
##MINY=20
##NPOINTS=66
##PEAK TABLE=(XY..XY)
26,50 27,290 28,350 29,891
31,20 37,30 39,250 40,50
41,1611 42,701 43,1071 44,160
45,70 53,70 54,140 55,1201
56,1732 57,4014 58,160 59,20
60,130 61,240 67,160 68,270
69,1031 70,1011 71,2312 72,160
73,400 79,30 81,80 82,240
83,881 84,911 85,30 86,20
87,1722 88,50 89,20 95,20
97,100 99,20 101,30 102,20
104,20 105,9999 106,350 107,80
110,40 111,220 112,661 113,240
114,20 115,20 116,20 117,100
125,200 127,20 132,20 139,100
143,120 161,170 199,2172 200,250
201,50 217,90
##END=
