##TITLE=Succinic acid, heptyl 2-methylpent-3-yl ester
##JCAMP-DX=4.24
##DATA TYPE=MASS SPECTRUM
##ORIGIN=L.N.Kulikova, V.G. Zaikin, RPFU, Moscow, Russia
##OWNER=NIST Mass Spectrometry Data Center
Collection (C) 2014 copyright by the U.S. Secretary of Commerce
on behalf of the United States of America. All rights reserved.
##$NIST MASS SPEC NO=349387
##MOLFORM=C17 H32 O4
##MW=300
##$NIST SOURCE=MSDC
##XUNITS=M/Z
##YUNITS=RELATIVE INTENSITY
##XFACTOR=1
##YFACTOR=1
##FIRSTX=26
##LASTX=217
##FIRSTY=30
##MAXX=217
##MINX=26
##MAXY=9999
##MINY=10
##NPOINTS=47
##PEAK TABLE=(XY..XY)
26,30 27,220 29,430 31,20
39,160 40,20 41,961 42,330
43,2072 45,30 53,40 54,40
55,721 56,681 57,3833 58,150
59,40 67,50 68,70 69,971
70,380 71,90 73,150 74,280
75,200 81,10 82,10 83,110
84,1161 85,3513 86,190 97,100
98,300 99,1091 100,320 101,9999
102,440 103,50 115,10 119,2062
120,50 128,10 172,80 185,10
199,2032 200,180 217,140
##END=
