##TITLE=Succinic acid, 4-biphenyl butyl ester
##JCAMP-DX=4.24
##DATA TYPE=MASS SPECTRUM
##ORIGIN=L.N.Kulikova, V.G. Zaikin, RPFU, Moscow, Russia
##OWNER=NIST Mass Spectrometry Data Center
Collection (C) 2014 copyright by the U.S. Secretary of Commerce
on behalf of the United States of America. All rights reserved.
##$NIST MASS SPEC NO=349690
##MOLFORM=C20 H22 O4
##MW=326
##$NIST SOURCE=MSDC
##XUNITS=M/Z
##YUNITS=RELATIVE INTENSITY
##XFACTOR=1
##YFACTOR=1
##FIRSTX=26
##LASTX=327
##FIRSTY=20
##MAXX=327
##MINX=26
##MAXY=9999
##MINY=20
##NPOINTS=59
##PEAK TABLE=(XY..XY)
26,20 27,90 29,300 39,60
41,310 44,20 51,30 55,591
56,110 57,711 58,20 63,60
65,20 73,110 75,20 76,240
77,250 85,30 89,50 91,20
97,60 99,70 100,50 101,5785
102,310 103,50 113,20 114,30
115,440 116,50 124,20 126,20
127,180 128,20 139,170 140,40
141,581 142,100 151,80 152,360
153,250 154,40 155,30 157,1271
158,110 167,50 168,60 169,340
170,9999 171,1451 172,120 183,20
225,40 226,50 253,1591 254,280
255,30 326,260 327,50
##END=
