##TITLE=Succinic acid, decyl 3-hexyl ester
##JCAMP-DX=4.24
##DATA TYPE=MASS SPECTRUM
##ORIGIN=L.N.Kulikova, V.G. Zaikin, RPFU, Moscow, Russia
##OWNER=NIST Mass Spectrometry Data Center
Collection (C) 2014 copyright by the U.S. Secretary of Commerce
on behalf of the United States of America. All rights reserved.
##$NIST MASS SPEC NO=349449
##MOLFORM=C20 H38 O4
##MW=342
##$NIST SOURCE=MSDC
##XUNITS=M/Z
##YUNITS=RELATIVE INTENSITY
##XFACTOR=1
##YFACTOR=1
##FIRSTX=26
##LASTX=260
##FIRSTY=20
##MAXX=260
##MINX=26
##MAXY=9999
##MINY=20
##NPOINTS=63
##PEAK TABLE=(XY..XY)
26,20 27,130 29,280 39,110
40,20 41,711 42,360 43,1772
44,40 45,40 53,40 54,90
55,1121 56,871 57,1882 58,80
59,30 67,110 68,140 69,781
70,500 71,1581 72,80 73,150
74,260 75,170 81,50 82,170
83,550 84,931 85,2502 86,160
95,20 96,60 97,340 98,160
99,490 100,220 101,9999 102,480
103,70 110,20 111,180 112,190
113,20 118,50 119,5185 120,240
121,40 127,20 140,280 141,1511
142,160 157,20 185,210 203,100
214,70 215,20 241,1441 242,210
243,20 259,450 260,60
##END=
