##TITLE=Succinic acid, di(3-hexyl) ester
##JCAMP-DX=4.24
##DATA TYPE=MASS SPECTRUM
##ORIGIN=L.N.Kulikova, V.G. Zaikin, RPFU, Moscow, Russia
##OWNER=NIST Mass Spectrometry Data Center
Collection (C) 2014 copyright by the U.S. Secretary of Commerce
on behalf of the United States of America. All rights reserved.
##$NIST MASS SPEC NO=349460
##MOLFORM=C16 H30 O4
##MW=286
##$NIST SOURCE=MSDC
##XUNITS=M/Z
##YUNITS=RELATIVE INTENSITY
##XFACTOR=1
##YFACTOR=1
##FIRSTX=27
##LASTX=203
##FIRSTY=160
##MAXX=203
##MINX=27
##MAXY=9999
##MINY=20
##NPOINTS=42
##PEAK TABLE=(XY..XY)
27,160 28,80 29,220 31,20
39,80 41,370 42,170 43,1401
44,60 45,60 53,20 54,20
55,490 56,380 57,250 58,30
59,200 67,20 69,180 71,50
72,20 73,360 74,170 83,40
84,430 85,2212 86,150 100,130
101,9999 102,470 103,70 118,40
119,1341 120,60 143,30 157,20
158,90 159,140 173,100 185,1651
186,190 203,40
##END=
