##TITLE=Succinic acid, 2-methylpent-3-yl propyl ester
##JCAMP-DX=4.24
##DATA TYPE=MASS SPECTRUM
##ORIGIN=L.N.Kulikova, V.G. Zaikin, RPFU, Moscow, Russia
##OWNER=NIST Mass Spectrometry Data Center
Collection (C) 2014 copyright by the U.S. Secretary of Commerce
on behalf of the United States of America. All rights reserved.
##$NIST MASS SPEC NO=349383
##MOLFORM=C13 H24 O4
##MW=244
##$NIST SOURCE=MSDC
##XUNITS=M/Z
##YUNITS=RELATIVE INTENSITY
##XFACTOR=1
##YFACTOR=1
##FIRSTX=27
##LASTX=161
##FIRSTY=180
##MAXX=161
##MINX=27
##MAXY=9999
##MINY=20
##NPOINTS=33
##PEAK TABLE=(XY..XY)
27,180 29,180 31,20 39,90
41,470 42,120 43,1411 44,30
45,100 55,330 56,390 57,280
58,40 59,110 69,621 70,40
71,20 73,250 74,170 75,140
84,691 85,3013 86,190 100,280
101,9999 102,490 103,80 116,190
119,130 143,4884 144,380 145,30
161,190
##END=
