##TITLE=Succinic acid, 2-ethylbutyl propyl ester
##JCAMP-DX=4.24
##DATA TYPE=MASS SPECTRUM
##ORIGIN=L.N.Kulikova, V.G. Zaikin, RPFU, Moscow, Russia
##OWNER=NIST Mass Spectrometry Data Center
Collection (C) 2014 copyright by the U.S. Secretary of Commerce
on behalf of the United States of America. All rights reserved.
##$NIST MASS SPEC NO=349197
##MOLFORM=C13 H24 O4
##MW=244
##$NIST SOURCE=MSDC
##XUNITS=M/Z
##YUNITS=RELATIVE INTENSITY
##XFACTOR=1
##YFACTOR=1
##FIRSTX=26
##LASTX=215
##FIRSTY=20
##MAXX=215
##MINX=26
##MAXY=9999
##MINY=10
##NPOINTS=49
##PEAK TABLE=(XY..XY)
26,20 27,290 29,330 30,20
31,40 39,130 40,10 41,641
42,260 43,1942 45,70 53,30
54,30 55,581 56,611 57,270
58,20 59,40 67,20 69,741
70,50 71,60 73,230 74,240
75,180 83,20 84,1541 85,2022
86,130 100,150 101,9999 102,460
103,80 114,290 115,60 116,330
117,30 119,410 142,30 143,2552
144,200 145,40 155,30 160,30
161,480 162,30 174,40 185,70
215,30
##END=
