##TITLE=Malonic acid, 2-heptyl isobutyl ester
##JCAMP-DX=4.24
##DATA TYPE=MASS SPECTRUM
##ORIGIN=L.N.Kulikova, V.G. Zaikin, RPFU, Moscow, Russia
##OWNER=NIST Mass Spectrometry Data Center
Collection (C) 2014 copyright by the U.S. Secretary of Commerce
on behalf of the United States of America. All rights reserved.
##$NIST MASS SPEC NO=349131
##MOLFORM=C14 H26 O4
##MW=258
##$NIST SOURCE=MSDC
##XUNITS=M/Z
##YUNITS=RELATIVE INTENSITY
##XFACTOR=1
##YFACTOR=1
##FIRSTX=26
##LASTX=243
##FIRSTY=20
##MAXX=243
##MINX=26
##MAXY=9999
##MINY=10
##NPOINTS=76
##PEAK TABLE=(XY..XY)
26,20 27,190 29,550 30,30
31,10 39,270 40,50 41,1672
42,641 43,861 53,70 54,120
55,1021 56,2783 57,9999 58,380
59,70 60,270 61,60 67,60
68,80 69,811 70,721 71,230
72,90 73,220 81,50 82,20
83,530 84,60 87,2532 88,80
89,20 90,40 96,20 97,180
98,1371 99,961 100,90 101,30
102,260 105,5595 106,190 107,50
111,20 112,20 113,30 114,120
115,1101 116,130 117,80 118,310
119,40 125,671 126,50 127,60
130,80 131,100 132,50 139,140
140,20 143,6656 144,500 145,170
158,280 159,70 160,60 161,430
162,30 167,200 168,20 171,20
185,611 186,60 187,130 243,20
##END=
