##TITLE=Malonic acid, 3-heptyl propyl ester
##JCAMP-DX=4.24
##DATA TYPE=MASS SPECTRUM
##ORIGIN=L.N.Kulikova, V.G. Zaikin, RPFU, Moscow, Russia
##OWNER=NIST Mass Spectrometry Data Center
Collection (C) 2014 copyright by the U.S. Secretary of Commerce
on behalf of the United States of America. All rights reserved.
##$NIST MASS SPEC NO=349147
##MOLFORM=C13 H24 O4
##MW=244
##$NIST SOURCE=MSDC
##XUNITS=M/Z
##YUNITS=RELATIVE INTENSITY
##XFACTOR=1
##YFACTOR=1
##FIRSTX=26
##LASTX=215
##FIRSTY=40
##MAXX=215
##MINX=26
##MAXY=9999
##MINY=20
##NPOINTS=58
##PEAK TABLE=(XY..XY)
26,40 27,540 29,631 30,20
31,20 39,240 40,20 41,1271
42,621 43,3493 53,40 54,70
55,611 56,941 57,2282 58,70
60,180 61,230 67,40 68,50
69,500 70,460 71,30 72,40
83,90 87,2442 88,60 97,50
98,761 99,380 100,40 102,110
105,1882 106,60 111,50 114,80
115,1191 116,90 117,70 118,20
125,170 127,20 129,9999 130,621
131,70 139,60 144,170 145,50
146,20 147,771 148,50 159,20
167,100 174,30 185,360 186,40
187,130 215,140
##END=
