##TITLE=Malonic acid, 4-heptyl pentadecyl ester
##JCAMP-DX=4.24
##DATA TYPE=MASS SPECTRUM
##ORIGIN=L.N.Kulikova, V.G. Zaikin, RPFU, Moscow, Russia
##OWNER=NIST Mass Spectrometry Data Center
Collection (C) 2014 copyright by the U.S. Secretary of Commerce
on behalf of the United States of America. All rights reserved.
##$NIST MASS SPEC NO=349000
##MOLFORM=C25 H48 O4
##MW=412
##$NIST SOURCE=MSDC
##XUNITS=M/Z
##YUNITS=RELATIVE INTENSITY
##XFACTOR=1
##YFACTOR=1
##FIRSTX=26
##LASTX=315
##FIRSTY=50
##MAXX=315
##MINX=26
##MAXY=9999
##MINY=10
##NPOINTS=89
##PEAK TABLE=(XY..XY)
26,50 27,290 28,190 29,490
39,250 40,40 41,1571 42,561
43,2592 44,160 45,20 53,90
54,290 55,2302 56,1561 57,4734
58,210 60,50 61,90 66,30
67,400 68,500 69,1942 70,1181
71,1782 72,140 73,130 80,20
81,260 82,881 83,1742 84,651
85,1081 86,80 87,1271 88,40
89,100 95,170 96,370 97,1561
98,1341 99,490 100,40 102,30
105,9999 106,340 107,70 109,70
110,140 111,941 112,300 113,230
114,220 115,941 116,70 123,30
124,80 125,520 126,190 127,150
130,30 131,120 132,10 137,20
138,50 139,200 140,120 141,100
152,20 153,100 154,70 155,60
159,40 167,50 168,30 169,20
173,10 182,300 183,40 185,20
203,30 209,30 210,440 211,100
279,110 297,1641 298,300 299,20
315,50
##END=
