##TITLE=Malonic acid, 2-decyl ethyl ester
##JCAMP-DX=4.24
##DATA TYPE=MASS SPECTRUM
##ORIGIN=L.N.Kulikova, V.G. Zaikin, RPFU, Moscow, Russia
##OWNER=NIST Mass Spectrometry Data Center
Collection (C) 2014 copyright by the U.S. Secretary of Commerce
on behalf of the United States of America. All rights reserved.
##$NIST MASS SPEC NO=349086
##MOLFORM=C15 H28 O4
##MW=272
##$NIST SOURCE=MSDC
##XUNITS=M/Z
##YUNITS=RELATIVE INTENSITY
##XFACTOR=1
##YFACTOR=1
##FIRSTX=26
##LASTX=227
##FIRSTY=40
##MAXX=227
##MINX=26
##MAXY=9999
##MINY=20
##NPOINTS=64
##PEAK TABLE=(XY..XY)
26,40 27,350 29,1682 30,30
39,180 40,30 41,1111 42,601
43,2082 47,40 53,70 54,130
55,1301 56,1111 57,1121 58,60
59,30 60,140 61,60 67,160
68,140 69,901 70,991 71,701
72,30 73,70 81,70 82,180
83,540 84,500 85,430 86,50
87,561 88,380 89,50 95,20
96,140 97,711 98,400 99,120
104,30 110,40 111,400 112,210
113,20 115,9999 116,571 117,70
130,510 131,70 132,110 133,5205
134,280 135,40 140,661 141,561
142,50 146,30 156,170 157,781
158,80 159,210 167,20 227,30
##END=
