##TITLE=Succinic acid, isobutyl 3-methylbutyl ester
##JCAMP-DX=4.24
##DATA TYPE=MASS SPECTRUM
##ORIGIN=L.N.Kulikova, V.G. Zaikin, RPFU, Moscow, Russia
##OWNER=NIST Mass Spectrometry Data Center
Collection (C) 2014 copyright by the U.S. Secretary of Commerce
on behalf of the United States of America. All rights reserved.
##$NIST MASS SPEC NO=349242
##MOLFORM=C13 H24 O4
##MW=244
##$NIST SOURCE=MSDC
##XUNITS=M/Z
##YUNITS=RELATIVE INTENSITY
##XFACTOR=1
##YFACTOR=1
##FIRSTX=26
##LASTX=229
##FIRSTY=60
##MAXX=229
##MINX=26
##MAXY=9999
##MINY=10
##NPOINTS=67
##PEAK TABLE=(XY..XY)
26,60 27,581 28,470 29,1191
30,60 31,50 39,390 40,70
41,1712 42,490 43,3233 44,90
45,190 53,80 54,60 55,1641
56,1331 57,5095 58,220 67,10
68,20 69,210 70,2352 71,9999
72,571 73,350 74,290 75,50
84,50 86,20 87,40 99,30
100,170 101,8768 102,410 103,90
114,120 115,60 118,20 119,2302
120,90 127,60 128,180 129,50
130,180 131,20 141,40 144,140
145,220 146,40 147,10 155,60
156,30 157,611 158,40 159,20
170,20 171,1591 172,140 173,40
175,300 176,10 189,360 190,20
201,110 202,20 229,30
##END=
