##TITLE=Succinic acid, hexyl 2-methylpent-3-yl ester
##JCAMP-DX=4.24
##DATA TYPE=MASS SPECTRUM
##ORIGIN=L.N.Kulikova, V.G. Zaikin, RPFU, Moscow, Russia
##OWNER=NIST Mass Spectrometry Data Center
Collection (C) 2014 copyright by the U.S. Secretary of Commerce
on behalf of the United States of America. All rights reserved.
##$NIST MASS SPEC NO=349386
##MOLFORM=C16 H30 O4
##MW=286
##$NIST SOURCE=MSDC
##XUNITS=M/Z
##YUNITS=RELATIVE INTENSITY
##XFACTOR=1
##YFACTOR=1
##FIRSTX=26
##LASTX=203
##FIRSTY=40
##MAXX=203
##MINX=26
##MAXY=9999
##MINY=10
##NPOINTS=43
##PEAK TABLE=(XY..XY)
26,40 27,250 29,400 31,20
39,140 40,20 41,811 42,340
43,3083 44,60 45,50 53,30
54,20 55,581 56,611 57,671
58,30 59,50 67,60 68,10
69,811 70,50 71,30 73,170
74,280 75,210 82,40 83,130
84,1341 85,4924 86,310 99,70
100,250 101,9999 102,460 103,60
119,1381 120,30 158,110 159,10
185,2252 186,210 203,170
##END=
