##TITLE=Malonic acid, 3-hexyl undecyl ester
##JCAMP-DX=4.24
##DATA TYPE=MASS SPECTRUM
##ORIGIN=L.N.Kulikova, V.G. Zaikin, RPFU, Moscow, Russia
##OWNER=NIST Mass Spectrometry Data Center
Collection (C) 2014 copyright by the U.S. Secretary of Commerce
on behalf of the United States of America. All rights reserved.
##$NIST MASS SPEC NO=349125
##MOLFORM=C20 H38 O4
##MW=342
##$NIST SOURCE=MSDC
##XUNITS=M/Z
##YUNITS=RELATIVE INTENSITY
##XFACTOR=1
##YFACTOR=1
##FIRSTX=26
##LASTX=259
##FIRSTY=40
##MAXX=259
##MINX=26
##MAXY=9999
##MINY=10
##NPOINTS=84
##PEAK TABLE=(XY..XY)
26,40 27,200 28,100 29,260
31,40 35,20 36,70 38,50
39,180 40,40 41,931 42,490
43,1982 44,140 45,80 51,20
52,50 53,90 54,180 55,2032
56,1291 57,2532 58,120 59,210
60,40 61,130 67,290 68,380
69,1541 70,941 71,1672 72,110
73,160 77,20 78,20 79,100
81,180 82,611 83,1331 84,1812
85,2222 86,140 87,1321 88,20
89,20 91,30 95,100 96,230
97,1341 98,400 99,460 100,170
101,811 102,40 103,20 104,30
105,9999 106,360 107,70 109,40
110,80 111,611 112,200 113,180
115,20 116,10 117,70 118,20
124,30 125,230 126,591 127,50
131,40 133,20 141,30 153,190
154,761 155,220 171,50 189,20
241,3353 242,470 243,20 259,80
##END=
