##TITLE=Succinic acid, 3-ethylphenyl pentyl ester
##JCAMP-DX=4.24
##DATA TYPE=MASS SPECTRUM
##ORIGIN=L.N.Kulikova, V.G. Zaikin, RPFU, Moscow, Russia
##OWNER=NIST Mass Spectrometry Data Center
Collection (C) 2014 copyright by the U.S. Secretary of Commerce
on behalf of the United States of America. All rights reserved.
##$NIST MASS SPEC NO=349657
##MOLFORM=C17 H24 O4
##MW=292
##$NIST SOURCE=MSDC
##XUNITS=M/Z
##YUNITS=RELATIVE INTENSITY
##XFACTOR=1
##YFACTOR=1
##FIRSTX=27
##LASTX=206
##FIRSTY=70
##MAXX=206
##MINX=27
##MAXY=9999
##MINY=20
##NPOINTS=51
##PEAK TABLE=(XY..XY)
27,70 29,130 39,110 40,20
41,300 42,130 43,1471 44,70
45,30 51,50 52,20 53,50
55,771 56,130 63,30 65,80
67,110 69,60 70,60 71,1231
72,60 73,120 77,430 78,130
79,150 81,40 89,20 91,190
92,30 93,40 94,80 95,160
100,50 101,9999 102,470 103,210
104,30 105,170 107,1391 108,100
119,20 120,30 121,180 122,3243
123,591 124,40 171,2192 172,220
177,90 205,1611 206,220
##END=
