##TITLE=Malonic acid, 4-methylpent-2-yl octadecyl ester
##JCAMP-DX=4.24
##DATA TYPE=MASS SPECTRUM
##ORIGIN=L.N.Kulikova, V.G. Zaikin, RPFU, Moscow, Russia
##OWNER=NIST Mass Spectrometry Data Center
Collection (C) 2014 copyright by the U.S. Secretary of Commerce
on behalf of the United States of America. All rights reserved.
##$NIST MASS SPEC NO=349345
##MOLFORM=C27 H52 O4
##MW=440
##$NIST SOURCE=MSDC
##XUNITS=M/Z
##YUNITS=RELATIVE INTENSITY
##XFACTOR=1
##YFACTOR=1
##FIRSTX=26
##LASTX=357
##FIRSTY=90
##MAXX=357
##MINX=26
##MAXY=9999
##MINY=10
##NPOINTS=108
##PEAK TABLE=(XY..XY)
26,90 27,420 28,280 29,721
30,20 31,50 36,60 37,20
38,20 39,450 40,100 41,2332
42,781 43,5425 44,450 45,400
50,20 51,40 53,140 54,410
55,2662 56,1581 57,3683 58,170
59,40 60,30 61,190 65,30
66,50 67,621 68,771 69,3593
70,1401 71,1742 72,110 73,70
77,40 78,20 79,90 80,50
81,440 82,1341 83,2742 84,2803
85,5535 86,330 87,601 89,60
91,20 93,40 94,30 95,260
97,2142 98,550 99,310 100,70
101,270 102,20 103,50 104,40
105,9999 106,320 107,90 109,140
110,210 111,1241 112,400 113,200
115,30 123,50 124,140 125,571
126,250 127,110 128,20 129,70
133,10 135,40 138,70 139,250
140,160 141,50 145,40 147,20
152,40 153,110 154,110 155,60
166,40 167,50 168,80 169,20
181,30 182,60 183,20 189,70
194,20 196,40 224,210 251,50
252,300 253,20 321,280 322,20
339,350 340,40 341,30 357,30
##END=
