##TITLE=Malonic acid, isobutyl tridecyl ester
##JCAMP-DX=4.24
##DATA TYPE=MASS SPECTRUM
##ORIGIN=L.N.Kulikova, V.G. Zaikin, RPFU, Moscow, Russia
##OWNER=NIST Mass Spectrometry Data Center
Collection (C) 2014 copyright by the U.S. Secretary of Commerce
on behalf of the United States of America. All rights reserved.
##$NIST MASS SPEC NO=349109
##MOLFORM=C20 H38 O4
##MW=342
##$NIST SOURCE=MSDC
##XUNITS=M/Z
##YUNITS=RELATIVE INTENSITY
##XFACTOR=1
##YFACTOR=1
##FIRSTX=26
##LASTX=327
##FIRSTY=10
##MAXX=327
##MINX=26
##MAXY=9999
##MINY=10
##NPOINTS=74
##PEAK TABLE=(XY..XY)
26,10 27,160 29,510 30,10
39,150 40,30 41,1181 42,370
43,1361 53,50 54,190 55,1421
56,1231 57,5275 58,220 60,80
61,30 67,260 68,310 69,1281
70,751 71,1011 72,70 73,20
81,160 82,430 83,1151 84,470
85,631 86,40 87,831 88,20
89,40 95,90 96,150 97,911
98,300 99,180 100,20 102,20
104,50 105,9999 106,340 107,80
109,30 110,70 111,480 112,180
113,110 118,140 119,60 124,30
125,240 126,100 127,80 130,30
131,30 132,50 139,50 140,30
141,30 143,130 145,50 154,150
160,10 161,1571 162,120 181,100
182,140 183,70 251,20 269,50
287,20 327,20
##END=
