##TITLE=Succinic acid, 3-methylpentyl pentyl ester
##JCAMP-DX=4.24
##DATA TYPE=MASS SPECTRUM
##ORIGIN=L.N.Kulikova, V.G. Zaikin, RPFU, Moscow, Russia
##OWNER=NIST Mass Spectrometry Data Center
Collection (C) 2014 copyright by the U.S. Secretary of Commerce
on behalf of the United States of America. All rights reserved.
##$NIST MASS SPEC NO=349531
##MOLFORM=C15 H28 O4
##MW=272
##$NIST SOURCE=MSDC
##XUNITS=M/Z
##YUNITS=RELATIVE INTENSITY
##XFACTOR=1
##YFACTOR=1
##FIRSTX=26
##LASTX=243
##FIRSTY=50
##MAXX=243
##MINX=26
##MAXY=9999
##MINY=20
##NPOINTS=61
##PEAK TABLE=(XY..XY)
26,50 27,320 28,290 29,721
30,20 31,30 39,200 40,40
41,1071 42,561 43,3723 44,190
45,30 53,70 54,80 55,1451
56,861 57,771 58,30 67,80
68,80 69,1581 70,601 71,1111
72,40 73,200 74,290 75,150
82,40 83,140 84,1982 85,6356
86,430 87,30 99,40 100,160
101,9999 102,460 103,70 114,20
119,1571 120,50 127,50 128,150
129,60 144,100 145,100 155,60
158,40 171,1111 172,90 173,20
185,410 186,30 189,811 190,60
203,320 204,20 215,170 216,30
243,110
##END=
