##TITLE=Succinic acid, 2-decyl isobutyl ester
##JCAMP-DX=4.24
##DATA TYPE=MASS SPECTRUM
##ORIGIN=L.N.Kulikova, V.G. Zaikin, RPFU, Moscow, Russia
##OWNER=NIST Mass Spectrometry Data Center
Collection (C) 2014 copyright by the U.S. Secretary of Commerce
on behalf of the United States of America. All rights reserved.
##$NIST MASS SPEC NO=349423
##MOLFORM=C18 H34 O4
##MW=314
##$NIST SOURCE=MSDC
##XUNITS=M/Z
##YUNITS=RELATIVE INTENSITY
##XFACTOR=1
##YFACTOR=1
##FIRSTX=26
##LASTX=241
##FIRSTY=20
##MAXX=241
##MINX=26
##MAXY=9999
##MINY=20
##NPOINTS=63
##PEAK TABLE=(XY..XY)
26,20 27,220 28,270 29,681
39,200 40,40 41,1281 42,340
43,1231 44,30 53,50 54,80
55,1051 56,1261 57,7577 58,350
59,20 67,90 68,80 69,520
70,520 71,1011 72,80 73,230
74,390 75,110 81,40 82,90
83,350 84,310 85,1101 86,70
96,80 97,400 98,250 99,190
100,90 101,9999 102,450 103,120
110,20 111,250 112,150 114,70
118,70 119,3543 120,160 121,20
130,310 131,50 132,30 140,440
141,1812 142,190 156,240 157,4594
158,430 159,140 172,60 174,60
175,1732 176,140 241,90
##END=
