##TITLE=Malonic acid, 2,4-dimethylpent-3-yl ethyl ester
##JCAMP-DX=4.24
##DATA TYPE=MASS SPECTRUM
##ORIGIN=L.N.Kulikova, V.G. Zaikin, RPFU, Moscow, Russia
##OWNER=NIST Mass Spectrometry Data Center
Collection (C) 2014 copyright by the U.S. Secretary of Commerce
on behalf of the United States of America. All rights reserved.
##$NIST MASS SPEC NO=349008
##MOLFORM=C12 H22 O4
##MW=230
##$NIST SOURCE=MSDC
##XUNITS=M/Z
##YUNITS=RELATIVE INTENSITY
##XFACTOR=1
##YFACTOR=1
##FIRSTX=27
##LASTX=188
##FIRSTY=90
##MAXX=188
##MINX=27
##MAXY=9999
##MINY=10
##NPOINTS=44
##PEAK TABLE=(XY..XY)
27,90 29,370 39,40 41,240
42,120 43,951 44,20 45,50
53,20 55,290 56,160 57,871
58,40 59,10 60,50 61,20
67,20 69,220 70,80 71,350
72,100 73,220 83,731 84,50
87,470 88,80 97,20 98,240
99,540 100,40 101,50 112,50
113,40 114,30 115,9999 116,591
117,70 133,110 141,20 158,90
159,180 186,30 187,641 188,60
##END=
