##TITLE=Succinic acid, 3-heptyl propyl ester
##JCAMP-DX=4.24
##DATA TYPE=MASS SPECTRUM
##ORIGIN=L.N.Kulikova, V.G. Zaikin, RPFU, Moscow, Russia
##OWNER=NIST Mass Spectrometry Data Center
Collection (C) 2014 copyright by the U.S. Secretary of Commerce
on behalf of the United States of America. All rights reserved.
##$NIST MASS SPEC NO=349484
##MOLFORM=C14 H26 O4
##MW=258
##$NIST SOURCE=MSDC
##XUNITS=M/Z
##YUNITS=RELATIVE INTENSITY
##XFACTOR=1
##YFACTOR=1
##FIRSTX=26
##LASTX=199
##FIRSTY=20
##MAXX=199
##MINX=26
##MAXY=9999
##MINY=20
##NPOINTS=44
##PEAK TABLE=(XY..XY)
26,20 27,260 28,140 29,360
31,40 39,110 40,20 41,601
42,160 43,811 44,80 45,110
53,20 54,30 55,410 56,490
57,1101 58,70 59,60 68,20
69,240 70,200 73,200 74,210
75,160 83,30 98,360 99,540
100,140 101,9999 102,440 103,80
114,210 115,721 116,210 119,120
142,20 143,5095 144,390 145,40
160,20 161,480 162,30 199,80
##END=
