##TITLE=Malonic acid, 2-heptyl tetradecyl ester
##JCAMP-DX=4.24
##DATA TYPE=MASS SPECTRUM
##ORIGIN=L.N.Kulikova, V.G. Zaikin, RPFU, Moscow, Russia
##OWNER=NIST Mass Spectrometry Data Center
Collection (C) 2014 copyright by the U.S. Secretary of Commerce
on behalf of the United States of America. All rights reserved.
##$NIST MASS SPEC NO=349143
##MOLFORM=C24 H46 O4
##MW=398
##$NIST SOURCE=MSDC
##XUNITS=M/Z
##YUNITS=RELATIVE INTENSITY
##XFACTOR=1
##YFACTOR=1
##FIRSTX=26
##LASTX=301
##FIRSTY=60
##MAXX=301
##MINX=26
##MAXY=9999
##MINY=20
##NPOINTS=89
##PEAK TABLE=(XY..XY)
26,60 27,300 28,240 29,621
30,20 39,250 40,80 41,1672
42,601 43,2362 44,210 45,260
50,20 53,110 54,280 55,2362
56,1792 57,4524 58,220 59,30
60,40 61,130 66,30 67,390
68,460 69,2002 70,1271 71,1591
72,90 73,20 77,20 79,30
80,20 81,230 82,741 83,1812
84,671 85,881 86,60 87,741
88,20 89,60 95,130 96,310
97,1341 98,1311 99,460 100,30
101,20 102,30 103,180 104,50
105,9999 106,340 107,90 109,60
110,100 111,781 112,250 113,180
114,100 115,350 116,40 124,70
125,450 126,180 127,110 138,30
139,180 140,120 141,70 153,40
154,40 155,50 159,20 167,20
168,290 169,40 172,20 173,50
175,60 195,160 196,420 197,120
203,50 265,120 283,571 284,90
301,100
##END=
