##TITLE=Malonic acid, dodecyl 2-methylpent-3-yl ester
##JCAMP-DX=4.24
##DATA TYPE=MASS SPECTRUM
##ORIGIN=L.N.Kulikova, V.G. Zaikin, RPFU, Moscow, Russia
##OWNER=NIST Mass Spectrometry Data Center
Collection (C) 2014 copyright by the U.S. Secretary of Commerce
on behalf of the United States of America. All rights reserved.
##$NIST MASS SPEC NO=349054
##MOLFORM=C21 H40 O4
##MW=356
##$NIST SOURCE=MSDC
##XUNITS=M/Z
##YUNITS=RELATIVE INTENSITY
##XFACTOR=1
##YFACTOR=1
##FIRSTX=26
##LASTX=327
##FIRSTY=70
##MAXX=327
##MINX=26
##MAXY=9999
##MINY=20
##NPOINTS=100
##PEAK TABLE=(XY..XY)
26,70 27,360 28,290 29,721
31,50 39,300 40,70 41,1932
42,741 43,4974 44,400 45,80
53,120 54,280 55,2282 56,1461
57,4094 58,230 59,180 60,70
61,320 65,20 66,30 67,420
68,571 69,2722 70,1161 71,2632
72,160 73,100 79,40 80,30
81,270 82,901 83,1832 84,3203
85,7787 86,561 87,1571 88,50
89,110 95,160 96,360 97,1882
98,581 99,631 100,300 101,1311
102,110 103,30 104,70 105,9999
106,360 107,100 109,80 110,160
111,1261 112,400 113,470 114,40
115,50 116,30 117,60 123,30
124,70 125,430 126,190 127,220
128,30 130,200 131,280 132,40
138,50 139,110 140,761 141,90
142,20 145,30 159,30 166,50
167,490 168,1271 169,420 170,30
185,20 189,60 195,40 203,20
213,20 229,20 237,90 255,5855
256,1021 257,110 273,180 274,20
298,120 299,50 313,40 327,70
##END=
