##TITLE=Malonic acid, eicosyl isobutyl ester
##JCAMP-DX=4.24
##DATA TYPE=MASS SPECTRUM
##ORIGIN=L.N.Kulikova, V.G. Zaikin, RPFU, Moscow, Russia
##OWNER=NIST Mass Spectrometry Data Center
Collection (C) 2014 copyright by the U.S. Secretary of Commerce
on behalf of the United States of America. All rights reserved.
##$NIST MASS SPEC NO=349115
##MOLFORM=C27 H52 O4
##MW=440
##$NIST SOURCE=MSDC
##XUNITS=M/Z
##YUNITS=RELATIVE INTENSITY
##XFACTOR=1
##YFACTOR=1
##FIRSTX=26
##LASTX=425
##FIRSTY=30
##MAXX=425
##MINX=26
##MAXY=9999
##MINY=20
##NPOINTS=99
##PEAK TABLE=(XY..XY)
26,30 27,120 28,120 29,310
31,20 36,20 39,150 40,30
41,991 42,290 43,1451 44,100
53,50 54,220 55,1511 56,1091
57,4854 58,220 60,50 61,40
66,20 67,350 68,410 69,1491
70,691 71,1171 72,80 73,70
77,20 79,70 81,290 82,611
83,1591 84,470 85,741 86,50
87,601 89,50 91,20 93,20
95,200 96,210 97,1431 98,330
99,200 100,20 102,20 103,20
104,50 105,9999 106,380 107,90
109,100 110,130 111,781 112,220
113,140 115,20 118,90 119,80
123,40 124,70 125,370 126,150
127,90 130,20 131,20 132,40
138,50 139,150 140,90 141,60
143,90 145,50 147,30 152,30
153,50 154,60 155,20 160,20
161,3033 162,230 163,20 167,30
168,40 169,30 181,20 182,30
183,20 196,20 197,20 252,60
279,20 280,60 281,40 349,230
350,40 367,40 425,40
##END=
