##TITLE=Succinic acid, 3-methylpentyl octyl ester
##JCAMP-DX=4.24
##DATA TYPE=MASS SPECTRUM
##ORIGIN=L.N.Kulikova, V.G. Zaikin, RPFU, Moscow, Russia
##OWNER=NIST Mass Spectrometry Data Center
Collection (C) 2014 copyright by the U.S. Secretary of Commerce
on behalf of the United States of America. All rights reserved.
##$NIST MASS SPEC NO=349534
##MOLFORM=C18 H34 O4
##MW=314
##$NIST SOURCE=MSDC
##XUNITS=M/Z
##YUNITS=RELATIVE INTENSITY
##XFACTOR=1
##YFACTOR=1
##FIRSTX=26
##LASTX=285
##FIRSTY=20
##MAXX=285
##MINX=26
##MAXY=9999
##MINY=20
##NPOINTS=68
##PEAK TABLE=(XY..XY)
26,20 27,180 29,470 39,100
40,20 41,711 42,270 43,1772
44,90 45,20 53,80 54,160
55,1832 56,1411 57,3123 58,130
67,220 68,230 69,2122 70,801
71,2162 72,110 73,210 74,230
75,140 81,110 82,200 83,711
84,2762 85,9689 86,691 96,60
97,200 98,20 99,80 100,120
101,9999 102,480 103,70 110,30
111,30 112,270 113,801 114,60
119,3683 120,150 127,70 128,230
141,20 145,110 146,20 147,20
155,80 157,20 158,20 159,20
185,621 186,110 203,1391 204,130
213,300 214,20 231,781 232,80
243,30 257,200 258,30 285,130
##END=
