##TITLE=Malonic acid, 2-butyl nonyl ester
##JCAMP-DX=4.24
##DATA TYPE=MASS SPECTRUM
##ORIGIN=L.N.Kulikova, V.G. Zaikin, RPFU, Moscow, Russia
##OWNER=NIST Mass Spectrometry Data Center
Collection (C) 2014 copyright by the U.S. Secretary of Commerce
on behalf of the United States of America. All rights reserved.
##$NIST MASS SPEC NO=349074
##MOLFORM=C16 H30 O4
##MW=286
##$NIST SOURCE=MSDC
##XUNITS=M/Z
##YUNITS=RELATIVE INTENSITY
##XFACTOR=1
##YFACTOR=1
##FIRSTX=26
##LASTX=231
##FIRSTY=50
##MAXX=231
##MINX=26
##MAXY=9999
##MINY=10
##NPOINTS=69
##PEAK TABLE=(XY..XY)
26,50 27,300 28,290 29,731
31,30 39,240 40,50 41,1611
42,661 43,1391 44,110 45,90
53,80 54,170 55,1511 56,1942
57,3043 58,130 59,30 60,100
61,190 67,180 68,320 69,1241
70,981 71,2062 72,140 73,320
81,100 82,310 83,971 84,561
85,1171 86,70 87,1521 88,50
89,20 91,10 95,60 96,100
97,631 98,661 99,70 100,20
102,20 104,30 105,9999 106,340
107,80 111,50 112,20 113,30
117,80 124,20 125,320 126,571
127,220 132,20 135,100 137,110
143,110 145,20 149,20 151,20
153,40 161,230 213,1591 214,190
231,60
##END=
