##TITLE=Adipic acid, 4-heptyl isobutyl ester
##JCAMP-DX=4.24
##DATA TYPE=MASS SPECTRUM
##ORIGIN=L.N.Kulikova, V.G. Zaikin, RPFU, Moscow, Russia
##OWNER=NIST Mass Spectrometry Data Center
Collection (C) 2014 copyright by the U.S. Secretary of Commerce
on behalf of the United States of America. All rights reserved.
##$NIST MASS SPEC NO=349736
##MOLFORM=C17 H32 O4
##MW=300
##$NIST SOURCE=MSDC
##XUNITS=M/Z
##YUNITS=RELATIVE INTENSITY
##XFACTOR=1
##YFACTOR=1
##FIRSTX=27
##LASTX=227
##FIRSTY=70
##MAXX=227
##MINX=27
##MAXY=9999
##MINY=10
##NPOINTS=56
##PEAK TABLE=(XY..XY)
27,70 29,220 39,80 41,480
42,110 43,430 44,20 53,10
54,30 55,971 56,661 57,1752
58,60 59,70 60,30 67,20
68,40 69,150 70,130 71,70
72,20 73,150 83,270 84,190
85,60 87,160 98,270 99,30
100,330 101,661 102,420 103,110
111,1371 112,290 113,30 114,70
115,150 116,60 127,20 128,260
129,9999 130,621 131,100 143,340
144,20 146,40 147,260 156,230
158,170 184,40 185,4164 186,440
187,50 202,210 203,130 227,70
##END=
