##TITLE=Malonic acid, decyl 3-hexyl ester
##JCAMP-DX=4.24
##DATA TYPE=MASS SPECTRUM
##ORIGIN=L.N.Kulikova, V.G. Zaikin, RPFU, Moscow, Russia
##OWNER=NIST Mass Spectrometry Data Center
Collection (C) 2014 copyright by the U.S. Secretary of Commerce
on behalf of the United States of America. All rights reserved.
##$NIST MASS SPEC NO=349124
##MOLFORM=C19 H36 O4
##MW=328
##$NIST SOURCE=MSDC
##XUNITS=M/Z
##YUNITS=RELATIVE INTENSITY
##XFACTOR=1
##YFACTOR=1
##FIRSTX=26
##LASTX=285
##FIRSTY=80
##MAXX=285
##MINX=26
##MAXY=9999
##MINY=10
##NPOINTS=77
##PEAK TABLE=(XY..XY)
26,80 27,450 28,240 29,621
31,110 39,310 40,60 41,1692
42,941 43,3683 44,220 52,50
53,140 54,270 55,2422 56,1631
57,2853 58,120 59,250 60,60
61,120 67,370 68,430 69,1551
70,1081 71,1982 72,120 73,150
77,40 78,20 79,30 81,150
82,510 83,1251 84,1812 85,2783
86,160 87,1611 89,20 95,80
96,40 97,801 98,350 99,390
100,140 101,931 102,30 104,40
105,9999 106,310 107,70 109,20
110,70 111,470 112,641 113,60
115,30 116,20 117,60 125,60
126,30 128,20 129,20 131,50
139,90 140,771 141,220 147,20
153,20 159,30 171,50 189,10
227,3643 228,470 229,30 245,80
285,20
##END=
