##TITLE=Adipic acid, butyl 2,4-dimethylpent-3-yl ester
##JCAMP-DX=4.24
##DATA TYPE=MASS SPECTRUM
##ORIGIN=L.N.Kulikova, V.G. Zaikin, RPFU, Moscow, Russia
##OWNER=NIST Mass Spectrometry Data Center
Collection (C) 2014 copyright by the U.S. Secretary of Commerce
on behalf of the United States of America. All rights reserved.
##$NIST MASS SPEC NO=349777
##MOLFORM=C17 H32 O4
##MW=300
##$NIST SOURCE=MSDC
##XUNITS=M/Z
##YUNITS=RELATIVE INTENSITY
##XFACTOR=1
##YFACTOR=1
##FIRSTX=26
##LASTX=228
##FIRSTY=10
##MAXX=228
##MINX=26
##MAXY=9999
##MINY=10
##NPOINTS=60
##PEAK TABLE=(XY..XY)
26,10 27,150 29,330 31,20
39,120 41,611 42,140 43,741
45,30 53,30 54,30 55,2112
56,561 57,2122 58,90 59,130
60,30 67,40 68,30 69,50
70,30 71,160 72,30 73,190
83,1121 84,250 85,70 87,110
98,290 99,340 100,270 101,1201
102,320 103,150 111,3323 112,410
113,30 114,80 115,470 116,100
127,20 128,150 129,9408 130,681
131,90 143,561 144,30 147,190
156,430 157,90 158,571 159,40
184,100 185,9999 186,1171 187,100
202,380 203,80 227,170 228,40
##END=
