##TITLE=Malonic acid, 2-decyl tridecyl ester
##JCAMP-DX=4.24
##DATA TYPE=MASS SPECTRUM
##ORIGIN=L.N.Kulikova, V.G. Zaikin, RPFU, Moscow, Russia
##OWNER=NIST Mass Spectrometry Data Center
Collection (C) 2014 copyright by the U.S. Secretary of Commerce
on behalf of the United States of America. All rights reserved.
##$NIST MASS SPEC NO=349098
##MOLFORM=C26 H50 O4
##MW=426
##$NIST SOURCE=MSDC
##XUNITS=M/Z
##YUNITS=RELATIVE INTENSITY
##XFACTOR=1
##YFACTOR=1
##FIRSTX=26
##LASTX=288
##FIRSTY=20
##MAXX=288
##MINX=26
##MAXY=9999
##MINY=10
##NPOINTS=83
##PEAK TABLE=(XY..XY)
26,20 27,90 28,80 29,210
39,110 40,30 41,721 42,320
43,1441 44,60 45,70 53,50
54,160 55,1361 56,941 57,2132
58,120 60,20 61,60 66,20
67,250 68,310 69,1321 70,981
71,1541 72,90 79,20 81,180
82,611 83,1331 84,711 85,1301
86,90 87,520 88,10 89,40
95,110 96,280 97,1351 98,561
99,380 100,30 102,30 103,210
104,50 105,9999 106,350 107,90
109,50 110,130 111,821 112,380
113,200 114,20 115,30 123,20
124,50 125,320 126,130 127,130
138,40 139,90 140,701 141,360
142,30 153,20 154,380 155,50
156,130 157,360 158,30 180,30
181,240 182,651 183,240 184,20
245,30 251,90 269,991 270,170
271,20 287,611 288,110
##END=
