##TITLE=Malonic acid, 2-methylpentyl tridecyl ester
##JCAMP-DX=4.24
##DATA TYPE=MASS SPECTRUM
##ORIGIN=L.N.Kulikova, V.G. Zaikin, RPFU, Moscow, Russia
##OWNER=NIST Mass Spectrometry Data Center
Collection (C) 2014 copyright by the U.S. Secretary of Commerce
on behalf of the United States of America. All rights reserved.
##$NIST MASS SPEC NO=349305
##MOLFORM=C22 H42 O4
##MW=370
##$NIST SOURCE=MSDC
##XUNITS=M/Z
##YUNITS=RELATIVE INTENSITY
##XFACTOR=1
##YFACTOR=1
##FIRSTX=26
##LASTX=312
##FIRSTY=130
##MAXX=312
##MINX=26
##MAXY=9999
##MINY=20
##NPOINTS=101
##PEAK TABLE=(XY..XY)
26,130 27,581 28,400 29,1011
30,40 31,50 37,20 39,490
40,130 41,2913 42,951 43,7377
44,530 45,110 51,20 53,180
54,390 55,3053 56,1872 57,5265
58,260 59,210 60,80 61,430
65,30 66,50 67,631 68,741
69,3613 70,1401 71,3153 72,180
77,30 79,50 80,40 81,360
82,1241 83,2352 84,3633 85,8818
86,581 87,1601 88,40 89,140
91,20 93,20 94,20 95,230
96,460 97,2232 98,691 99,661
100,290 101,1221 102,90 103,20
104,70 105,9999 106,350 107,90
109,90 110,180 111,1361 112,430
113,400 114,30 115,40 116,40
117,60 123,40 124,100 125,791
126,280 127,270 128,20 130,170
131,210 132,30 138,50 139,200
140,120 141,70 142,20 145,20
152,40 153,30 154,601 155,70
159,30 180,30 181,360 182,951
183,260 189,30 251,110 252,40
269,3413 270,571 271,50 287,80
312,60
##END=
