##TITLE=Succinic acid, 3-methylpentyl undecyl ester
##JCAMP-DX=4.24
##DATA TYPE=MASS SPECTRUM
##ORIGIN=L.N.Kulikova, V.G. Zaikin, RPFU, Moscow, Russia
##OWNER=NIST Mass Spectrometry Data Center
Collection (C) 2014 copyright by the U.S. Secretary of Commerce
on behalf of the United States of America. All rights reserved.
##$NIST MASS SPEC NO=349537
##MOLFORM=C21 H40 O4
##MW=356
##$NIST SOURCE=MSDC
##XUNITS=M/Z
##YUNITS=RELATIVE INTENSITY
##XFACTOR=1
##YFACTOR=1
##FIRSTX=26
##LASTX=328
##FIRSTY=40
##MAXX=328
##MINX=26
##MAXY=9999
##MINY=20
##NPOINTS=79
##PEAK TABLE=(XY..XY)
26,40 27,150 29,360 39,120
40,20 41,821 42,280 43,2232
44,110 53,50 54,140 55,1411
56,991 57,2732 58,100 67,190
68,210 69,1521 70,581 71,1071
72,40 73,130 74,120 75,80
79,20 81,110 82,310 83,881
84,2122 85,9999 86,711 91,50
95,60 96,100 97,611 98,230
99,500 100,110 101,7347 102,350
103,60 110,40 111,250 112,110
113,230 114,20 117,50 118,210
119,4264 120,180 121,20 125,100
126,190 127,80 128,200 129,110
145,90 146,20 147,30 154,160
155,791 156,80 157,20 158,20
175,30 185,821 186,70 203,2662
204,280 205,20 230,20 243,30
255,190 273,641 274,90 299,190
300,30 327,170 328,20
##END=
