##TITLE=Succinic acid, 3-ethylphenyl octyl ester
##JCAMP-DX=4.24
##DATA TYPE=MASS SPECTRUM
##ORIGIN=L.N.Kulikova, V.G. Zaikin, RPFU, Moscow, Russia
##OWNER=NIST Mass Spectrometry Data Center
Collection (C) 2014 copyright by the U.S. Secretary of Commerce
on behalf of the United States of America. All rights reserved.
##$NIST MASS SPEC NO=349661
##MOLFORM=C20 H30 O4
##MW=334
##$NIST SOURCE=MSDC
##XUNITS=M/Z
##YUNITS=RELATIVE INTENSITY
##XFACTOR=1
##YFACTOR=1
##FIRSTX=26
##LASTX=215
##FIRSTY=20
##MAXX=215
##MINX=26
##MAXY=9999
##MINY=10
##NPOINTS=72
##PEAK TABLE=(XY..XY)
26,20 27,150 28,100 29,270
39,150 40,30 41,731 42,250
43,1281 44,60 45,20 50,10
51,60 52,30 53,70 54,30
55,1471 56,380 57,3904 58,180
63,30 65,90 66,20 67,100
68,30 69,390 70,150 71,3984
72,230 73,110 77,500 78,150
79,180 81,40 83,120 84,110
85,30 89,20 91,230 92,20
93,50 94,90 95,140 97,20
100,40 101,9999 102,480 103,240
104,30 105,200 106,20 107,1641
108,130 111,40 112,70 113,1031
114,90 119,30 120,40 121,240
122,5775 123,1231 124,90 132,10
135,30 177,170 178,30 205,1852
206,250 213,2322 214,310 215,20
##END=
