##TITLE=Malonic acid, 2-butyl hexyl ester
##JCAMP-DX=4.24
##DATA TYPE=MASS SPECTRUM
##ORIGIN=L.N.Kulikova, V.G. Zaikin, RPFU, Moscow, Russia
##OWNER=NIST Mass Spectrometry Data Center
Collection (C) 2014 copyright by the U.S. Secretary of Commerce
on behalf of the United States of America. All rights reserved.
##$NIST MASS SPEC NO=349071
##MOLFORM=C13 H24 O4
##MW=244
##$NIST SOURCE=MSDC
##XUNITS=M/Z
##YUNITS=RELATIVE INTENSITY
##XFACTOR=1
##YFACTOR=1
##FIRSTX=27
##LASTX=215
##FIRSTY=60
##MAXX=215
##MINX=27
##MAXY=9999
##MINY=10
##NPOINTS=66
##PEAK TABLE=(XY..XY)
27,60 28,40 29,120 39,120
40,30 41,1031 42,380 43,1271
53,70 54,110 55,1171 56,2182
57,2622 58,100 60,150 61,360
67,170 68,40 69,500 70,90
71,140 72,50 73,460 74,10
81,20 82,180 83,621 84,1031
85,1621 86,150 87,2482 88,90
89,20 91,190 93,60 97,20
99,50 100,50 101,130 102,20
104,40 105,9999 106,380 107,100
111,440 112,40 113,20 116,30
117,150 125,460 126,30 127,40
129,160 132,20 143,240 144,40
145,30 147,20 153,30 161,100
171,3653 172,370 173,40 189,200
201,30 215,50
##END=
