##TITLE=Malonic acid, 2-decyl heptyl ester
##JCAMP-DX=4.24
##DATA TYPE=MASS SPECTRUM
##ORIGIN=L.N.Kulikova, V.G. Zaikin, RPFU, Moscow, Russia
##OWNER=NIST Mass Spectrometry Data Center
Collection (C) 2014 copyright by the U.S. Secretary of Commerce
on behalf of the United States of America. All rights reserved.
##$NIST MASS SPEC NO=349093
##MOLFORM=C20 H38 O4
##MW=342
##$NIST SOURCE=MSDC
##XUNITS=M/Z
##YUNITS=RELATIVE INTENSITY
##XFACTOR=1
##YFACTOR=1
##FIRSTX=26
##LASTX=229
##FIRSTY=30
##MAXX=229
##MINX=26
##MAXY=9999
##MINY=10
##NPOINTS=72
##PEAK TABLE=(XY..XY)
26,30 27,190 29,470 39,180
40,30 41,1251 42,631 43,1822
53,70 54,190 55,1792 56,1541
57,5055 58,250 59,20 60,60
61,300 67,200 68,340 69,1291
70,1531 71,971 72,50 81,130
82,250 83,781 84,561 85,861
86,70 87,1041 88,30 95,40
96,220 97,1011 98,1211 99,530
100,50 101,40 102,80 103,320
104,40 105,9999 106,360 107,90
110,50 111,490 112,270 113,50
114,20 115,40 116,10 125,240
126,30 131,30 132,20 139,70
140,781 141,520 142,60 156,170
157,581 158,60 159,40 167,50
185,3493 186,390 187,40 200,20
203,1281 204,140 227,30 229,50
##END=
