##TITLE=Malonic acid, 2-hexyl pentadecyl ester
##JCAMP-DX=4.24
##DATA TYPE=MASS SPECTRUM
##ORIGIN=L.N.Kulikova, V.G. Zaikin, RPFU, Moscow, Russia
##OWNER=NIST Mass Spectrometry Data Center
Collection (C) 2014 copyright by the U.S. Secretary of Commerce
on behalf of the United States of America. All rights reserved.
##$NIST MASS SPEC NO=349328
##MOLFORM=C24 H46 O4
##MW=398
##$NIST SOURCE=MSDC
##XUNITS=M/Z
##YUNITS=RELATIVE INTENSITY
##XFACTOR=1
##YFACTOR=1
##FIRSTX=26
##LASTX=315
##FIRSTY=40
##MAXX=315
##MINX=26
##MAXY=9999
##MINY=10
##NPOINTS=85
##PEAK TABLE=(XY..XY)
26,40 27,240 28,180 29,460
31,10 39,210 40,50 41,1251
42,591 43,3143 44,90 45,140
53,70 54,250 55,1972 56,1211
57,2402 58,120 60,50 61,110
66,20 67,350 68,420 69,1732
70,831 71,1351 72,70 79,10
80,20 81,230 82,811 83,1702
84,1391 85,1571 86,100 87,761
88,20 89,60 95,150 96,310
97,1371 98,390 99,240 100,90
101,310 102,40 103,130 104,50
105,9999 106,340 107,80 109,60
110,120 111,811 112,240 113,160
115,20 123,20 124,70 125,410
126,170 127,110 138,40 139,160
140,100 141,60 145,30 152,20
153,90 154,70 155,40 167,20
168,20 171,30 182,270 183,30
189,90 209,110 210,370 211,100
279,120 280,20 297,280 298,50
315,20
##END=
