##TITLE=Malonic acid, 2-decyl octyl ester
##JCAMP-DX=4.24
##DATA TYPE=MASS SPECTRUM
##ORIGIN=L.N.Kulikova, V.G. Zaikin, RPFU, Moscow, Russia
##OWNER=NIST Mass Spectrometry Data Center
Collection (C) 2014 copyright by the U.S. Secretary of Commerce
on behalf of the United States of America. All rights reserved.
##$NIST MASS SPEC NO=349094
##MOLFORM=C21 H40 O4
##MW=356
##$NIST SOURCE=MSDC
##XUNITS=M/Z
##YUNITS=RELATIVE INTENSITY
##XFACTOR=1
##YFACTOR=1
##FIRSTX=26
##LASTX=285
##FIRSTY=20
##MAXX=285
##MINX=26
##MAXY=9999
##MINY=20
##NPOINTS=80
##PEAK TABLE=(XY..XY)
26,20 27,140 28,130 29,340
39,150 40,30 41,1051 42,550
43,1732 44,40 53,70 54,170
55,1571 56,1261 57,3103 58,170
59,20 60,50 61,210 67,230
68,300 69,1351 70,1291 71,2662
72,160 81,140 82,390 83,1091
84,1081 85,831 86,60 87,861
88,30 95,60 96,190 97,871
98,420 99,150 100,30 101,30
102,60 103,320 104,40 105,9999
106,350 107,80 110,100 111,631
112,991 113,340 114,40 115,40
125,50 127,20 129,20 131,40
132,20 138,20 139,130 140,801
141,480 142,50 153,20 155,20
156,170 157,561 158,60 167,20
173,20 181,20 199,3073 200,380
201,50 217,1101 218,130 227,50
243,30 245,20 271,20 285,20
##END=
