##TITLE=Succinic acid, 2-ethylbutyl octyl ester
##JCAMP-DX=4.24
##DATA TYPE=MASS SPECTRUM
##ORIGIN=L.N.Kulikova, V.G. Zaikin, RPFU, Moscow, Russia
##OWNER=NIST Mass Spectrometry Data Center
Collection (C) 2014 copyright by the U.S. Secretary of Commerce
on behalf of the United States of America. All rights reserved.
##$NIST MASS SPEC NO=349203
##MOLFORM=C18 H34 O4
##MW=314
##$NIST SOURCE=MSDC
##XUNITS=M/Z
##YUNITS=RELATIVE INTENSITY
##XFACTOR=1
##YFACTOR=1
##FIRSTX=26
##LASTX=285
##FIRSTY=30
##MAXX=285
##MINX=26
##MAXY=9999
##MINY=20
##NPOINTS=63
##PEAK TABLE=(XY..XY)
26,30 27,270 29,601 30,20
31,20 39,190 40,30 41,1201
42,571 43,3073 45,70 53,70
54,110 55,1351 56,1251 57,2532
58,100 59,30 67,120 68,130
69,1341 70,571 71,2112 72,110
73,180 74,260 75,130 81,30
82,110 83,430 84,2492 85,3663
86,230 97,50 99,20 100,80
101,9999 102,450 103,70 110,20
111,50 112,230 113,761 114,340
115,80 118,30 119,4064 120,180
121,30 127,20 128,30 129,20
132,80 146,20 155,50 185,80
186,110 203,210 213,370 214,40
231,280 232,20 285,20
##END=
