##TITLE=Adipic acid, heptyl 4-heptyl ester
##JCAMP-DX=4.24
##DATA TYPE=MASS SPECTRUM
##ORIGIN=L.N.Kulikova, V.G. Zaikin, RPFU, Moscow, Russia
##OWNER=NIST Mass Spectrometry Data Center
Collection (C) 2014 copyright by the U.S. Secretary of Commerce
on behalf of the United States of America. All rights reserved.
##$NIST MASS SPEC NO=349741
##MOLFORM=C20 H38 O4
##MW=342
##$NIST SOURCE=MSDC
##XUNITS=M/Z
##YUNITS=RELATIVE INTENSITY
##XFACTOR=1
##YFACTOR=1
##FIRSTX=26
##LASTX=245
##FIRSTY=20
##MAXX=245
##MINX=26
##MAXY=9999
##MINY=20
##NPOINTS=67
##PEAK TABLE=(XY..XY)
26,20 27,130 29,250 39,90
40,30 41,641 42,230 43,821
44,90 45,20 53,40 54,80
55,2492 56,681 57,1782 58,70
59,110 60,30 61,210 67,60
68,90 69,420 70,450 71,120
73,250 81,30 82,20 83,430
84,180 85,70 87,350 96,30
97,70 98,961 99,120 100,520
101,941 102,410 103,230 111,1992
112,290 113,30 114,70 115,260
116,20 127,30 128,320 129,9999
130,711 131,90 143,90 146,40
147,891 148,50 171,40 184,40
185,581 186,60 198,280 199,40
200,120 226,30 227,5505 228,801
229,70 244,170 245,130
##END=
