##TITLE=Succinic acid, eicosyl 3-methylpentyl ester
##JCAMP-DX=4.24
##DATA TYPE=MASS SPECTRUM
##ORIGIN=L.N.Kulikova, V.G. Zaikin, RPFU, Moscow, Russia
##OWNER=NIST Mass Spectrometry Data Center
Collection (C) 2014 copyright by the U.S. Secretary of Commerce
on behalf of the United States of America. All rights reserved.
##$NIST MASS SPEC NO=349546
##MOLFORM=C30 H58 O4
##MW=482
##$NIST SOURCE=MSDC
##XUNITS=M/Z
##YUNITS=RELATIVE INTENSITY
##XFACTOR=1
##YFACTOR=1
##FIRSTX=26
##LASTX=454
##FIRSTY=80
##MAXX=454
##MINX=26
##MAXY=9999
##MINY=10
##NPOINTS=93
##PEAK TABLE=(XY..XY)
26,80 27,230 29,450 36,30
38,10 39,220 40,30 41,1161
42,340 43,3413 44,150 53,70
54,230 55,1992 56,1121 57,2662
58,90 67,380 68,320 69,1902
70,601 71,1321 72,40 73,90
74,70 75,70 77,20 79,60
80,20 81,250 82,490 83,1371
84,1531 85,9999 86,641 91,20
95,140 96,170 97,1031 98,230
99,300 100,60 101,4004 102,160
103,30 109,50 110,80 111,490
112,140 113,190 117,20 118,20
119,3273 120,130 123,20 124,40
125,190 126,70 127,170 128,70
129,80 138,20 139,70 140,50
141,120 145,20 147,20 153,20
154,30 155,130 169,80 183,60
185,921 186,70 197,60 203,3863
204,400 205,30 211,40 212,20
225,20 230,20 240,20 253,30
281,510 282,50 380,30 381,20
399,270 400,40 425,80 453,110
454,20
##END=
