##TITLE=Malonic acid, 4-methylpent-2-yl octyl ester
##JCAMP-DX=4.24
##DATA TYPE=MASS SPECTRUM
##ORIGIN=L.N.Kulikova, V.G. Zaikin, RPFU, Moscow, Russia
##OWNER=NIST Mass Spectrometry Data Center
Collection (C) 2014 copyright by the U.S. Secretary of Commerce
on behalf of the United States of America. All rights reserved.
##$NIST MASS SPEC NO=349336
##MOLFORM=C17 H32 O4
##MW=300
##$NIST SOURCE=MSDC
##XUNITS=M/Z
##YUNITS=RELATIVE INTENSITY
##XFACTOR=1
##YFACTOR=1
##FIRSTX=26
##LASTX=257
##FIRSTY=60
##MAXX=257
##MINX=26
##MAXY=9999
##MINY=20
##NPOINTS=72
##PEAK TABLE=(XY..XY)
26,60 27,540 29,951 30,30
39,440 40,110 41,2632 42,1221
43,5385 45,230 53,110 54,170
55,1521 56,1511 57,5085 58,150
59,70 60,120 61,430 65,20
66,20 67,260 68,350 69,3914
70,1151 71,3713 72,200 81,110
82,350 83,1091 84,4914 85,7357
86,530 87,1501 88,30 89,20
95,20 97,60 100,180 101,961
102,70 103,70 104,50 105,9999
106,340 107,80 110,60 111,240
112,1101 113,450 114,30 115,50
127,40 128,20 129,50 131,40
132,20 139,170 145,100 155,30
157,20 173,20 181,20 189,40
199,4034 200,460 201,30 217,290
218,20 229,20 243,30 257,20
##END=
