##TITLE=Malonic acid, dodecyl 2-methylpentyl ester
##JCAMP-DX=4.24
##DATA TYPE=MASS SPECTRUM
##ORIGIN=L.N.Kulikova, V.G. Zaikin, RPFU, Moscow, Russia
##OWNER=NIST Mass Spectrometry Data Center
Collection (C) 2014 copyright by the U.S. Secretary of Commerce
on behalf of the United States of America. All rights reserved.
##$NIST MASS SPEC NO=349304
##MOLFORM=C21 H40 O4
##MW=356
##$NIST SOURCE=MSDC
##XUNITS=M/Z
##YUNITS=RELATIVE INTENSITY
##XFACTOR=1
##YFACTOR=1
##FIRSTX=26
##LASTX=327
##FIRSTY=20
##MAXX=327
##MINX=26
##MAXY=9999
##MINY=10
##NPOINTS=98
##PEAK TABLE=(XY..XY)
26,20 27,160 29,270 31,20
39,170 40,40 41,1171 42,400
43,2863 44,250 45,50 53,100
54,250 55,2002 56,1331 57,3713
58,200 59,220 60,60 61,440
65,20 66,40 67,480 68,591
69,2993 70,1221 71,2783 72,180
73,140 79,40 80,30 81,290
82,1021 83,2042 84,3563 85,8598
86,621 87,1661 88,50 89,130
91,20 94,20 95,180 96,410
97,2042 98,661 99,691 100,320
101,1391 102,100 103,20 104,60
105,9999 106,370 107,90 109,90
110,170 111,1341 112,420 113,500
114,40 115,40 116,30 117,60
123,30 124,80 125,480 126,200
127,210 128,30 129,20 130,200
131,270 132,40 138,50 139,120
140,751 141,70 142,10 145,40
159,30 166,40 167,470 168,1161
169,370 170,30 185,10 189,40
195,30 237,70 255,4804 256,811
257,80 273,120 298,90 299,30
313,20 327,40
##END=
