##TITLE=Succinic acid, 4-heptyl isohexyl ester
##JCAMP-DX=4.24
##DATA TYPE=MASS SPECTRUM
##ORIGIN=L.N.Kulikova, V.G. Zaikin, RPFU, Moscow, Russia
##OWNER=NIST Mass Spectrometry Data Center
Collection (C) 2014 copyright by the U.S. Secretary of Commerce
on behalf of the United States of America. All rights reserved.
##$NIST MASS SPEC NO=349268
##MOLFORM=C17 H32 O4
##MW=300
##$NIST SOURCE=MSDC
##XUNITS=M/Z
##YUNITS=RELATIVE INTENSITY
##XFACTOR=1
##YFACTOR=1
##FIRSTX=26
##LASTX=217
##FIRSTY=30
##MAXX=217
##MINX=26
##MAXY=9999
##MINY=10
##NPOINTS=56
##PEAK TABLE=(XY..XY)
26,30 27,270 28,180 29,450
31,20 39,140 40,20 41,831
42,210 43,2302 45,90 53,50
54,60 55,761 56,1001 57,2132
58,100 59,40 67,30 68,30
69,671 70,270 72,40 73,260
74,250 75,10 83,60 84,1171
85,6336 86,430 87,10 98,530
99,1131 100,160 101,9999 102,470
103,120 114,450 115,1001 116,70
118,40 119,2522 120,100 131,20
132,230 155,20 158,80 173,100
174,10 185,1111 186,100 199,250
200,20 202,30 203,130 217,10
##END=
