##TITLE=Malonic acid, 2,4-dimethylpent-3-yl hexyl ester
##JCAMP-DX=4.24
##DATA TYPE=MASS SPECTRUM
##ORIGIN=L.N.Kulikova, V.G. Zaikin, RPFU, Moscow, Russia
##OWNER=NIST Mass Spectrometry Data Center
Collection (C) 2014 copyright by the U.S. Secretary of Commerce
on behalf of the United States of America. All rights reserved.
##$NIST MASS SPEC NO=349013
##MOLFORM=C16 H30 O4
##MW=286
##$NIST SOURCE=MSDC
##XUNITS=M/Z
##YUNITS=RELATIVE INTENSITY
##XFACTOR=1
##YFACTOR=1
##FIRSTX=27
##LASTX=244
##FIRSTY=50
##MAXX=244
##MINX=27
##MAXY=9999
##MINY=20
##NPOINTS=67
##PEAK TABLE=(XY..XY)
27,50 28,20 29,60 39,40
41,170 42,50 43,190 44,40
54,20 55,260 56,270 57,1661
58,80 60,30 61,60 67,100
68,20 69,270 70,110 71,490
72,120 73,190 81,20 82,100
83,1581 84,571 85,3153 86,250
87,2783 88,110 89,20 97,40
98,731 99,1431 100,150 101,150
105,1551 106,50 111,701 112,120
113,100 114,120 115,1531 116,120
125,190 129,60 130,230 131,330
132,30 133,30 135,40 137,30
141,30 145,20 153,80 159,210
160,20 171,9999 172,1071 173,110
185,20 189,110 214,60 215,110
242,30 243,621 244,90
##END=
