##TITLE=Malonic acid, 2-butyl undecyl ester
##JCAMP-DX=4.24
##DATA TYPE=MASS SPECTRUM
##ORIGIN=L.N.Kulikova, V.G. Zaikin, RPFU, Moscow, Russia
##OWNER=NIST Mass Spectrometry Data Center
Collection (C) 2014 copyright by the U.S. Secretary of Commerce
on behalf of the United States of America. All rights reserved.
##$NIST MASS SPEC NO=349076
##MOLFORM=C18 H34 O4
##MW=314
##$NIST SOURCE=MSDC
##XUNITS=M/Z
##YUNITS=RELATIVE INTENSITY
##XFACTOR=1
##YFACTOR=1
##FIRSTX=26
##LASTX=259
##FIRSTY=40
##MAXX=259
##MINX=26
##MAXY=9999
##MINY=20
##NPOINTS=70
##PEAK TABLE=(XY..XY)
26,40 27,240 28,290 29,721
31,30 39,210 40,50 41,1441
42,540 43,1431 44,100 45,70
53,70 54,200 55,1581 56,1581
57,3163 58,130 59,20 60,90
61,120 67,250 68,370 69,1241
70,961 71,1171 72,90 73,250
81,140 82,500 83,1191 84,661
85,941 86,60 87,1241 88,40
89,40 91,20 95,70 96,170
97,1031 98,350 99,270 100,20
102,20 104,40 105,9999 106,340
107,80 109,20 110,60 111,380
112,150 113,120 116,20 117,60
124,20 125,230 126,460 127,40
132,20 143,70 153,50 154,440
155,140 161,300 162,20 241,761
242,110 259,30
##END=
