##TITLE=Succinic acid, dodecyl 3-ethylphenyl ester
##JCAMP-DX=4.24
##DATA TYPE=MASS SPECTRUM
##ORIGIN=L.N.Kulikova, V.G. Zaikin, RPFU, Moscow, Russia
##OWNER=NIST Mass Spectrometry Data Center
Collection (C) 2014 copyright by the U.S. Secretary of Commerce
on behalf of the United States of America. All rights reserved.
##$NIST MASS SPEC NO=349665
##MOLFORM=C24 H38 O4
##MW=390
##$NIST SOURCE=MSDC
##XUNITS=M/Z
##YUNITS=RELATIVE INTENSITY
##XFACTOR=1
##YFACTOR=1
##FIRSTX=26
##LASTX=290
##FIRSTY=60
##MAXX=290
##MINX=26
##MAXY=9999
##MINY=20
##NPOINTS=89
##PEAK TABLE=(XY..XY)
26,60 27,310 28,220 29,571
39,280 40,50 41,1501 42,440
43,3103 44,90 45,20 50,30
51,80 52,40 53,130 54,110
55,2732 56,861 57,7457 58,330
63,40 64,20 65,130 66,30
67,200 68,110 69,1241 70,430
71,5635 72,310 73,140 74,20
77,681 78,220 79,250 81,90
82,100 83,651 84,200 85,4464
86,290 89,20 91,310 92,40
93,90 94,140 95,220 96,40
97,400 98,110 99,1742 100,200
101,9999 102,480 103,300 104,40
105,300 106,30 107,2232 108,170
109,20 111,180 112,50 113,1291
114,100 120,40 121,330 122,9248
123,2412 124,190 125,50 126,20
127,561 128,40 132,30 135,60
140,80 168,50 169,2002 170,260
177,170 178,30 205,2372 206,310
223,80 269,1922 270,330 271,30
290,30
##END=
