##TITLE=Succinic acid, 2-methylpent-3-yl tridecyl ester
##JCAMP-DX=4.24
##DATA TYPE=MASS SPECTRUM
##ORIGIN=L.N.Kulikova, V.G. Zaikin, RPFU, Moscow, Russia
##OWNER=NIST Mass Spectrometry Data Center
Collection (C) 2014 copyright by the U.S. Secretary of Commerce
on behalf of the United States of America. All rights reserved.
##$NIST MASS SPEC NO=349393
##MOLFORM=C23 H44 O4
##MW=384
##$NIST SOURCE=MSDC
##XUNITS=M/Z
##YUNITS=RELATIVE INTENSITY
##XFACTOR=1
##YFACTOR=1
##FIRSTX=26
##LASTX=302
##FIRSTY=80
##MAXX=302
##MINX=26
##MAXY=9999
##MINY=10
##NPOINTS=77
##PEAK TABLE=(XY..XY)
26,80 27,420 29,801 31,20
39,340 40,60 41,2042 42,611
43,5395 44,180 45,60 53,110
54,210 55,2192 56,1501 57,4684
58,190 59,70 66,10 67,360
68,370 69,2662 70,1011 71,3133
72,150 73,190 74,310 75,270
81,160 82,520 83,1371 84,2622
85,8468 86,520 95,70 96,190
97,991 98,330 99,1081 100,470
101,9999 102,430 103,40 109,10
110,80 111,470 112,180 113,901
114,40 118,90 119,9298 120,370
121,50 124,30 125,220 126,100
127,651 128,20 129,10 139,30
140,30 141,260 146,10 153,10
154,150 180,10 182,290 183,2142
184,260 185,20 203,20 227,20
256,10 283,741 284,130 301,140
302,10
##END=
