##TITLE=Succinic acid, decyl 3,3-dimethylbut-2-yl ester
##JCAMP-DX=4.24
##DATA TYPE=MASS SPECTRUM
##ORIGIN=L.N.Kulikova, V.G. Zaikin, RPFU, Moscow, Russia
##OWNER=NIST Mass Spectrometry Data Center
Collection (C) 2014 copyright by the U.S. Secretary of Commerce
on behalf of the United States of America. All rights reserved.
##$NIST MASS SPEC NO=349515
##MOLFORM=C20 H38 O4
##MW=342
##$NIST SOURCE=MSDC
##XUNITS=M/Z
##YUNITS=RELATIVE INTENSITY
##XFACTOR=1
##YFACTOR=1
##FIRSTX=26
##LASTX=327
##FIRSTY=20
##MAXX=327
##MINX=26
##MAXY=9999
##MINY=10
##NPOINTS=68
##PEAK TABLE=(XY..XY)
26,20 27,120 29,260 39,110
40,30 41,871 42,260 43,2272
44,130 45,50 53,80 54,110
55,1261 56,1001 57,3243 58,140
67,200 68,200 69,1792 70,701
71,2352 72,110 73,130 74,420
75,420 81,80 82,260 83,741
84,1722 85,9999 86,711 87,110
95,40 96,110 97,450 98,200
99,691 100,160 101,9378 102,470
103,70 110,40 111,260 112,250
118,110 119,6286 120,290 121,50
125,30 128,240 129,140 138,20
140,530 141,1972 142,200 146,40
147,30 159,20 185,80 214,430
215,100 241,1591 242,220 243,10
259,160 286,120 287,50 327,110
##END=
