##TITLE=Succinic acid, 3-heptyl tetradecyl ester
##JCAMP-DX=4.24
##DATA TYPE=MASS SPECTRUM
##ORIGIN=L.N.Kulikova, V.G. Zaikin, RPFU, Moscow, Russia
##OWNER=NIST Mass Spectrometry Data Center
Collection (C) 2014 copyright by the U.S. Secretary of Commerce
on behalf of the United States of America. All rights reserved.
##$NIST MASS SPEC NO=349496
##MOLFORM=C25 H48 O4
##MW=412
##$NIST SOURCE=MSDC
##XUNITS=M/Z
##YUNITS=RELATIVE INTENSITY
##XFACTOR=1
##YFACTOR=1
##FIRSTX=26
##LASTX=316
##FIRSTY=40
##MAXX=316
##MINX=26
##MAXY=9999
##MINY=20
##NPOINTS=81
##PEAK TABLE=(XY..XY)
26,40 27,180 29,410 39,150
40,30 41,1081 42,310 43,1682
44,30 53,60 54,190 55,1641
56,1321 57,4234 58,200 59,30
67,260 68,310 69,1621 70,1021
71,2162 72,120 73,150 74,250
75,170 81,170 82,460 83,1281
84,470 85,1722 86,100 95,90
96,190 97,1031 98,1181 99,1261
100,190 101,9999 102,480 103,70
109,30 110,100 111,510 112,200
113,671 114,350 115,1131 116,80
117,20 118,130 119,9699 120,450
121,70 124,40 125,230 126,120
127,651 128,40 138,20 139,70
140,80 141,480 142,30 146,20
153,20 154,30 155,210 168,160
194,20 196,310 197,2582 198,370
199,130 213,20 217,80 241,40
297,1341 298,240 314,20 315,581
316,100
##END=
