##TITLE=Adipic acid, 4-heptyl tridecyl ester
##JCAMP-DX=4.24
##DATA TYPE=MASS SPECTRUM
##ORIGIN=L.N.Kulikova, V.G. Zaikin, RPFU, Moscow, Russia
##OWNER=NIST Mass Spectrometry Data Center
Collection (C) 2014 copyright by the U.S. Secretary of Commerce
on behalf of the United States of America. All rights reserved.
##$NIST MASS SPEC NO=349747
##MOLFORM=C26 H50 O4
##MW=426
##$NIST SOURCE=MSDC
##XUNITS=M/Z
##YUNITS=RELATIVE INTENSITY
##XFACTOR=1
##YFACTOR=1
##FIRSTX=26
##LASTX=329
##FIRSTY=30
##MAXX=329
##MINX=26
##MAXY=9999
##MINY=20
##NPOINTS=87
##PEAK TABLE=(XY..XY)
26,30 27,120 28,90 29,240
39,120 40,20 41,741 42,200
43,1041 44,60 53,50 54,130
55,1241 56,731 57,1882 58,70
59,100 60,20 61,70 67,180
68,200 69,841 70,490 71,571
72,40 73,240 81,110 82,260
83,801 84,330 85,390 86,40
87,310 95,60 96,120 97,480
98,661 99,130 100,490 101,901
102,370 103,240 109,30 110,50
111,1591 112,260 113,80 114,60
115,220 124,20 125,90 126,90
127,70 128,340 129,9999 130,671
131,90 138,20 139,30 140,30
141,20 144,40 146,50 147,1992
148,120 154,100 155,20 157,20
180,20 182,220 183,50 184,50
226,20 227,120 240,40 254,20
268,30 269,200 270,20 282,40
309,20 310,50 311,1842 312,350
313,30 328,40 329,40
##END=
