##TITLE=Malonic acid, di(2-decyl) ester
##JCAMP-DX=4.24
##DATA TYPE=MASS SPECTRUM
##ORIGIN=L.N.Kulikova, V.G. Zaikin, RPFU, Moscow, Russia
##OWNER=NIST Mass Spectrometry Data Center
Collection (C) 2014 copyright by the U.S. Secretary of Commerce
on behalf of the United States of America. All rights reserved.
##$NIST MASS SPEC NO=349101
##MOLFORM=C23 H44 O4
##MW=384
##$NIST SOURCE=MSDC
##XUNITS=M/Z
##YUNITS=RELATIVE INTENSITY
##XFACTOR=1
##YFACTOR=1
##FIRSTX=27
##LASTX=299
##FIRSTY=160
##MAXX=299
##MINX=27
##MAXY=9999
##MINY=20
##NPOINTS=75
##PEAK TABLE=(XY..XY)
27,160 29,320 39,180 40,30
41,921 42,420 43,1491 45,50
53,70 54,110 55,1261 56,951
57,1872 58,130 59,20 60,30
67,160 68,140 69,971 70,841
71,1571 72,90 81,90 82,180
83,691 84,550 85,1762 86,120
87,1131 88,30 89,40 95,40
96,160 97,811 98,500 99,390
100,30 102,160 103,220 105,9999
106,320 107,80 110,40 111,510
112,300 113,30 115,20 125,120
129,20 131,1321 132,80 138,30
139,60 140,1882 141,2632 142,290
143,70 144,20 156,110 157,1321
158,150 167,290 168,30 182,20
185,60 200,60 201,70 209,80
227,731 228,110 229,30 245,160
246,20 271,40 299,20
##END=
