##TITLE=Succinic acid, ethyl 2-methylpent-3-yl ester
##JCAMP-DX=4.24
##DATA TYPE=MASS SPECTRUM
##ORIGIN=L.N.Kulikova, V.G. Zaikin, RPFU, Moscow, Russia
##OWNER=NIST Mass Spectrometry Data Center
Collection (C) 2014 copyright by the U.S. Secretary of Commerce
on behalf of the United States of America. All rights reserved.
##$NIST MASS SPEC NO=349382
##MOLFORM=C12 H22 O4
##MW=230
##$NIST SOURCE=MSDC
##XUNITS=M/Z
##YUNITS=RELATIVE INTENSITY
##XFACTOR=1
##YFACTOR=1
##FIRSTX=26
##LASTX=147
##FIRSTY=40
##MAXX=147
##MINX=26
##MAXY=9999
##MINY=10
##NPOINTS=39
##PEAK TABLE=(XY..XY)
26,40 27,380 28,290 29,721
30,20 31,70 39,100 40,10
41,510 42,80 43,1391 44,40
45,160 53,20 55,540 56,390
57,260 58,40 59,80 69,811
70,40 71,20 73,410 74,100
75,20 83,20 84,721 85,2412
86,140 100,310 101,6456 102,571
103,50 128,70 129,9999 130,661
131,70 146,30 147,190
##END=
