##TITLE=Succinic acid, eicosyl 2-hexyl ester
##JCAMP-DX=4.24
##DATA TYPE=MASS SPECTRUM
##ORIGIN=L.N.Kulikova, V.G. Zaikin, RPFU, Moscow, Russia
##OWNER=NIST Mass Spectrometry Data Center
Collection (C) 2014 copyright by the U.S. Secretary of Commerce
on behalf of the United States of America. All rights reserved.
##$NIST MASS SPEC NO=349568
##MOLFORM=C30 H58 O4
##MW=482
##$NIST SOURCE=MSDC
##XUNITS=M/Z
##YUNITS=RELATIVE INTENSITY
##XFACTOR=1
##YFACTOR=1
##FIRSTX=26
##LASTX=400
##FIRSTY=70
##MAXX=400
##MINX=26
##MAXY=9999
##MINY=20
##NPOINTS=103
##PEAK TABLE=(XY..XY)
26,70 27,250 29,440 39,230
40,50 41,1131 42,520 43,2903
44,180 45,70 53,80 54,250
55,2042 56,1151 57,2722 58,130
66,20 67,380 68,400 69,1702
70,681 71,1682 72,80 73,110
74,270 75,190 77,20 79,50
80,20 81,280 82,641 83,1661
84,1181 85,2022 86,120 91,20
95,180 96,290 97,1401 98,300
99,470 100,180 101,8197 102,360
103,60 109,80 110,130 111,741
112,200 113,340 116,20 117,30
118,190 119,9999 120,450 121,80
123,40 124,80 125,340 126,130
127,270 128,20 129,20 137,20
138,50 139,140 140,90 141,220
146,20 152,30 153,70 154,60
155,190 166,20 167,40 168,40
169,160 181,20 182,30 183,150
185,140 196,20 197,140 203,370
204,30 211,110 212,30 225,70
226,20 239,30 240,20 252,70
278,30 280,140 281,1031 282,240
325,30 380,40 381,270 382,60
398,20 399,260 400,50
##END=
