##TITLE=Succinic acid, docosyl ethyl ester
##JCAMP-DX=4.24
##DATA TYPE=MASS SPECTRUM
##ORIGIN=L.N.Kulikova, V.G. Zaikin, RPFU, Moscow, Russia
##OWNER=NIST Mass Spectrometry Data Center
Collection (C) 2014 copyright by the U.S. Secretary of Commerce
on behalf of the United States of America. All rights reserved.
##$NIST MASS SPEC NO=349571
##MOLFORM=C28 H54 O4
##MW=454
##$NIST SOURCE=MSDC
##XUNITS=M/Z
##YUNITS=RELATIVE INTENSITY
##XFACTOR=1
##YFACTOR=1
##FIRSTX=26
##LASTX=408
##FIRSTY=20
##MAXX=408
##MINX=26
##MAXY=9999
##MINY=10
##NPOINTS=75
##PEAK TABLE=(XY..XY)
26,20 27,110 29,320 39,70
41,550 42,170 43,1101 44,30
45,30 47,20 53,30 54,160
55,1111 56,450 57,1251 58,50
67,220 68,220 69,861 70,360
71,701 72,30 73,140 74,90
75,20 81,150 82,250 83,821
84,230 85,450 86,20 95,100
96,140 97,661 98,150 99,100
100,80 101,4334 102,330 103,40
109,30 110,50 111,310 112,90
113,80 117,20 123,20 124,30
125,130 126,50 127,60 128,310
129,9999 130,681 131,80 138,20
139,30 140,40 141,30 146,90
147,5015 148,340 154,30 155,50
169,20 174,60 183,30 197,30
211,20 225,20 240,10 254,10
309,130 310,40 408,30
##END=
