##TITLE=Succinic acid, ethyl 3-heptyl ester
##JCAMP-DX=4.24
##DATA TYPE=MASS SPECTRUM
##ORIGIN=L.N.Kulikova, V.G. Zaikin, RPFU, Moscow, Russia
##OWNER=NIST Mass Spectrometry Data Center
Collection (C) 2014 copyright by the U.S. Secretary of Commerce
on behalf of the United States of America. All rights reserved.
##$NIST MASS SPEC NO=349483
##MOLFORM=C13 H24 O4
##MW=244
##$NIST SOURCE=MSDC
##XUNITS=M/Z
##YUNITS=RELATIVE INTENSITY
##XFACTOR=1
##YFACTOR=1
##FIRSTX=26
##LASTX=199
##FIRSTY=30
##MAXX=199
##MINX=26
##MAXY=9999
##MINY=20
##NPOINTS=48
##PEAK TABLE=(XY..XY)
26,30 27,260 28,250 29,631
30,20 31,40 39,90 41,500
42,110 43,320 44,70 45,90
53,30 54,40 55,591 56,540
57,1131 58,70 59,50 67,20
68,20 69,340 70,250 71,20
73,320 74,120 75,20 83,40
85,30 97,20 98,390 99,310
100,100 101,6416 102,520 103,50
114,210 115,841 116,60 128,60
129,9999 130,661 131,80 144,20
146,30 147,500 148,20 199,30
##END=
