##TITLE=Succinic acid, di(2-heptyl) ester
##JCAMP-DX=4.24
##DATA TYPE=MASS SPECTRUM
##ORIGIN=L.N.Kulikova, V.G. Zaikin, RPFU, Moscow, Russia
##OWNER=NIST Mass Spectrometry Data Center
Collection (C) 2014 copyright by the U.S. Secretary of Commerce
on behalf of the United States of America. All rights reserved.
##$NIST MASS SPEC NO=349482
##MOLFORM=C18 H34 O4
##MW=314
##$NIST SOURCE=MSDC
##XUNITS=M/Z
##YUNITS=RELATIVE INTENSITY
##XFACTOR=1
##YFACTOR=1
##FIRSTX=26
##LASTX=217
##FIRSTY=50
##MAXX=217
##MINX=26
##MAXY=9999
##MINY=20
##NPOINTS=50
##PEAK TABLE=(XY..XY)
26,50 27,400 28,300 29,751
39,260 40,60 41,1291 42,350
43,1181 44,30 45,210 53,70
54,80 55,1081 56,1191 57,3974
58,200 59,20 67,50 68,50
69,510 70,430 71,90 73,220
74,310 75,40 81,30 83,160
97,100 98,1001 99,2552 100,290
101,9999 102,450 103,60 114,100
115,1351 116,110 118,80 119,3093
120,140 121,20 143,50 145,150
172,80 173,20 199,1551 200,180
201,20 217,140
##END=
