##TITLE=Succinic acid, 2-ethylbutyl heptadecyl ester
##JCAMP-DX=4.24
##DATA TYPE=MASS SPECTRUM
##ORIGIN=L.N.Kulikova, V.G. Zaikin, RPFU, Moscow, Russia
##OWNER=NIST Mass Spectrometry Data Center
Collection (C) 2014 copyright by the U.S. Secretary of Commerce
on behalf of the United States of America. All rights reserved.
##$NIST MASS SPEC NO=349212
##MOLFORM=C27 H52 O4
##MW=440
##$NIST SOURCE=MSDC
##XUNITS=M/Z
##YUNITS=RELATIVE INTENSITY
##XFACTOR=1
##YFACTOR=1
##FIRSTX=26
##LASTX=412
##FIRSTY=60
##MAXX=412
##MINX=26
##MAXY=9999
##MINY=10
##NPOINTS=124
##PEAK TABLE=(XY..XY)
26,60 27,240 29,500 30,10
31,10 39,220 40,10 41,1331
42,490 43,4164 45,40 51,10
53,90 54,260 55,2312 56,1401
57,3103 58,120 59,10 65,10
66,20 67,400 68,380 69,2132
70,811 71,1892 72,100 73,140
74,200 75,110 77,10 79,10
80,20 81,260 82,581 83,1631
84,2803 85,6856 86,430 91,10
93,10 94,10 95,160 96,160
97,1291 98,320 99,540 100,130
101,9619 102,440 103,80 109,70
110,120 111,641 112,210 113,350
114,260 115,180 116,20 117,30
118,170 119,9999 120,460 121,80
123,20 124,70 125,270 126,130
127,290 128,40 129,40 131,10
132,70 133,120 137,10 138,50
139,90 140,90 141,230 142,10
145,10 146,50 152,30 153,40
154,70 155,240 156,20 157,10
158,10 166,10 167,20 168,30
169,190 173,10 175,10 181,10
182,20 183,120 184,20 185,180
186,10 197,40 198,10 203,1501
204,150 205,10 210,70 212,20
226,20 230,10 236,10 238,110
239,811 240,160 243,10 254,20
268,20 283,10 338,40 339,110
357,320 358,50 411,60 412,10
##END=
