##TITLE=Succinic acid, 3-heptyl pentyl ester
##JCAMP-DX=4.24
##DATA TYPE=MASS SPECTRUM
##ORIGIN=L.N.Kulikova, V.G. Zaikin, RPFU, Moscow, Russia
##OWNER=NIST Mass Spectrometry Data Center
Collection (C) 2014 copyright by the U.S. Secretary of Commerce
on behalf of the United States of America. All rights reserved.
##$NIST MASS SPEC NO=349487
##MOLFORM=C16 H30 O4
##MW=286
##$NIST SOURCE=MSDC
##XUNITS=M/Z
##YUNITS=RELATIVE INTENSITY
##XFACTOR=1
##YFACTOR=1
##FIRSTX=27
##LASTX=199
##FIRSTY=140
##MAXX=199
##MINX=27
##MAXY=9999
##MINY=20
##NPOINTS=46
##PEAK TABLE=(XY..XY)
27,140 28,130 29,340 39,90
40,20 41,490 42,280 43,1151
45,70 53,20 54,30 55,360
56,410 57,1041 58,60 67,20
68,30 69,270 70,480 71,991
72,40 73,100 74,280 75,140
83,20 85,40 98,420 99,370
100,60 101,9999 102,450 103,90
114,210 115,711 116,40 119,1011
120,40 144,110 145,20 171,2913
172,280 173,30 188,20 189,430
190,30 199,90
##END=
