##TITLE=Malonic acid, isohexyl 4-methylpent-2-yl ester
##JCAMP-DX=4.24
##DATA TYPE=MASS SPECTRUM
##ORIGIN=L.N.Kulikova, V.G. Zaikin, RPFU, Moscow, Russia
##OWNER=NIST Mass Spectrometry Data Center
Collection (C) 2014 copyright by the U.S. Secretary of Commerce
on behalf of the United States of America. All rights reserved.
##$NIST MASS SPEC NO=349334
##MOLFORM=C15 H28 O4
##MW=272
##$NIST SOURCE=MSDC
##XUNITS=M/Z
##YUNITS=RELATIVE INTENSITY
##XFACTOR=1
##YFACTOR=1
##FIRSTX=26
##LASTX=189
##FIRSTY=30
##MAXX=189
##MINX=26
##MAXY=9999
##MINY=20
##NPOINTS=57
##PEAK TABLE=(XY..XY)
26,30 27,340 29,350 30,20
39,220 40,50 41,1211 42,671
43,4464 53,70 54,70 55,991
56,831 57,821 58,30 59,80
60,120 61,20 67,80 68,40
69,2342 70,200 71,190 72,50
82,40 83,250 84,4514 85,9999
86,681 87,811 88,20 90,40
100,110 101,691 102,40 105,2642
106,90 107,20 111,520 112,40
118,751 119,100 125,150 127,30
129,60 130,20 131,220 144,20
145,20 153,150 158,20 159,60
171,1752 172,170 186,20 188,60
189,60
##END=
