##TITLE=Malonic acid, 2,4-dimethylpent-3-yl heptadecyl ester
##JCAMP-DX=4.24
##DATA TYPE=MASS SPECTRUM
##ORIGIN=L.N.Kulikova, V.G. Zaikin, RPFU, Moscow, Russia
##OWNER=NIST Mass Spectrometry Data Center
Collection (C) 2014 copyright by the U.S. Secretary of Commerce
on behalf of the United States of America. All rights reserved.
##$NIST MASS SPEC NO=349023
##MOLFORM=C27 H52 O4
##MW=440
##$NIST SOURCE=MSDC
##XUNITS=M/Z
##YUNITS=RELATIVE INTENSITY
##XFACTOR=1
##YFACTOR=1
##FIRSTX=26
##LASTX=398
##FIRSTY=50
##MAXX=398
##MINX=26
##MAXY=9999
##MINY=20
##NPOINTS=123
##PEAK TABLE=(XY..XY)
26,50 27,310 28,170 29,430
31,30 36,40 39,380 40,90
41,1892 42,561 43,3623 44,430
45,40 51,30 53,130 54,320
55,2742 56,1641 57,9999 58,470
59,30 60,40 61,120 65,30
66,50 67,561 68,631 69,2262
70,1211 71,2742 72,260 73,711
74,20 77,40 78,20 79,110
80,60 81,470 82,1211 83,3743
84,821 85,1842 86,120 87,1772
88,50 89,190 91,50 93,30
94,20 95,300 96,330 97,2192
98,1902 99,2893 100,220 101,60
102,40 103,40 104,70 105,9769
106,350 107,100 109,140 110,220
111,1281 112,350 113,390 114,210
115,1221 116,100 117,20 119,20
123,80 124,140 125,751 126,220
127,230 128,20 130,180 131,370
132,40 135,30 137,20 138,90
139,350 140,170 141,240 142,30
147,20 149,20 151,20 152,50
153,200 154,120 155,130 159,70
166,30 167,120 168,80 169,80
180,20 181,80 182,60 183,40
193,20 196,20 197,20 210,300
211,20 236,30 237,110 238,601
239,180 307,400 308,60 325,3123
326,641 327,60 343,50 368,50
369,40 397,210 398,30
##END=
