##TITLE=Succinic acid, decyl 2-decyl ester
##JCAMP-DX=4.24
##DATA TYPE=MASS SPECTRUM
##ORIGIN=L.N.Kulikova, V.G. Zaikin, RPFU, Moscow, Russia
##OWNER=NIST Mass Spectrometry Data Center
Collection (C) 2014 copyright by the U.S. Secretary of Commerce
on behalf of the United States of America. All rights reserved.
##$NIST MASS SPEC NO=349430
##MOLFORM=C24 H46 O4
##MW=398
##$NIST SOURCE=MSDC
##XUNITS=M/Z
##YUNITS=RELATIVE INTENSITY
##XFACTOR=1
##YFACTOR=1
##FIRSTX=26
##LASTX=260
##FIRSTY=40
##MAXX=260
##MINX=26
##MAXY=9999
##MINY=10
##NPOINTS=64
##PEAK TABLE=(XY..XY)
26,40 27,250 29,561 39,210
40,50 41,1281 42,540 43,2452
44,100 45,60 53,70 54,180
55,1882 56,1421 57,3573 58,190
67,240 68,280 69,1361 70,1211
71,2863 72,140 73,150 74,350
75,260 81,130 82,380 83,1091
84,691 85,3083 86,190 95,60
96,180 97,991 98,490 99,791
100,140 101,9999 102,450 103,70
109,10 110,80 111,581 112,450
113,30 117,30 118,50 119,7777
120,340 121,50 138,40 140,1051
141,2993 142,310 156,190 157,751
158,60 214,70 215,20 241,2232
242,310 243,10 259,1722 260,240
##END=
