##TITLE=Succinic acid, dodecyl 3-hexyl ester
##JCAMP-DX=4.24
##DATA TYPE=MASS SPECTRUM
##ORIGIN=L.N.Kulikova, V.G. Zaikin, RPFU, Moscow, Russia
##OWNER=NIST Mass Spectrometry Data Center
Collection (C) 2014 copyright by the U.S. Secretary of Commerce
on behalf of the United States of America. All rights reserved.
##$NIST MASS SPEC NO=349451
##MOLFORM=C22 H42 O4
##MW=370
##$NIST SOURCE=MSDC
##XUNITS=M/Z
##YUNITS=RELATIVE INTENSITY
##XFACTOR=1
##YFACTOR=1
##FIRSTX=26
##LASTX=288
##FIRSTY=50
##MAXX=288
##MINX=26
##MAXY=9999
##MINY=20
##NPOINTS=66
##PEAK TABLE=(XY..XY)
26,50 27,280 29,550 31,20
39,200 40,40 41,1271 42,561
43,2963 44,20 45,60 53,80
54,170 55,1802 56,1181 57,2903
58,120 59,50 67,210 68,250
69,1331 70,691 71,2012 72,110
73,180 74,300 75,190 81,100
82,320 83,871 84,1191 85,2362
86,140 95,40 96,120 97,631
98,240 99,731 100,210 101,9999
102,430 103,70 110,50 111,320
112,130 113,550 114,30 118,70
119,6276 120,270 121,40 125,110
126,50 127,250 128,20 139,20
140,140 168,210 169,1311 170,150
185,130 203,60 269,601 270,90
287,210 288,20
##END=
