##TITLE=Succinic acid, heptadecyl 2-methylpent-3-yl ester
##JCAMP-DX=4.24
##DATA TYPE=MASS SPECTRUM
##ORIGIN=L.N.Kulikova, V.G. Zaikin, RPFU, Moscow, Russia
##OWNER=NIST Mass Spectrometry Data Center
Collection (C) 2014 copyright by the U.S. Secretary of Commerce
on behalf of the United States of America. All rights reserved.
##$NIST MASS SPEC NO=349397
##MOLFORM=C27 H52 O4
##MW=440
##$NIST SOURCE=MSDC
##XUNITS=M/Z
##YUNITS=RELATIVE INTENSITY
##XFACTOR=1
##YFACTOR=1
##FIRSTX=26
##LASTX=357
##FIRSTY=90
##MAXX=357
##MINX=26
##MAXY=9999
##MINY=10
##NPOINTS=85
##PEAK TABLE=(XY..XY)
26,90 27,280 29,500 39,270
40,50 41,1561 42,450 43,3863
45,30 51,20 53,100 54,220
55,2092 56,1381 57,3773 58,130
59,20 67,430 68,410 69,2512
70,921 71,2732 72,90 73,140
74,200 75,160 79,30 80,30
81,230 82,651 83,1621 84,1922
85,6296 86,340 91,20 95,140
96,300 97,1341 98,340 99,761
100,230 101,8898 102,320 103,30
105,10 109,40 110,70 111,651
112,190 113,581 114,10 118,100
119,9999 120,390 121,30 123,10
124,40 125,260 126,110 127,520
128,20 129,10 138,20 139,60
140,50 141,400 149,30 153,20
154,30 155,330 167,10 168,10
169,270 182,10 183,210 197,70
203,20 210,40 211,10 238,140
239,1601 240,230 339,480 340,50
357,90
##END=
