##TITLE=Adipic acid, 4-heptyl pentyl ester
##JCAMP-DX=4.24
##DATA TYPE=MASS SPECTRUM
##ORIGIN=L.N.Kulikova, V.G. Zaikin, RPFU, Moscow, Russia
##OWNER=NIST Mass Spectrometry Data Center
Collection (C) 2014 copyright by the U.S. Secretary of Commerce
on behalf of the United States of America. All rights reserved.
##$NIST MASS SPEC NO=349738
##MOLFORM=C18 H34 O4
##MW=314
##$NIST SOURCE=MSDC
##XUNITS=M/Z
##YUNITS=RELATIVE INTENSITY
##XFACTOR=1
##YFACTOR=1
##FIRSTX=26
##LASTX=227
##FIRSTY=50
##MAXX=227
##MINX=26
##MAXY=9999
##MINY=20
##NPOINTS=68
##PEAK TABLE=(XY..XY)
26,50 27,300 29,591 31,40
39,200 40,40 41,1101 42,571
43,1481 44,160 45,70 53,60
54,100 55,921 56,831 57,1541
58,80 59,230 60,90 61,90
67,60 68,110 69,510 70,1201
71,460 72,40 73,410 74,20
82,20 83,641 84,230 85,110
86,30 87,420 97,30 98,611
99,140 100,661 101,1291 102,500
103,210 110,20 111,2823 112,420
113,40 114,110 115,500 116,30
127,40 128,320 129,9999 130,741
131,110 143,80 146,20 147,380
157,561 158,40 170,360 171,40
172,190 198,50 199,5435 200,641
201,60 216,200 217,100 227,30
##END=
