##TITLE=Succinic acid, 2-decyl propyl ester
##JCAMP-DX=4.24
##DATA TYPE=MASS SPECTRUM
##ORIGIN=L.N.Kulikova, V.G. Zaikin, RPFU, Moscow, Russia
##OWNER=NIST Mass Spectrometry Data Center
Collection (C) 2014 copyright by the U.S. Secretary of Commerce
on behalf of the United States of America. All rights reserved.
##$NIST MASS SPEC NO=349422
##MOLFORM=C17 H32 O4
##MW=300
##$NIST SOURCE=MSDC
##XUNITS=M/Z
##YUNITS=RELATIVE INTENSITY
##XFACTOR=1
##YFACTOR=1
##FIRSTX=26
##LASTX=241
##FIRSTY=20
##MAXX=241
##MINX=26
##MAXY=9999
##MINY=20
##NPOINTS=58
##PEAK TABLE=(XY..XY)
26,20 27,240 28,130 29,330
31,20 39,130 40,30 41,801
42,320 43,1441 53,30 54,60
55,721 56,571 57,861 58,80
59,40 61,30 67,70 68,60
69,390 70,410 71,601 72,30
73,200 74,340 75,300 81,30
82,70 83,250 84,220 85,621
86,40 96,60 97,310 98,180
99,90 100,140 101,9999 102,430
103,90 111,180 112,110 116,350
117,30 119,210 140,320 141,971
142,110 143,7156 144,571 156,180
157,571 158,110 160,60 161,1742
162,130 241,30
##END=
