##TITLE=Succinic acid, decyl 4-heptyl ester
##JCAMP-DX=4.24
##DATA TYPE=MASS SPECTRUM
##ORIGIN=L.N.Kulikova, V.G. Zaikin, RPFU, Moscow, Russia
##OWNER=NIST Mass Spectrometry Data Center
Collection (C) 2014 copyright by the U.S. Secretary of Commerce
on behalf of the United States of America. All rights reserved.
##$NIST MASS SPEC NO=349273
##MOLFORM=C21 H40 O4
##MW=356
##$NIST SOURCE=MSDC
##XUNITS=M/Z
##YUNITS=RELATIVE INTENSITY
##XFACTOR=1
##YFACTOR=1
##FIRSTX=26
##LASTX=260
##FIRSTY=30
##MAXX=260
##MINX=26
##MAXY=9999
##MINY=10
##NPOINTS=72
##PEAK TABLE=(XY..XY)
26,30 27,200 28,160 29,420
31,20 39,160 40,30 41,1081
42,360 43,1661 44,90 45,50
53,60 54,130 55,1341 56,1221
57,3573 58,160 67,140 68,190
69,1041 70,851 71,1872 72,120
73,180 74,270 75,170 81,70
82,200 83,621 84,270 85,2112
86,140 95,30 96,70 97,410
98,1021 99,1071 100,160 101,9999
102,460 103,80 110,30 111,200
112,200 113,10 114,320 115,1321
116,90 118,50 119,5385 120,240
121,40 127,10 128,10 138,10
139,10 140,290 141,1882 142,190
146,10 157,10 159,10 185,10
199,80 214,40 217,10 241,1651
242,240 243,20 259,420 260,50
##END=
