##TITLE=Malonic acid, 2-decyl pentadecyl ester
##JCAMP-DX=4.24
##DATA TYPE=MASS SPECTRUM
##ORIGIN=L.N.Kulikova, V.G. Zaikin, RPFU, Moscow, Russia
##OWNER=NIST Mass Spectrometry Data Center
Collection (C) 2014 copyright by the U.S. Secretary of Commerce
on behalf of the United States of America. All rights reserved.
##$NIST MASS SPEC NO=349100
##MOLFORM=C28 H54 O4
##MW=454
##$NIST SOURCE=MSDC
##XUNITS=M/Z
##YUNITS=RELATIVE INTENSITY
##XFACTOR=1
##YFACTOR=1
##FIRSTX=26
##LASTX=316
##FIRSTY=30
##MAXX=316
##MINX=26
##MAXY=9999
##MINY=20
##NPOINTS=89
##PEAK TABLE=(XY..XY)
26,30 27,130 28,100 29,260
39,140 40,40 41,831 42,370
43,1661 44,90 45,170 53,60
54,200 55,1571 56,1071 57,2262
58,130 59,20 60,20 61,70
66,20 67,300 68,400 69,1571
70,1071 71,1641 72,90 79,30
80,20 81,230 82,761 83,1611
84,711 85,1351 86,90 87,510
89,50 95,140 96,320 97,1591
98,561 99,350 100,30 102,30
103,190 104,50 105,9999 106,360
107,90 109,60 110,160 111,921
112,370 113,190 114,20 115,30
123,30 124,70 125,370 126,160
127,140 138,60 139,170 140,731
141,350 142,30 152,30 153,90
154,70 155,60 156,120 157,300
158,30 167,40 168,30 169,30
182,320 183,40 209,120 210,510
211,190 212,20 245,30 279,250
280,40 297,651 298,130 315,440
316,80
##END=
