##TITLE=Succinic acid, 3,3-dimethylbut-2-yl heptyl ester
##JCAMP-DX=4.24
##DATA TYPE=MASS SPECTRUM
##ORIGIN=L.N.Kulikova, V.G. Zaikin, RPFU, Moscow, Russia
##OWNER=NIST Mass Spectrometry Data Center
Collection (C) 2014 copyright by the U.S. Secretary of Commerce
on behalf of the United States of America. All rights reserved.
##$NIST MASS SPEC NO=349512
##MOLFORM=C17 H32 O4
##MW=300
##$NIST SOURCE=MSDC
##XUNITS=M/Z
##YUNITS=RELATIVE INTENSITY
##XFACTOR=1
##YFACTOR=1
##FIRSTX=29
##LASTX=285
##FIRSTY=30
##MAXX=285
##MINX=29
##MAXY=9999
##MINY=10
##NPOINTS=52
##PEAK TABLE=(XY..XY)
29,30 39,40 41,440 42,150
43,1141 44,80 45,30 53,50
54,60 55,731 56,761 57,4084
58,200 67,70 68,80 69,1111
70,430 71,100 73,130 74,450
75,370 81,20 83,150 84,931
85,4994 86,350 87,90 96,20
97,110 98,450 99,1071 100,150
101,9999 102,490 103,70 115,10
118,50 119,2352 120,100 128,160
129,100 146,20 159,20 172,480
173,130 185,30 199,1842 200,210
217,130 244,110 245,30 285,50
##END=
