##TITLE=Malonic acid, heptadecyl 4-methylpent-2-yl ester
##JCAMP-DX=4.24
##DATA TYPE=MASS SPECTRUM
##ORIGIN=L.N.Kulikova, V.G. Zaikin, RPFU, Moscow, Russia
##OWNER=NIST Mass Spectrometry Data Center
Collection (C) 2014 copyright by the U.S. Secretary of Commerce
on behalf of the United States of America. All rights reserved.
##$NIST MASS SPEC NO=349344
##MOLFORM=C26 H50 O4
##MW=426
##$NIST SOURCE=MSDC
##XUNITS=M/Z
##YUNITS=RELATIVE INTENSITY
##XFACTOR=1
##YFACTOR=1
##FIRSTX=26
##LASTX=343
##FIRSTY=50
##MAXX=343
##MINX=26
##MAXY=9999
##MINY=10
##NPOINTS=101
##PEAK TABLE=(XY..XY)
26,50 27,260 28,170 29,430
39,320 40,70 41,1722 42,561
43,4194 44,230 45,210 51,20
53,90 54,290 55,1982 56,1241
57,3063 58,150 59,40 60,30
61,140 65,20 66,40 67,470
68,581 69,2813 70,1001 71,1531
72,90 73,20 77,50 78,20
79,70 80,50 81,320 82,961
83,2202 84,2492 85,5095 86,350
87,621 89,50 91,30 93,30
94,10 95,200 96,400 97,1722
98,450 99,290 100,80 101,280
102,20 103,40 104,40 105,9999
106,330 107,80 109,120 110,190
111,991 112,290 113,180 115,30
123,30 124,100 125,500 126,200
127,130 128,20 135,20 137,20
138,60 139,190 140,140 141,160
145,50 152,30 153,100 154,100
155,60 161,30 166,30 167,50
168,60 169,30 181,30 182,40
183,20 189,80 196,20 209,20
210,230 237,70 238,380 239,90
307,250 308,30 325,410 326,60
343,30
##END=
