##TITLE=1-Heneicosanol, TBDMS derivative
##JCAMP-DX=4.24
##DATA TYPE=MASS SPECTRUM
##ORIGIN=NIST Mass Spectrometry Data Center
##OWNER=NIST Mass Spectrometry Data Center
Collection (C) 2014 copyright by the U.S. Secretary of Commerce
on behalf of the United States of America. All rights reserved.
##$NIST MASS SPEC NO=351857
##MOLFORM=C27 H58 O Si
##MW=426
##$NIST SOURCE=MSDC
##XUNITS=M/Z
##YUNITS=RELATIVE INTENSITY
##XFACTOR=1
##YFACTOR=1
##FIRSTX=27
##LASTX=425
##FIRSTY=40
##MAXX=425
##MINX=27
##MAXY=9999
##MINY=10
##NPOINTS=148
##PEAK TABLE=(XY..XY)
27,40 29,180 39,60 41,641
42,140 43,1341 44,40 45,70
46,10 47,60 53,30 54,70
55,871 56,190 57,1591 58,150
59,320 60,40 61,380 62,20
63,20 65,10 66,10 67,220
68,80 69,881 70,110 71,761
72,60 73,1121 75,4764 76,350
77,310 78,20 79,40 80,10
81,230 82,100 83,1131 84,100
85,591 86,50 87,130 88,80
89,1231 90,110 91,50 92,10
93,20 94,10 95,210 96,70
97,1191 98,100 99,330 100,60
101,540 102,60 103,60 104,10
107,20 109,110 110,20 111,581
112,60 113,190 114,40 115,530
116,60 117,50 119,10 121,10
123,40 124,10 125,200 126,20
127,90 128,20 129,200 130,20
131,40 132,20 133,50 134,10
135,10 137,20 138,10 139,50
140,10 141,40 142,10 143,80
144,10 145,30 151,10 153,30
155,20 157,50 158,10 159,10
167,20 169,10 171,50 172,10
173,10 181,10 183,10 185,40
186,10 187,10 195,10 199,40
200,10 209,10 213,30 214,10
227,40 228,10 241,40 242,10
255,50 256,10 257,10 269,60
270,20 271,10 283,60 284,10
285,10 297,40 298,10 299,10
311,20 312,10 339,10 353,90
354,30 355,10 367,30 369,9999
370,3073 371,791 372,130 373,10
411,60 412,20 413,10 425,10
##END=
