##TITLE=1-Nonadecanol, TBDMS derivative
##JCAMP-DX=4.24
##DATA TYPE=MASS SPECTRUM
##ORIGIN=NIST Mass Spectrometry Data Center
##OWNER=NIST Mass Spectrometry Data Center
Collection (C) 2014 copyright by the U.S. Secretary of Commerce
on behalf of the United States of America. All rights reserved.
##$NIST MASS SPEC NO=351855
##MOLFORM=C25 H54 O Si
##MW=398
##$NIST SOURCE=MSDC
##XUNITS=M/Z
##YUNITS=RELATIVE INTENSITY
##XFACTOR=1
##YFACTOR=1
##FIRSTX=27
##LASTX=397
##FIRSTY=60
##MAXX=397
##MINX=27
##MAXY=9999
##MINY=10
##NPOINTS=145
##PEAK TABLE=(XY..XY)
27,60 29,230 30,10 39,70
41,771 42,160 43,1471 44,40
45,100 46,10 47,90 53,40
54,80 55,981 56,190 57,1641
58,170 59,410 60,50 61,450
62,30 63,20 65,10 66,10
67,240 68,90 69,991 70,110
71,741 72,70 73,1301 74,160
75,5525 76,400 77,330 78,20
79,40 80,20 81,250 82,100
83,1271 84,100 85,601 86,50
87,150 88,90 89,1451 90,130
91,60 92,10 93,30 94,10
95,220 96,70 97,1361 98,120
99,370 100,60 101,651 102,70
103,70 107,20 109,110 110,30
111,641 112,60 113,190 114,40
115,571 116,60 117,50 118,10
119,10 121,10 123,40 124,10
125,210 126,20 127,90 128,20
129,220 130,30 131,60 132,20
133,40 134,10 135,10 137,20
139,60 140,10 141,40 142,10
143,90 144,10 145,30 151,10
153,30 155,20 157,60 158,10
159,10 167,10 169,10 171,60
172,10 173,10 181,10 183,10
185,50 186,10 187,10 195,10
199,40 200,10 213,40 214,10
227,60 228,10 229,10 241,60
242,10 243,10 255,70 256,10
257,10 269,50 270,10 271,10
283,20 284,10 285,10 311,10
325,80 326,20 327,10 339,30
341,9999 342,2793 343,731 344,110
345,10 383,70 384,20 385,10
397,10
##END=
