##TITLE=1-Triacontanol, TMS derivative
##JCAMP-DX=4.24
##DATA TYPE=MASS SPECTRUM
##ORIGIN=NIST Mass Spectrometry Data Center
##OWNER=NIST Mass Spectrometry Data Center
Collection (C) 2014 copyright by the U.S. Secretary of Commerce
on behalf of the United States of America. All rights reserved.
##$NIST MASS SPEC NO=351844
##MOLFORM=C33 H70 O Si
##MW=510
##$NIST SOURCE=MSDC
##XUNITS=M/Z
##YUNITS=RELATIVE INTENSITY
##XFACTOR=1
##YFACTOR=1
##FIRSTX=27
##LASTX=510
##FIRSTY=50
##MAXX=510
##MINX=27
##MAXY=9999
##MINY=10
##NPOINTS=214
##PEAK TABLE=(XY..XY)
27,50 29,220 39,70 41,921
42,230 43,2572 44,80 45,130
46,10 47,60 53,50 54,170
55,1882 56,540 57,3763 58,230
59,260 60,40 61,530 62,30
63,20 65,10 66,20 67,430
68,340 69,1712 70,410 71,2072
72,190 73,2462 74,250 75,5285
76,390 77,420 78,30 79,70
80,40 81,460 82,470 83,2002
84,270 85,1381 86,90 87,150
88,100 89,1041 90,120 91,1551
92,130 93,90 94,20 95,390
96,280 97,1982 98,220 99,540
100,60 101,550 102,80 103,2793
104,250 105,110 106,10 107,30
108,10 109,210 110,90 111,1001
112,130 113,340 114,60 115,410
116,60 117,50 118,20 119,10
121,30 122,10 123,100 124,50
125,390 126,70 127,170 128,40
129,380 130,40 131,50 132,10
135,20 137,40 138,30 139,140
140,30 141,90 142,20 143,110
144,10 145,40 149,10 151,20
152,20 153,80 154,20 155,50
156,10 157,50 158,10 159,20
163,10 165,10 166,10 167,40
168,10 169,20 170,10 171,50
172,10 173,10 180,10 181,20
182,10 183,20 185,50 186,10
187,10 194,10 195,20 196,10
197,10 199,40 200,10 201,10
209,10 210,10 211,10 213,30
214,10 222,10 223,10 225,10
227,40 228,10 229,10 236,10
237,10 239,10 241,40 242,10
251,10 253,10 255,40 256,10
257,10 264,10 265,10 267,10
269,50 270,10 271,10 279,10
283,40 284,10 285,10 297,50
298,10 299,10 307,10 311,50
312,10 313,10 325,50 326,10
327,10 339,60 340,20 341,10
353,60 354,20 355,10 367,60
368,20 369,10 381,70 382,20
383,10 392,20 393,10 395,70
396,20 397,10 409,40 410,10
411,10 418,10 420,20 421,10
423,20 424,10 425,10 437,10
439,10 465,10 479,170 480,70
481,20 482,10 493,30 495,9999
496,4004 497,1111 498,220 499,30
509,10 510,10
##END=
