##TITLE=1-Pentadecanol, TBDMS derivative
##JCAMP-DX=4.24
##DATA TYPE=MASS SPECTRUM
##ORIGIN=NIST Mass Spectrometry Data Center
##OWNER=NIST Mass Spectrometry Data Center
Collection (C) 2014 copyright by the U.S. Secretary of Commerce
on behalf of the United States of America. All rights reserved.
##$NIST MASS SPEC NO=351860
##MOLFORM=C21 H46 O Si
##MW=342
##$NIST SOURCE=MSDC
##XUNITS=M/Z
##YUNITS=RELATIVE INTENSITY
##XFACTOR=1
##YFACTOR=1
##FIRSTX=26
##LASTX=341
##FIRSTY=10
##MAXX=341
##MINX=26
##MAXY=9999
##MINY=10
##NPOINTS=141
##PEAK TABLE=(XY..XY)
26,10 27,130 29,520 30,10
31,10 39,140 40,40 41,1471
42,260 43,2152 44,70 45,270
46,20 47,240 48,10 49,10
51,10 53,90 54,150 55,1571
56,260 57,2062 58,320 59,851
60,110 61,731 62,50 63,20
65,10 66,10 67,340 68,120
69,1561 70,150 71,871 72,100
73,2062 74,250 75,8768 76,661
77,470 78,20 79,70 80,20
81,300 82,130 83,2142 84,160
85,631 86,70 87,260 88,140
89,2262 90,200 91,100 92,10
93,30 94,10 95,240 96,70
97,1992 98,180 99,460 100,90
101,1031 102,120 103,90 104,10
107,20 109,110 110,30 111,831
112,80 113,210 114,40 115,821
116,90 117,90 118,10 119,10
121,10 123,40 124,10 125,200
126,20 127,110 128,20 129,340
130,40 131,80 132,30 133,30
137,10 139,50 140,10 141,40
142,10 143,130 144,20 145,50
146,10 151,10 153,30 154,10
155,20 157,120 158,20 159,20
167,10 169,10 171,100 172,20
173,10 181,10 183,10 185,100
186,20 187,10 199,120 200,20
201,10 213,100 214,20 215,10
227,50 228,10 229,10 269,60
270,10 271,10 282,10 283,30
285,9999 286,2382 287,621 288,90
289,10 327,80 328,20 329,10
341,10
##END=
