##TITLE=1-Heneicosanol, TMS derivative
##JCAMP-DX=4.24
##DATA TYPE=MASS SPECTRUM
##ORIGIN=NIST Mass Spectrometry Data Center
##OWNER=NIST Mass Spectrometry Data Center
Collection (C) 2014 copyright by the U.S. Secretary of Commerce
on behalf of the United States of America. All rights reserved.
##$NIST MASS SPEC NO=351879
##MOLFORM=C24 H52 O Si
##MW=384
##$NIST SOURCE=MSDC
##XUNITS=M/Z
##YUNITS=RELATIVE INTENSITY
##XFACTOR=1
##YFACTOR=1
##FIRSTX=26
##LASTX=384
##FIRSTY=10
##MAXX=384
##MINX=26
##MAXY=9999
##MINY=10
##NPOINTS=159
##PEAK TABLE=(XY..XY)
26,10 27,90 29,340 30,10
31,10 39,100 41,1221 42,280
43,2452 44,110 45,210 46,10
47,110 53,70 54,170 55,1792
56,420 57,2422 58,210 59,360
60,60 61,671 62,40 63,20
65,20 66,20 67,370 68,240
69,1361 70,260 71,1061 72,150
73,2582 74,280 75,5415 76,400
77,360 78,20 79,60 80,20
81,340 82,280 83,1641 84,200
85,751 86,60 87,150 88,100
89,1171 90,120 91,741 92,70
93,50 94,10 95,270 96,150
97,1661 98,170 99,350 100,50
101,581 102,90 103,2452 104,240
105,100 106,10 107,20 109,130
110,60 111,811 112,100 113,210
114,40 115,400 116,60 117,40
118,10 121,10 123,40 124,30
125,290 126,50 127,100 129,280
130,30 131,60 132,10 135,10
137,20 138,20 139,90 140,20
141,50 142,10 143,90 144,10
145,40 151,10 152,10 153,40
154,20 155,20 157,50 158,10
159,20 165,10 166,10 167,20
168,10 169,10 171,40 172,10
173,10 179,10 181,10 182,10
183,10 185,40 186,10 195,10
196,10 197,10 199,30 200,10
209,10 213,30 214,10 227,40
228,10 241,40 242,10 243,10
255,50 256,10 257,10 266,20
269,60 270,10 271,10 283,60
284,10 285,10 294,20 295,10
297,40 298,10 311,20 341,10
353,110 354,30 355,10 367,20
369,9999 370,3063 371,791 372,140
373,20 383,10 384,10
##END=
