##TITLE=1-Eicosanol, TBDMS derivative
##JCAMP-DX=4.24
##DATA TYPE=MASS SPECTRUM
##ORIGIN=NIST Mass Spectrometry Data Center
##OWNER=NIST Mass Spectrometry Data Center
Collection (C) 2014 copyright by the U.S. Secretary of Commerce
on behalf of the United States of America. All rights reserved.
##$NIST MASS SPEC NO=351862
##MOLFORM=C26 H56 O Si
##MW=412
##$NIST SOURCE=MSDC
##XUNITS=M/Z
##YUNITS=RELATIVE INTENSITY
##XFACTOR=1
##YFACTOR=1
##FIRSTX=27
##LASTX=411
##FIRSTY=50
##MAXX=411
##MINX=27
##MAXY=9999
##MINY=10
##NPOINTS=145
##PEAK TABLE=(XY..XY)
27,50 29,210 39,60 41,711
42,160 43,1411 44,40 45,90
46,10 47,80 53,40 54,80
55,931 56,200 57,1621 58,160
59,360 60,50 61,410 62,30
63,20 65,10 66,10 67,230
68,90 69,931 70,110 71,751
72,70 73,1241 75,5165 76,390
77,310 78,20 79,40 80,10
81,240 82,100 83,1231 84,100
85,591 86,50 87,150 88,90
89,1361 90,120 91,60 92,10
93,30 94,10 95,220 96,60
97,1281 98,110 99,360 100,70
101,611 102,70 103,60 104,10
107,20 109,100 110,20 111,621
112,60 113,190 114,40 115,561
116,60 117,50 118,10 119,10
121,10 123,40 125,210 126,20
127,90 128,20 129,220 130,20
131,50 132,20 133,40 134,10
135,10 137,10 139,60 140,10
141,40 142,10 143,90 144,10
145,30 151,10 153,30 155,20
157,60 158,10 159,10 167,10
169,10 171,50 172,10 173,10
181,10 183,10 185,40 186,10
187,10 195,10 197,10 199,40
200,10 213,40 214,10 227,40
228,10 241,50 242,10 243,10
255,70 256,10 257,10 269,70
270,10 271,10 283,40 284,10
285,10 297,20 298,10 325,10
339,90 340,20 341,10 353,30
355,9999 356,3013 357,771 358,120
359,10 397,70 398,20 399,10
411,10
##END=
