##TITLE=Tetracosyl acetate
##JCAMP-DX=4.24
##DATA TYPE=MASS SPECTRUM
##ORIGIN=NIST Mass Spectrometry Data Center
##OWNER=NIST Mass Spectrometry Data Center
Collection (C) 2014 copyright by the U.S. Secretary of Commerce
on behalf of the United States of America. All rights reserved.
##$NIST MASS SPEC NO=351781
##MOLFORM=C26 H52 O2
##MW=396
##$NIST SOURCE=MSDC
##XUNITS=M/Z
##YUNITS=RELATIVE INTENSITY
##XFACTOR=1
##YFACTOR=1
##FIRSTX=15
##LASTX=396
##FIRSTY=30
##MAXX=396
##MINX=15
##MAXY=9999
##MINY=10
##NPOINTS=148
##PEAK TABLE=(XY..XY)
15,30 26,20 27,190 29,671
30,20 37,10 38,10 39,280
40,80 41,3083 42,1001 43,9999
44,300 45,60 51,20 52,10
53,190 54,891 55,6456 56,3083
57,7847 58,430 59,100 61,5895
62,130 63,30 65,40 66,110
67,1261 68,1762 69,5295 70,2702
71,3904 72,230 73,410 74,20
75,10 77,30 78,10 79,130
80,90 81,1031 82,3553 83,6926
84,2042 85,2592 86,180 87,50
88,20 91,20 93,40 94,50
95,671 96,1892 97,7257 98,1541
99,721 100,50 101,70 102,30
107,10 108,20 109,310 110,711
111,4074 112,991 113,410 114,40
115,20 116,390 117,30 121,10
122,20 123,190 124,480 125,2022
126,631 127,260 128,30 129,20
130,50 136,20 137,130 138,330
139,841 140,410 141,160 142,20
151,40 152,200 153,430 154,270
155,100 156,20 165,20 166,140
167,260 168,180 169,70 170,10
179,10 180,100 181,150 182,130
183,40 184,10 194,80 195,100
196,80 197,30 208,60 209,60
210,60 211,20 222,50 223,40
224,50 225,10 236,50 237,40
238,40 239,10 250,40 251,30
252,40 253,10 264,40 265,20
266,30 267,10 278,30 279,20
280,30 292,20 293,20 294,10
306,10 307,10 308,180 309,40
310,10 334,10 336,190 337,50
338,10 381,20 382,10 396,10
##END=
