##TITLE=1-Tetracosanol, TBDMS derivative
##JCAMP-DX=4.24
##DATA TYPE=MASS SPECTRUM
##ORIGIN=NIST Mass Spectrometry Data Center
##OWNER=NIST Mass Spectrometry Data Center
Collection (C) 2014 copyright by the U.S. Secretary of Commerce
on behalf of the United States of America. All rights reserved.
##$NIST MASS SPEC NO=351863
##MOLFORM=C30 H64 O Si
##MW=468
##$NIST SOURCE=MSDC
##XUNITS=M/Z
##YUNITS=RELATIVE INTENSITY
##XFACTOR=1
##YFACTOR=1
##FIRSTX=27
##LASTX=467
##FIRSTY=50
##MAXX=467
##MINX=27
##MAXY=9999
##MINY=10
##NPOINTS=167
##PEAK TABLE=(XY..XY)
27,50 29,200 39,70 40,20
41,741 42,170 43,1782 44,50
45,80 46,10 47,60 53,40
54,100 55,1131 56,260 57,2312
58,180 59,360 60,40 61,460
62,30 63,20 65,10 66,10
67,270 68,110 69,1111 70,160
71,1111 72,90 73,1311 75,5625
76,420 77,400 78,20 79,50
80,20 81,300 82,140 83,1371
84,120 85,821 86,70 87,150
88,100 89,1431 90,130 91,60
92,10 93,30 94,10 95,270
96,90 97,1431 98,130 99,440
100,80 101,611 102,70 103,70
104,10 107,20 108,10 109,140
110,30 111,711 112,70 113,250
114,50 115,641 116,70 117,60
118,10 119,10 121,20 123,60
124,20 125,260 126,30 127,110
128,20 129,230 130,30 131,50
132,30 133,90 134,10 135,10
137,20 138,10 139,70 140,10
141,60 142,10 143,100 144,10
145,30 149,10 151,10 153,30
154,10 155,30 156,10 157,60
158,10 159,10 165,10 167,20
169,20 171,50 172,10 173,10
181,10 183,10 185,40 186,10
187,10 195,10 197,10 199,40
200,10 209,10 211,10 213,30
214,10 223,10 227,30 228,10
237,10 241,30 242,10 255,40
256,10 269,50 270,10 271,10
283,60 284,10 285,10 297,70
298,20 299,10 311,70 312,20
313,10 325,60 326,10 327,10
339,30 340,10 341,10 353,10
355,10 381,10 395,110 396,40
397,10 409,40 411,9999 412,3373
413,901 414,160 415,20 453,50
454,20 455,10 467,10
##END=
