##TITLE=2-Butoxyethyl 2,2,2-trifluoroacetate
##JCAMP-DX=4.24
##DATA TYPE=MASS SPECTRUM
##ORIGIN=NIST Mass Spectrometry Data Center, 2007
##OWNER=NIST Mass Spectrometry Data Center
Collection (C) 2014 copyright by the U.S. Secretary of Commerce
on behalf of the United States of America. All rights reserved.
##$NIST MASS SPEC NO=351933
##MOLFORM=C8 H13 F3 O3
##MW=214
##$NIST SOURCE=MSDC
##XUNITS=M/Z
##YUNITS=RELATIVE INTENSITY
##XFACTOR=1
##YFACTOR=1
##FIRSTX=14
##LASTX=214
##FIRSTY=30
##MAXX=214
##MINX=14
##MAXY=9999
##MINY=10
##NPOINTS=80
##PEAK TABLE=(XY..XY)
14,30 15,250 16,20 19,30
20,10 25,10 26,220 27,1651
28,1131 29,3493 30,170 31,390
32,10 33,30 37,10 38,50
39,931 40,160 41,3954 42,420
43,901 44,571 45,831 46,30
47,1561 48,40 49,10 50,160
51,70 52,20 53,110 54,40
55,691 56,2242 57,9999 58,500
59,80 65,10 67,10 69,5325
70,50 71,150 72,80 73,611
74,20 78,150 79,10 80,10
83,10 85,731 86,40 87,1952
88,100 89,120 91,10 93,20
94,10 95,40 97,520 98,10
99,310 100,1181 101,90 112,30
113,440 114,20 115,110 119,80
122,20 123,60 127,60 128,30
139,30 141,8468 142,360 143,40
157,10 159,10 171,30 214,10
##END=
