##TITLE=1-Heptadecanol, TBDMS derivative
##JCAMP-DX=4.24
##DATA TYPE=MASS SPECTRUM
##ORIGIN=NIST Mass Spectrometry Data Center
##OWNER=NIST Mass Spectrometry Data Center
Collection (C) 2014 copyright by the U.S. Secretary of Commerce
on behalf of the United States of America. All rights reserved.
##$NIST MASS SPEC NO=351861
##MOLFORM=C23 H50 O Si
##MW=370
##$NIST SOURCE=MSDC
##XUNITS=M/Z
##YUNITS=RELATIVE INTENSITY
##XFACTOR=1
##YFACTOR=1
##FIRSTX=27
##LASTX=369
##FIRSTY=60
##MAXX=369
##MINX=27
##MAXY=9999
##MINY=10
##NPOINTS=135
##PEAK TABLE=(XY..XY)
27,60 28,10 29,220 31,10
39,70 41,701 42,140 43,1181
44,40 45,100 46,10 47,90
48,10 53,40 54,70 55,811
56,160 57,1241 58,150 59,380
60,50 61,380 62,30 63,10
65,10 66,10 67,200 68,80
69,881 70,90 71,550 72,60
73,1201 74,160 75,5025 76,380
77,280 78,20 79,40 80,10
81,210 82,90 83,1201 84,90
85,500 86,50 87,150 88,80
89,1351 90,120 91,50 93,20
95,180 96,60 97,1221 98,100
99,320 100,60 101,621 102,80
103,60 107,10 109,80 110,20
111,550 112,50 113,150 114,30
115,520 116,60 117,50 119,10
121,10 123,30 124,10 125,160
126,20 127,70 128,10 129,200
130,20 131,50 132,20 133,30
135,10 137,10 139,40 140,10
141,30 142,10 143,90 144,10
145,30 151,10 153,20 155,10
157,60 158,10 159,10 167,10
169,10 171,60 172,10 173,10
181,10 185,50 186,10 199,50
200,10 201,10 213,60 214,10
227,70 228,10 229,10 241,60
242,10 243,10 255,30 256,10
269,10 283,10 297,70 298,20
299,10 311,30 313,9999 314,2662
315,681 316,100 317,10 355,80
356,20 357,10 369,10
##END=
