##TITLE=1-Hexacosanol, TBDMS derivative
##JCAMP-DX=4.24
##DATA TYPE=MASS SPECTRUM
##ORIGIN=NIST Mass Spectrometry Data Center
##OWNER=NIST Mass Spectrometry Data Center
Collection (C) 2014 copyright by the U.S. Secretary of Commerce
on behalf of the United States of America. All rights reserved.
##$NIST MASS SPEC NO=351856
##MOLFORM=C32 H68 O Si
##MW=496
##$NIST SOURCE=MSDC
##XUNITS=M/Z
##YUNITS=RELATIVE INTENSITY
##XFACTOR=1
##YFACTOR=1
##FIRSTX=27
##LASTX=482
##FIRSTY=60
##MAXX=482
##MINX=27
##MAXY=9999
##MINY=10
##NPOINTS=179
##PEAK TABLE=(XY..XY)
27,60 29,250 39,80 41,931
42,220 43,2472 44,70 45,100
46,10 47,80 53,50 54,130
55,1531 56,380 57,3333 58,240
59,440 60,60 61,601 62,40
63,20 65,10 66,20 67,350
68,150 69,1431 70,230 71,1621
72,120 73,1631 75,7156 76,520
77,510 78,30 79,60 80,20
81,400 82,200 83,1752 84,170
85,1141 86,90 87,180 88,120
89,1782 90,150 91,80 92,10
93,30 94,10 95,350 96,120
97,1832 98,170 99,601 100,100
101,751 102,90 103,90 104,10
105,10 107,30 108,10 109,180
110,40 111,921 112,90 113,340
114,70 115,861 116,100 117,80
118,10 119,20 121,30 122,10
123,70 124,20 125,340 126,40
127,160 128,30 129,290 130,30
131,60 132,40 133,140 134,20
135,20 137,30 138,10 139,100
140,20 141,80 142,20 143,120
144,10 145,30 149,10 151,10
152,10 153,50 154,10 155,40
156,10 157,70 158,10 159,10
165,10 167,20 169,20 171,60
172,10 173,10 181,10 183,10
185,50 186,10 187,10 195,10
197,10 199,40 200,10 201,10
209,10 211,10 213,40 214,10
215,10 223,10 225,10 227,40
228,10 237,10 239,10 241,40
242,10 243,10 255,50 256,10
257,10 269,50 270,10 271,10
283,50 284,10 285,10 297,70
298,20 299,10 311,70 312,20
313,10 325,80 326,20 327,10
339,80 340,20 341,10 353,50
354,20 355,10 367,30 368,10
369,10 381,20 383,10 409,10
423,120 424,40 425,20 437,40
439,9999 440,3593 441,971 442,170
443,20 481,50 482,20
##END=
