##TITLE=2-[2-[2-(2-Hydroxyethoxy)ethoxy]ethoxy]ethyl acetate
##JCAMP-DX=4.24
##DATA TYPE=MASS SPECTRUM
##ORIGIN=NIST Mass Spectrometry Data Center, 2007
##OWNER=NIST Mass Spectrometry Data Center
Collection (C) 2014 copyright by the U.S. Secretary of Commerce
on behalf of the United States of America. All rights reserved.
##$NIST MASS SPEC NO=351925
##MOLFORM=C10 H20 O6
##MW=236
##$NIST SOURCE=MSDC
##XUNITS=M/Z
##YUNITS=RELATIVE INTENSITY
##XFACTOR=1
##YFACTOR=1
##FIRSTX=14
##LASTX=205
##FIRSTY=30
##MAXX=205
##MINX=14
##MAXY=9999
##MINY=10
##NPOINTS=75
##PEAK TABLE=(XY..XY)
14,30 15,350 16,20 18,20
19,170 25,10 26,80 27,460
28,781 29,741 30,130 31,671
32,30 33,10 39,10 40,10
41,110 42,340 43,6566 44,1101
45,7086 46,170 47,20 55,10
56,10 57,190 58,1041 59,681
60,50 61,180 62,10 69,10
70,210 71,130 72,170 73,470
74,90 75,300 76,20 77,70
83,10 85,10 86,250 87,9999
88,1061 89,2222 90,110 91,10
99,80 100,20 101,260 102,220
103,210 104,30 105,50 113,10
114,40 115,40 116,10 117,100
118,70 119,290 120,20 130,50
131,140 132,20 133,130 134,10
147,40 149,30 161,10 163,30
174,40 175,10 205,10
##END=
