##TITLE=1-Octacosanol, TBDMS derivative
##JCAMP-DX=4.24
##DATA TYPE=MASS SPECTRUM
##ORIGIN=NIST Mass Spectrometry Data Center
##OWNER=NIST Mass Spectrometry Data Center
Collection (C) 2014 copyright by the U.S. Secretary of Commerce
on behalf of the United States of America. All rights reserved.
##$NIST MASS SPEC NO=351854
##MOLFORM=C34 H72 O Si
##MW=524
##$NIST SOURCE=MSDC
##XUNITS=M/Z
##YUNITS=RELATIVE INTENSITY
##XFACTOR=1
##YFACTOR=1
##FIRSTX=27
##LASTX=523
##FIRSTY=50
##MAXX=523
##MINX=27
##MAXY=9999
##MINY=10
##NPOINTS=190
##PEAK TABLE=(XY..XY)
27,50 29,210 39,70 41,811
42,200 43,2212 44,60 45,80
47,60 53,40 54,120 55,1461
56,390 57,3313 58,230 59,390
60,40 61,530 62,30 63,20
65,10 66,20 67,360 68,160
69,1431 70,240 71,1702 72,130
73,1541 75,6666 76,490 77,490
78,30 79,60 80,20 81,390
82,200 83,1742 84,160 85,1211
86,90 87,170 88,120 89,1641
90,140 91,70 92,10 93,40
94,20 95,360 96,140 97,1782
98,170 99,591 100,100 101,701
102,80 103,80 104,10 107,30
108,10 109,200 110,50 111,881
112,90 113,360 114,70 115,881
116,100 117,80 118,10 119,20
120,10 121,30 122,10 123,80
124,20 125,340 126,40 127,180
128,40 129,290 130,30 131,60
132,50 133,170 134,20 135,20
137,30 138,10 139,100 140,10
141,90 142,20 143,120 144,20
145,30 149,10 151,10 152,10
153,50 154,10 155,40 156,10
157,70 158,10 159,10 163,10
165,10 167,30 168,10 169,20
170,10 171,60 172,10 173,10
181,20 183,10 185,50 186,10
187,10 195,10 197,10 199,50
200,10 201,10 209,10 211,10
213,40 214,10 223,10 225,10
227,40 228,10 229,10 237,10
239,10 241,40 242,10 251,10
255,40 256,10 257,10 265,10
269,50 270,10 271,10 283,50
284,10 285,10 297,50 298,10
299,10 311,60 312,20 313,10
325,60 326,20 327,10 339,80
340,20 341,10 353,80 354,30
355,10 367,70 368,20 369,10
381,50 382,20 383,10 395,30
396,10 397,10 409,10 411,10
437,10 451,130 452,50 453,20
465,40 467,9999 468,3703 469,1011
470,190 471,20 509,50 510,20
511,10 523,10
##END=
