##TITLE=Silane, trimethyl(tetratriacontyloxy)-
##JCAMP-DX=4.24
##DATA TYPE=MASS SPECTRUM
##ORIGIN=NIST Mass Spectrometry Data Center
##OWNER=NIST Mass Spectrometry Data Center
Collection (C) 2014 copyright by the U.S. Secretary of Commerce
on behalf of the United States of America. All rights reserved.
##$NIST MASS SPEC NO=351892
##MOLFORM=C37 H78 O Si
##MW=566
##$NIST SOURCE=MSDC
##XUNITS=M/Z
##YUNITS=RELATIVE INTENSITY
##XFACTOR=1
##YFACTOR=1
##FIRSTX=14
##LASTX=566
##FIRSTY=10
##MAXX=566
##MINX=14
##MAXY=9999
##MINY=10
##NPOINTS=265
##PEAK TABLE=(XY..XY)
14,10 15,10 26,20 27,130
29,480 30,10 31,10 38,10
39,170 40,30 41,2022 42,530
43,6286 44,120 45,260 46,20
47,110 51,10 52,10 53,110
54,420 55,4364 56,1271 57,9388
58,530 59,500 60,60 61,1001
62,70 63,60 65,30 66,60
67,911 68,751 69,3713 70,921
71,4954 72,420 73,4414 74,450
75,9999 76,741 77,861 78,70
79,140 80,80 81,981 82,1041
83,4204 84,601 85,3343 86,240
87,260 88,190 89,1832 90,230
91,3693 92,330 93,210 94,60
95,841 96,601 97,4264 98,490
99,1231 100,140 101,951 102,130
103,5005 104,480 105,190 107,60
108,20 109,420 110,220 111,2072
112,280 113,751 114,120 115,741
116,110 117,100 118,40 119,190
120,70 121,60 122,20 123,210
124,130 125,871 126,140 127,400
128,80 129,751 130,90 131,100
132,20 133,10 134,10 135,40
136,10 137,90 138,80 139,300
140,70 141,200 142,50 143,210
144,30 145,90 146,10 149,20
151,50 152,50 153,150 154,40
155,100 156,20 157,90 158,20
159,40 163,10 165,20 166,30
167,80 168,30 169,60 170,20
171,90 172,10 173,10 175,10
176,10 179,10 180,20 181,50
182,20 183,40 184,10 185,80
186,20 187,10 194,20 195,30
196,10 197,30 198,10 199,60
200,10 201,10 209,10 210,10
211,20 213,70 214,10 215,10
221,10 222,10 223,20 224,10
225,20 226,10 227,60 228,10
229,10 236,10 237,10 238,10
239,10 241,70 242,10 243,10
250,10 251,10 252,10 253,10
254,10 255,70 256,20 257,10
264,10 265,10 267,10 269,80
270,20 271,10 279,10 281,10
282,10 283,60 284,20 285,10
292,10 293,10 294,10 295,10
297,80 298,10 299,10 306,10
307,10 309,10 311,70 312,20
313,10 321,10 323,10 325,60
326,20 327,10 335,10 337,10
339,70 340,20 341,10 348,10
353,70 354,20 355,20 367,70
368,30 369,10 381,80 382,20
383,20 395,90 396,30 397,10
409,90 410,30 411,10 423,80
424,30 425,10 437,80 438,30
439,10 448,10 451,60 452,20
453,10 465,30 466,10 467,10
476,20 479,20 480,10 493,10
495,10 523,20 524,10 525,10
535,170 536,70 537,20 538,10
549,30 551,8478 552,3743 553,1111
554,230 555,30 556,10 565,10
566,10
##END=
