##TITLE=Heptacosyl acetate
##JCAMP-DX=4.24
##DATA TYPE=MASS SPECTRUM
##ORIGIN=NIST Mass Spectrometry Data Center
##OWNER=NIST Mass Spectrometry Data Center
Collection (C) 2014 copyright by the U.S. Secretary of Commerce
on behalf of the United States of America. All rights reserved.
##$NIST MASS SPEC NO=351782
##MOLFORM=C29 H58 O2
##MW=438
##$NIST SOURCE=MSDC
##XUNITS=M/Z
##YUNITS=RELATIVE INTENSITY
##XFACTOR=1
##YFACTOR=1
##FIRSTX=15
##LASTX=438
##FIRSTY=20
##MAXX=438
##MINX=15
##MAXY=9999
##MINY=10
##NPOINTS=165
##PEAK TABLE=(XY..XY)
15,20 26,20 27,180 28,40
29,631 30,20 37,10 38,10
39,260 40,70 41,2873 42,971
43,9999 44,280 45,50 51,20
52,10 53,180 54,851 55,6386
56,3073 57,8738 58,460 59,100
61,6126 62,140 63,30 65,40
66,110 67,1261 68,1812 69,5305
70,2622 71,4434 72,260 73,350
74,20 77,30 78,10 79,130
80,100 81,1091 82,3733 83,7036
84,1942 85,2973 86,200 87,50
88,20 91,20 93,30 94,60
95,761 96,2062 97,7507 98,1491
99,831 100,50 101,70 102,30
105,10 107,10 108,30 109,360
110,751 111,4224 112,981 113,480
114,50 115,20 116,370 117,30
121,10 122,30 123,240 124,530
125,2132 126,611 127,300 128,30
129,20 130,50 136,20 137,150
138,370 139,911 140,390 141,200
142,30 143,10 151,40 152,230
153,480 154,260 155,120 156,20
165,20 166,160 167,290 168,170
169,80 170,20 179,10 180,120
181,180 182,130 183,60 184,10
193,10 194,90 195,110 196,90
197,40 198,10 208,70 209,70
210,60 211,20 221,10 222,60
223,50 224,50 225,20 236,60
237,50 238,40 239,20 250,50
251,30 252,30 253,10 264,50
265,30 266,30 267,10 278,40
279,30 280,30 292,40 293,20
294,30 295,10 306,30 307,20
308,20 309,10 320,20 321,20
322,20 334,10 335,10 336,10
348,10 349,20 350,130 351,40
352,10 376,10 378,150 379,50
380,10 420,10 423,20 424,10
438,10
##END=
