##TITLE=2-Methoxyethyl 2,2,2-trifluoroacetate
##JCAMP-DX=4.24
##DATA TYPE=MASS SPECTRUM
##ORIGIN=NIST Mass Spectrometry Data Center, 2007
##OWNER=NIST Mass Spectrometry Data Center
Collection (C) 2014 copyright by the U.S. Secretary of Commerce
on behalf of the United States of America. All rights reserved.
##$NIST MASS SPEC NO=351967
##MOLFORM=C5 H7 F3 O3
##MW=172
##$NIST SOURCE=MSDC
##XUNITS=M/Z
##YUNITS=RELATIVE INTENSITY
##XFACTOR=1
##YFACTOR=1
##FIRSTX=14
##LASTX=171
##FIRSTY=50
##MAXX=171
##MINX=14
##MAXY=9999
##MINY=10
##NPOINTS=55
##PEAK TABLE=(XY..XY)
14,50 15,771 16,20 17,20
18,10 25,10 26,160 27,420
28,520 29,2122 30,150 31,651
32,20 33,50 39,10 41,50
42,190 43,1031 44,140 45,9999
46,250 47,270 48,10 50,310
51,40 57,50 58,2012 59,881
60,40 64,10 67,10 69,3693
70,40 71,10 73,10 74,30
77,20 78,140 80,10 81,721
82,20 85,10 95,30 97,160
99,80 103,70 112,30 113,30
115,30 123,40 127,10 140,10
141,80 142,10 171,30
##END=
