##TITLE=2-[2-[2-(2-Butoxyethoxy)ethoxy]ethoxy]ethyl acetate
##JCAMP-DX=4.24
##DATA TYPE=MASS SPECTRUM
##ORIGIN=NIST Mass Spectrometry Data Center, 2007
##OWNER=NIST Mass Spectrometry Data Center
Collection (C) 2014 copyright by the U.S. Secretary of Commerce
on behalf of the United States of America. All rights reserved.
##$NIST MASS SPEC NO=351939
##MOLFORM=C14 H28 O6
##MW=292
##$NIST SOURCE=MSDC
##XUNITS=M/Z
##YUNITS=RELATIVE INTENSITY
##XFACTOR=1
##YFACTOR=1
##FIRSTX=14
##LASTX=205
##FIRSTY=10
##MAXX=205
##MINX=14
##MAXY=9999
##MINY=10
##NPOINTS=92
##PEAK TABLE=(XY..XY)
14,10 15,110 16,10 18,10
19,30 26,40 27,280 28,500
29,1111 30,100 31,230 32,10
39,120 40,20 41,1261 42,300
43,4584 44,571 45,2742 46,70
47,10 51,10 53,20 54,10
55,310 56,941 57,3313 58,611
59,931 60,50 61,80 63,10
67,10 68,10 69,70 70,240
71,290 72,691 73,781 74,60
75,691 76,20 77,20 81,10
82,20 83,100 84,10 85,831
86,330 87,9999 88,761 89,861
90,70 91,10 98,60 99,170
100,611 101,1381 102,210 103,651
104,40 105,30 107,10 113,10
114,60 115,160 116,40 117,280
118,40 119,90 120,10 129,40
130,40 131,460 132,50 133,40
143,10 144,80 145,130 146,10
147,50 149,10 159,10 161,40
162,60 163,40 174,20 175,50
176,10 177,10 191,10 205,10
##END=
