##TITLE=2-[2-[2-[2-(2-Butoxyethoxy)ethoxy]ethoxy]ethoxy]ethyl 2,2,2-trifluoroacetate
##JCAMP-DX=4.24
##DATA TYPE=MASS SPECTRUM
##ORIGIN=NIST Mass Spectrometry Data Center, 2007
##OWNER=NIST Mass Spectrometry Data Center
Collection (C) 2014 copyright by the U.S. Secretary of Commerce
on behalf of the United States of America. All rights reserved.
##$NIST MASS SPEC NO=351938
##MOLFORM=C16 H29 F3 O7
##MW=390
##$NIST SOURCE=MSDC
##XUNITS=M/Z
##YUNITS=RELATIVE INTENSITY
##XFACTOR=1
##YFACTOR=1
##FIRSTX=15
##LASTX=303
##FIRSTY=80
##MAXX=303
##MINX=15
##MAXY=9999
##MINY=10
##NPOINTS=114
##PEAK TABLE=(XY..XY)
15,80 19,30 26,50 27,340
28,721 29,1311 30,130 31,300
33,10 39,120 40,30 41,1461
42,270 43,1211 44,681 45,3383
46,90 47,761 48,10 50,30
51,30 53,20 54,20 55,350
56,941 57,3934 58,621 59,1301
60,60 61,30 63,10 67,10
69,1311 70,170 71,300 72,881
73,971 74,50 75,621 76,30
77,30 78,30 80,10 81,10
82,30 83,100 84,20 85,831
86,130 87,1181 88,350 89,981
90,80 91,20 93,10 94,10
95,10 97,130 98,80 99,130
100,671 101,1852 102,240 103,841
104,50 105,30 107,10 112,10
113,240 114,30 115,240 116,50
117,360 118,30 119,140 120,10
121,10 122,30 123,20 127,10
128,10 129,50 130,10 131,330
132,40 133,50 139,10 141,9999
142,430 143,50 144,90 145,230
146,20 147,60 148,10 159,10
160,10 161,50 163,40 175,30
177,10 184,200 185,190 186,10
188,10 193,10 228,20 229,120
230,10 259,10 273,50 274,10
289,10 303,10
##END=
