##TITLE=2-[2-(2-Butoxyethoxy)ethoxy]ethyl 2,2,2-trifluoroacetate
##JCAMP-DX=4.24
##DATA TYPE=MASS SPECTRUM
##ORIGIN=NIST Mass Spectrometry Data Center, 2007
##OWNER=NIST Mass Spectrometry Data Center
Collection (C) 2014 copyright by the U.S. Secretary of Commerce
on behalf of the United States of America. All rights reserved.
##$NIST MASS SPEC NO=351936
##MOLFORM=C12 H21 F3 O5
##MW=302
##$NIST SOURCE=MSDC
##XUNITS=M/Z
##YUNITS=RELATIVE INTENSITY
##XFACTOR=1
##YFACTOR=1
##FIRSTX=14
##LASTX=259
##FIRSTY=10
##MAXX=259
##MINX=14
##MAXY=9999
##MINY=10
##NPOINTS=106
##PEAK TABLE=(XY..XY)
14,10 15,150 16,10 18,10
19,60 20,10 25,10 26,90
27,701 28,1011 29,2122 30,180
31,380 32,10 33,10 38,10
39,280 40,50 41,2392 42,260
43,1131 44,651 45,2752 46,70
47,981 48,20 50,40 51,100
53,50 54,20 55,450 56,1351
57,7247 58,681 59,961 60,40
61,40 63,10 66,10 67,20
69,2542 70,90 71,510 72,981
73,701 74,50 75,1561 76,50
77,10 78,70 81,10 82,50
83,90 85,1111 86,100 87,911
88,430 89,510 90,30 91,10
93,10 95,20 97,230 98,80
99,180 100,981 101,1331 102,120
103,210 104,10 112,10 113,330
114,20 115,150 116,20 117,180
118,10 119,90 120,10 122,40
123,50 127,20 128,10 129,60
131,510 132,40 133,10 139,10
141,9999 142,440 143,50 144,210
145,50 157,10 159,10 163,10
171,10 172,20 184,70 185,170
186,10 203,10 215,20 229,50
230,10 259,20
##END=
