##TITLE=Methyltrioxitol, TMS derivative
##JCAMP-DX=4.24
##DATA TYPE=MASS SPECTRUM
##ORIGIN=NIST Mass Spectrometry Data Center, 2007
##OWNER=NIST Mass Spectrometry Data Center
Collection (C) 2014 copyright by the U.S. Secretary of Commerce
on behalf of the United States of America. All rights reserved.
##$NIST MASS SPEC NO=352073
##MOLFORM=C10 H24 O4 Si
##MW=236
##$NIST SOURCE=MSDC
##XUNITS=M/Z
##YUNITS=RELATIVE INTENSITY
##XFACTOR=1
##YFACTOR=1
##FIRSTX=14
##LASTX=221
##FIRSTY=10
##MAXX=221
##MINX=14
##MAXY=9999
##MINY=10
##NPOINTS=91
##PEAK TABLE=(XY..XY)
14,10 15,240 16,10 17,10
18,10 19,20 26,40 27,180
28,400 29,1411 30,90 31,1171
32,20 33,40 39,20 41,130
42,100 43,961 44,310 45,2793
46,100 47,220 48,10 49,10
51,20 53,10 54,10 55,50
56,20 57,140 58,2122 59,9999
60,450 61,430 62,30 63,30
66,10 69,10 70,110 71,110
72,310 73,8067 74,761 75,1561
76,120 77,200 78,10 79,10
85,20 86,30 87,781 88,450
89,1421 90,120 91,60 99,20
101,1331 102,410 103,5865 104,440
105,220 106,20 115,80 116,3753
117,3563 118,540 119,290 120,20
121,10 129,10 131,20 133,601
134,60 135,20 145,310 146,50
147,520 148,60 149,30 159,10
160,10 161,110 162,10 163,10
176,10 177,20 189,20 191,10
193,70 194,10 221,20
##END=
