##TITLE=4,6-Dihydroxypyrimidine, 2TMS derivative
##JCAMP-DX=4.24
##DATA TYPE=MASS SPECTRUM
##ORIGIN=NIST Mass Spectrometry Data Center
##OWNER=NIST Mass Spectrometry Data Center
Collection (C) 2014 copyright by the U.S. Secretary of Commerce
on behalf of the United States of America. All rights reserved.
##$NIST MASS SPEC NO=352491
##MOLFORM=C10 H20 N2 O2 Si2
##MW=256
##$NIST SOURCE=MSDC
##XUNITS=M/Z
##YUNITS=RELATIVE INTENSITY
##XFACTOR=1
##YFACTOR=1
##FIRSTX=15
##LASTX=260
##FIRSTY=10
##MAXX=260
##MINX=15
##MAXY=9999
##MINY=10
##NPOINTS=155
##PEAK TABLE=(XY..XY)
15,10 27,20 28,20 29,60
30,10 31,20 39,10 40,10
41,10 42,40 43,430 44,160
45,981 46,70 47,160 48,10
49,10 51,20 52,50 53,40
54,30 55,120 56,60 57,120
58,200 59,290 60,60 61,160
62,10 64,10 65,10 66,120
67,50 68,170 69,460 70,180
71,100 72,290 73,2893 74,470
75,1311 76,100 77,70 79,10
80,10 81,10 82,40 83,50
84,190 85,220 86,160 87,60
88,20 89,50 90,10 91,30
93,10 94,20 95,10 96,30
97,140 98,450 99,2312 100,831
101,220 102,70 103,50 104,10
105,110 109,10 110,40 111,50
112,180 113,2622 115,90 116,60
117,90 118,20 119,20 123,10
124,160 125,50 126,180 127,60
128,160 129,160 130,661 131,260
132,90 133,120 134,20 135,10
137,10 138,10 139,20 140,50
141,190 142,7677 143,891 144,340
145,30 146,60 147,190 148,30
149,20 152,40 153,20 154,30
155,40 156,1001 157,180 158,110
159,20 160,10 166,50 167,50
168,20 169,110 170,40 171,170
172,40 173,20 174,10 181,10
182,160 183,90 184,40 185,10
186,10 187,10 197,10 198,10
199,10 211,110 212,20 213,20
214,20 223,10 225,30 226,20
227,10 228,10 239,400 241,9999
242,2192 243,941 244,130 245,30
253,10 255,6766 256,4134 257,1231
258,340 259,50 260,10
##END=
