##TITLE=1,3,5-Benzetriol, TBDMS derivative
##JCAMP-DX=4.24
##DATA TYPE=MASS SPECTRUM
##ORIGIN=NIST Mass Spectrometry Data Center
##OWNER=NIST Mass Spectrometry Data Center
Collection (C) 2014 copyright by the U.S. Secretary of Commerce
on behalf of the United States of America. All rights reserved.
##$NIST MASS SPEC NO=352462
##MOLFORM=C12 H20 O3 Si
##MW=240
##$NIST SOURCE=MSDC
##XUNITS=M/Z
##YUNITS=RELATIVE INTENSITY
##XFACTOR=1
##YFACTOR=1
##FIRSTX=27
##LASTX=243
##FIRSTY=70
##MAXX=243
##MINX=27
##MAXY=9999
##MINY=10
##NPOINTS=135
##PEAK TABLE=(XY..XY)
27,70 28,10 29,180 31,20
38,20 39,180 40,30 41,330
42,70 43,190 44,20 45,340
46,20 47,230 48,10 49,10
50,40 51,130 52,60 53,170
54,30 55,140 56,40 57,260
58,90 59,240 60,50 61,130
62,40 63,330 64,30 65,40
66,50 67,80 68,20 69,490
70,30 71,30 72,10 73,811
74,100 75,2692 76,210 77,1471
78,140 79,140 80,20 81,140
82,20 83,50 84,30 85,110
86,10 87,60 88,10 89,10
90,10 91,210 93,30 94,10
95,50 96,30 97,120 98,40
99,270 100,30 101,100 102,10
103,10 105,20 106,10 107,40
108,40 109,290 110,80 111,100
112,20 113,70 114,10 115,30
119,10 121,30 122,20 123,100
124,40 125,50 126,30 127,20
135,10 136,10 137,140 138,30
139,80 140,30 141,40 142,10
143,10 147,10 149,10 150,10
151,40 152,20 153,230 154,40
155,40 156,10 163,10 164,10
165,120 166,30 167,150 168,40
169,290 170,40 171,10 179,10
180,10 181,90 183,9999 184,2082
185,561 186,70 187,10 195,10
209,20 210,10 211,30 212,10
225,130 226,30 227,10 240,1651
241,310 242,90 243,10
##END=
