##TITLE=2'-Hydroxy-6'-methoxyacetophenone, TMS derivative
##JCAMP-DX=4.24
##DATA TYPE=MASS SPECTRUM
##ORIGIN=NIST Mass Spectrometry Data Center
##OWNER=NIST Mass Spectrometry Data Center
Collection (C) 2014 copyright by the U.S. Secretary of Commerce
on behalf of the United States of America. All rights reserved.
##$NIST MASS SPEC NO=352928
##MOLFORM=C12 H18 O3 Si
##MW=238
##$NIST SOURCE=MSDC
##XUNITS=M/Z
##YUNITS=RELATIVE INTENSITY
##XFACTOR=1
##YFACTOR=1
##FIRSTX=15
##LASTX=239
##FIRSTY=70
##MAXX=239
##MINX=15
##MAXY=9999
##MINY=10
##NPOINTS=160
##PEAK TABLE=(XY..XY)
15,70 27,20 28,10 29,40
31,10 38,10 39,90 40,10
41,10 42,20 43,440 44,70
45,470 46,30 47,60 50,50
51,130 52,50 53,90 54,10
55,70 56,10 57,30 58,40
59,120 60,30 61,70 62,60
63,180 64,60 65,100 66,40
67,60 68,20 69,50 70,20
71,30 72,30 73,1171 74,140
75,500 76,120 77,400 78,180
79,120 80,20 81,50 82,30
83,90 84,10 85,90 86,10
87,30 88,30 89,290 90,110
91,340 92,90 93,90 94,30
95,130 96,40 97,50 98,10
99,40 100,10 101,30 102,30
103,130 104,140 105,260 106,110
107,300 108,60 109,80 110,40
111,250 113,10 114,10 115,80
116,20 117,40 118,30 119,140
120,60 121,270 122,90 123,70
124,20 125,20 127,10 128,10
129,10 130,10 131,130 132,30
133,100 134,140 135,360 136,80
137,340 138,50 139,40 140,10
145,30 147,791 148,200 149,310
150,280 151,340 152,60 153,40
154,10 159,130 160,40 161,160
162,70 163,280 164,110 165,851
166,140 167,60 168,10 173,10
175,250 176,50 177,200 178,270
179,410 180,681 181,340 182,60
183,20 185,10 187,10 189,20
190,30 191,30 192,40 193,621
194,120 195,70 196,10 203,10
205,80 206,20 207,250 208,4524
209,771 210,240 211,20 221,40
223,9999 224,2012 225,611 226,70
227,10 237,10 238,50 239,10
##END=
