##TITLE=2-Methoxy-5-nitrophenol, acetate
##JCAMP-DX=4.24
##DATA TYPE=MASS SPECTRUM
##ORIGIN=NIST Mass Spectrometry Data Center
##OWNER=NIST Mass Spectrometry Data Center
Collection (C) 2014 copyright by the U.S. Secretary of Commerce
on behalf of the United States of America. All rights reserved.
##$NIST MASS SPEC NO=352889
##MOLFORM=C9 H9 N O5
##MW=211
##$NIST SOURCE=MSDC
##XUNITS=M/Z
##YUNITS=RELATIVE INTENSITY
##XFACTOR=1
##YFACTOR=1
##FIRSTX=14
##LASTX=213
##FIRSTY=70
##MAXX=213
##MINX=14
##MAXY=9999
##MINY=10
##NPOINTS=107
##PEAK TABLE=(XY..XY)
14,70 15,390 25,10 26,40
27,40 28,130 29,80 30,500
31,60 36,10 37,60 38,120
39,300 40,50 41,270 42,290
43,7857 44,200 45,50 46,20
49,60 50,701 51,1982 52,711
53,320 54,60 55,260 56,20
57,10 59,10 60,20 61,100
62,300 63,480 64,100 65,611
66,160 67,230 68,140 69,140
70,20 71,20 73,20 74,90
75,70 76,120 77,460 78,160
79,2142 80,440 81,40 82,30
83,20 84,10 90,10 91,120
92,110 93,220 94,220 95,130
96,430 97,30 105,20 106,40
107,200 108,811 109,80 110,50
111,881 112,60 113,10 120,20
121,50 122,120 123,1251 124,440
125,40 126,10 127,10 134,10
135,10 136,30 137,50 138,20
139,1892 140,170 141,20 149,10
150,10 151,30 152,20 153,540
154,90 155,10 165,10 166,10
169,9999 170,791 171,110 172,10
181,70 182,10 195,50 196,10
211,460 212,50 213,10
##END=
