##TITLE=Nerol, TMS derivative
##JCAMP-DX=4.24
##DATA TYPE=MASS SPECTRUM
##ORIGIN=NIST Mass Spectrometry Data Center
##OWNER=NIST Mass Spectrometry Data Center
Collection (C) 2014 copyright by the U.S. Secretary of Commerce
on behalf of the United States of America. All rights reserved.
##$NIST MASS SPEC NO=352649
##MOLFORM=C13 H26 O Si
##MW=226
##$NIST SOURCE=MSDC
##XUNITS=M/Z
##YUNITS=RELATIVE INTENSITY
##XFACTOR=1
##YFACTOR=1
##FIRSTX=15
##LASTX=228
##FIRSTY=20
##MAXX=228
##MINX=15
##MAXY=9999
##MINY=10
##NPOINTS=146
##PEAK TABLE=(XY..XY)
15,20 26,10 27,280 28,40
29,250 30,10 31,30 37,10
38,20 39,691 40,210 41,3503
42,230 43,611 44,160 45,1201
46,90 47,621 48,30 49,20
50,40 51,140 52,90 53,931
54,120 55,530 56,90 57,130
58,130 59,480 60,130 61,530
62,40 63,50 64,10 65,220
66,100 67,1241 68,1071 69,4014
70,260 71,70 73,9999 74,1011
75,6986 76,520 77,701 78,100
79,721 80,2072 81,841 82,190
83,130 84,30 85,110 86,20
87,70 88,30 89,90 91,691
92,1011 93,5625 94,831 95,691
96,70 97,80 98,30 99,150
100,20 101,230 102,30 103,440
104,60 105,360 106,80 107,921
108,230 109,270 110,110 111,110
112,20 113,360 114,50 115,200
116,60 117,90 118,10 119,120
121,4634 122,520 123,631 124,60
125,100 127,861 128,120 129,320
130,70 131,230 132,30 133,20
135,571 136,1001 137,190 138,20
139,20 141,871 142,170 143,3123
144,1361 145,290 146,50 147,10
149,10 151,20 153,20 155,1131
156,2923 157,1011 158,220 159,40
165,10 167,10 169,2442 170,480
171,180 172,20 181,20 183,550
184,150 185,40 186,10 191,10
193,60 194,10 195,10 197,10
198,10 209,10 211,1031 212,190
213,50 214,10 225,80 226,601
227,120 228,30
##END=
