##TITLE=2-Pentanol, pentafluoropropionate
##JCAMP-DX=4.24
##DATA TYPE=MASS SPECTRUM
##ORIGIN=NIST Mass Spectrometry Data Center
##OWNER=NIST Mass Spectrometry Data Center
Collection (C) 2014 copyright by the U.S. Secretary of Commerce
on behalf of the United States of America. All rights reserved.
##$NIST MASS SPEC NO=352313
##MOLFORM=C8 H11 F5 O2
##MW=234
##$NIST SOURCE=MSDC
##XUNITS=M/Z
##YUNITS=RELATIVE INTENSITY
##XFACTOR=1
##YFACTOR=1
##FIRSTX=14
##LASTX=219
##FIRSTY=20
##MAXX=219
##MINX=14
##MAXY=9999
##MINY=10
##NPOINTS=86
##PEAK TABLE=(XY..XY)
14,20 15,320 16,10 18,10
19,10 20,10 25,10 26,250
27,3093 28,661 29,3163 30,70
31,340 32,20 33,40 37,40
38,140 39,2302 40,440 41,4544
42,2853 43,9238 44,490 45,410
46,10 47,1051 48,20 49,10
50,310 51,170 52,40 53,380
54,160 55,7317 56,340 57,50
58,20 59,20 61,30 62,30
63,20 64,10 65,40 66,10
67,130 69,3333 70,5955 71,8638
72,470 73,20 77,30 78,90
81,80 82,10 85,10 86,20
93,110 94,10 95,10 97,60
99,10 100,891 101,30 109,60
113,20 115,10 117,20 119,9999
120,210 128,160 129,10 143,10
144,10 145,10 147,1621 148,50
149,90 163,2522 164,110 165,160
190,500 191,5005 192,300 193,40
205,10 219,40
##END=
