##TITLE=Tricosanoic acid, TBDMS derivative
##JCAMP-DX=4.24
##DATA TYPE=MASS SPECTRUM
##ORIGIN=NIST Mass Spectrometry Data Center
##OWNER=NIST Mass Spectrometry Data Center
Collection (C) 2014 copyright by the U.S. Secretary of Commerce
on behalf of the United States of America. All rights reserved.
##$NIST MASS SPEC NO=352403
##MOLFORM=C29 H60 O2 Si
##MW=468
##$NIST SOURCE=MSDC
##XUNITS=M/Z
##YUNITS=RELATIVE INTENSITY
##XFACTOR=1
##YFACTOR=1
##FIRSTX=26
##LASTX=469
##FIRSTY=10
##MAXX=469
##MINX=26
##MAXY=9999
##MINY=10
##NPOINTS=182
##PEAK TABLE=(XY..XY)
26,10 27,70 28,20 29,230
30,10 38,10 39,90 40,20
41,691 42,170 43,1491 44,60
45,80 46,10 47,70 51,10
53,30 54,50 55,691 56,230
57,1171 58,120 59,130 60,30
61,70 62,10 65,10 67,180
68,40 69,350 70,90 71,340
72,70 73,1331 74,160 75,3713
76,270 77,190 78,10 79,50
80,10 81,220 82,40 83,270
84,60 85,190 86,50 87,30
88,10 89,20 91,10 93,50
94,10 95,280 96,40 97,210
98,70 99,120 100,20 101,60
102,20 103,40 105,120 106,10
107,40 108,10 109,110 110,10
111,90 112,20 113,20 114,90
115,340 116,360 117,1461 118,170
119,70 120,10 121,40 122,10
123,40 124,10 125,30 126,10
127,10 129,2282 130,280 131,821
132,100 133,40 134,10 135,30
137,10 139,10 141,10 142,10
143,120 144,20 145,30 149,10
151,10 153,10 154,10 155,20
156,10 157,60 158,30 159,60
160,10 167,10 169,10 171,380
172,60 173,30 174,10 175,50
176,10 179,10 181,10 185,250
186,40 187,210 188,30 189,10
199,60 200,10 201,20 213,70
214,10 215,10 227,100 228,20
229,20 241,90 242,20 243,30
244,10 255,90 256,20 257,10
269,80 270,20 271,10 283,70
284,20 285,10 297,60 298,10
299,10 311,40 312,10 313,10
325,30 326,10 327,10 337,10
339,20 340,10 341,10 353,10
355,10 367,40 368,10 369,10
381,10 395,20 396,10 409,70
411,9999 412,3283 413,881 414,170
415,20 423,10 425,10 451,10
453,110 454,40 455,10 467,10
468,40 469,20
##END=
