##TITLE=4-Hexen-1-ol, trifluoroacetate
##JCAMP-DX=4.24
##DATA TYPE=MASS SPECTRUM
##ORIGIN=NIST Mass Spectrometry Data Center
##OWNER=NIST Mass Spectrometry Data Center
Collection (C) 2014 copyright by the U.S. Secretary of Commerce
on behalf of the United States of America. All rights reserved.
##$NIST MASS SPEC NO=352727
##MOLFORM=C8 H11 F3 O2
##MW=196
##$NIST SOURCE=MSDC
##XUNITS=M/Z
##YUNITS=RELATIVE INTENSITY
##XFACTOR=1
##YFACTOR=1
##FIRSTX=14
##LASTX=196
##FIRSTY=10
##MAXX=196
##MINX=14
##MAXY=9999
##MINY=10
##NPOINTS=81
##PEAK TABLE=(XY..XY)
14,10 15,70 20,10 25,10
26,150 27,1341 28,440 29,1391
30,50 31,70 33,30 37,40
38,130 39,2192 40,360 41,3573
42,601 43,260 44,50 45,90
46,10 47,50 49,10 50,280
51,300 52,150 53,1021 54,1471
55,5215 56,490 57,50 58,10
59,50 60,10 61,10 62,20
63,50 64,10 65,310 66,170
67,9999 68,661 69,3313 70,60
71,270 72,10 73,20 74,10
75,10 77,110 78,80 79,430
80,70 81,921 82,4204 83,430
84,20 85,10 91,30 95,20
97,290 98,10 99,240 100,30
105,20 107,10 109,10 111,10
112,10 113,10 115,20 119,30
125,20 127,20 131,10 140,10
141,10 150,30 153,10 169,10
196,10
##END=
