##TITLE=3-Methoxysalicylic acid, 2TMS derivative
##JCAMP-DX=4.24
##DATA TYPE=MASS SPECTRUM
##ORIGIN=NIST Mass Spectrometry Data Center
##OWNER=NIST Mass Spectrometry Data Center
Collection (C) 2014 copyright by the U.S. Secretary of Commerce
on behalf of the United States of America. All rights reserved.
##$NIST MASS SPEC NO=352873
##MOLFORM=C14 H24 O4 Si2
##MW=312
##$NIST SOURCE=MSDC
##XUNITS=M/Z
##YUNITS=RELATIVE INTENSITY
##XFACTOR=1
##YFACTOR=1
##FIRSTX=15
##LASTX=314
##FIRSTY=30
##MAXX=314
##MINX=15
##MAXY=9999
##MINY=10
##NPOINTS=203
##PEAK TABLE=(XY..XY)
15,30 27,10 29,60 31,30
38,10 39,20 41,10 42,10
43,270 44,160 45,1131 46,80
47,80 48,10 49,10 50,20
51,90 52,20 53,60 54,10
55,70 56,10 57,70 58,80
59,340 60,40 61,70 62,20
63,70 64,30 65,60 66,20
67,30 68,10 69,40 70,40
71,70 72,110 73,7016 74,601
75,500 76,70 77,190 78,70
79,110 80,20 81,30 82,10
83,180 84,30 85,50 86,10
87,20 88,20 89,220 90,60
91,300 92,100 93,110 94,30
95,40 96,20 97,30 98,150
99,40 101,10 102,20 103,100
104,90 105,210 106,40 107,350
108,50 109,80 110,10 111,30
112,20 113,10 115,60 116,20
117,60 118,50 119,220 120,100
121,200 122,140 123,80 124,20
125,20 126,510 128,10 129,20
131,120 132,30 133,571 135,400
136,110 137,771 138,100 139,50
140,10 141,140 142,30 143,20
145,20 146,10 147,741 148,150
149,821 150,210 151,180 152,40
153,100 154,10 155,10 157,10
159,30 160,10 161,50 162,20
163,110 164,60 165,701 166,150
167,50 168,20 169,10 175,20
176,10 177,40 178,40 179,200
180,120 181,270 182,50 183,20
189,10 190,480 191,100 192,100
193,931 194,150 195,130 196,40
197,20 198,10 203,10 205,280
206,60 207,80 208,40 209,310
210,50 211,50 212,10 219,10
221,20 222,10 223,400 224,330
225,120 226,30 227,10 233,10
234,10 235,10 237,30 238,10
239,130 240,100 241,20 242,10
247,10 249,280 250,70 251,170
252,30 253,40 254,10 255,10
263,10 264,480 265,130 266,150
267,601 268,150 269,60 270,10
279,50 280,20 281,50 282,40
283,20 295,60 297,9999 298,2452
299,951 300,170 301,30 311,10
312,50 313,10 314,10
##END=
