##TITLE=2,6-Dihydroxybenzoic acid, 3TBDMS derivative
##JCAMP-DX=4.24
##DATA TYPE=MASS SPECTRUM
##ORIGIN=NIST Mass Spectrometry Data Center
##OWNER=NIST Mass Spectrometry Data Center
Collection (C) 2014 copyright by the U.S. Secretary of Commerce
on behalf of the United States of America. All rights reserved.
##$NIST MASS SPEC NO=352805
##MOLFORM=C25 H48 O4 Si3
##MW=496
##$NIST SOURCE=MSDC
##XUNITS=M/Z
##YUNITS=RELATIVE INTENSITY
##XFACTOR=1
##YFACTOR=1
##FIRSTX=27
##LASTX=496
##FIRSTY=10
##MAXX=496
##MINX=27
##MAXY=9999
##MINY=10
##NPOINTS=213
##PEAK TABLE=(XY..XY)
27,10 29,50 39,20 40,10
41,130 42,10 43,20 45,70
47,10 55,20 56,60 57,320
58,50 59,180 60,20 61,10
69,10 71,10 73,3413 74,300
75,230 76,10 77,30 79,10
81,10 83,10 85,30 89,10
91,100 92,10 93,10 95,20
97,10 99,40 100,10 101,10
102,10 103,30 104,10 105,130
106,10 107,10 109,10 113,10
115,80 116,10 117,40 118,10
119,80 120,10 121,30 123,10
127,10 128,10 129,30 131,90
132,20 133,290 134,50 135,100
136,10 137,30 141,10 143,20
145,40 146,10 147,661 148,110
149,280 150,60 151,50 152,10
153,10 155,20 157,10 159,20
161,20 162,10 163,50 164,10
165,30 166,10 167,20 169,10
173,10 175,20 176,10 177,100
178,80 179,80 180,20 181,30
189,20 191,100 192,30 193,190
194,40 195,80 196,10 197,30
198,10 203,20 205,20 207,270
208,60 209,80 210,10 211,20
217,10 219,40 220,10 221,70
222,20 223,30 224,10 225,20
233,60 234,20 235,40 236,10
237,210 238,40 239,40 240,10
241,10 247,10 249,190 250,40
251,160 252,40 253,80 254,20
255,20 256,10 263,40 264,10
265,40 266,30 267,1001 268,250
269,150 270,30 271,10 275,10
277,30 278,10 279,30 280,10
281,30 282,10 283,220 284,60
285,30 286,10 289,10 291,40
292,10 293,100 294,30 295,50
296,10 297,20 298,10 299,10
305,10 307,360 308,100 309,811
310,210 311,100 312,20 313,10
321,30 322,10 323,70 324,20
325,150 326,40 327,20 335,10
337,10 339,10 349,130 350,40
351,60 352,20 353,10 363,10
365,420 366,130 367,70 368,20
381,40 382,10 383,100 384,30
385,20 423,20 424,10 425,10
437,30 439,9999 440,4984 441,2342
442,601 443,140 444,20 481,380
482,160 483,70 484,20 495,20
496,10
##END=
