##TITLE=(-)-Isolongifolol, acetate
##JCAMP-DX=4.24
##DATA TYPE=MASS SPECTRUM
##ORIGIN=NIST Mass Spectrometry Data Center
##OWNER=NIST Mass Spectrometry Data Center
Collection (C) 2014 copyright by the U.S. Secretary of Commerce
on behalf of the United States of America. All rights reserved.
##$NIST MASS SPEC NO=352280
##MOLFORM=C17 H28 O2
##MW=264
##$NIST SOURCE=MSDC
##XUNITS=M/Z
##YUNITS=RELATIVE INTENSITY
##XFACTOR=1
##YFACTOR=1
##FIRSTX=15
##LASTX=249
##FIRSTY=460
##MAXX=249
##MINX=15
##MAXY=9999
##MINY=10
##NPOINTS=157
##PEAK TABLE=(XY..XY)
15,460 16,10 17,10 18,60
25,10 26,40 27,621 28,250
29,1091 30,40 31,70 32,10
37,10 38,20 39,1001 40,230
41,4004 42,530 43,9999 44,260
45,70 50,40 51,190 52,130
53,1061 54,250 55,2923 56,550
57,410 58,30 59,20 60,30
61,530 62,20 63,70 64,30
65,891 66,520 67,3713 68,581
69,2522 70,370 71,180 72,20
73,150 74,20 75,10 77,2382
78,581 79,4364 80,1281 81,3964
82,1772 83,761 84,150 85,190
86,20 87,10 89,50 91,4784
92,2262 93,5085 94,4254 95,5465
96,771 97,440 98,450 99,40
100,10 101,10 102,30 103,360
104,210 105,3743 106,1682 107,4464
108,2612 109,5315 110,991 111,460
112,120 113,30 114,10 115,360
116,150 117,691 118,200 119,2813
120,2112 121,2552 122,1441 123,821
124,140 125,40 126,30 127,60
128,160 129,170 130,80 131,410
132,170 133,3783 134,2332 135,3333
136,1842 137,1571 138,400 139,80
140,160 141,50 142,20 143,50
144,30 145,270 146,130 147,1872
148,1541 149,651 150,370 151,190
152,20 153,20 154,10 155,10
157,10 158,10 159,100 161,6846
162,1421 163,791 164,110 165,10
173,60 174,30 175,1321 176,791
177,190 178,30 179,20 181,10
187,30 189,4234 190,681 191,80
192,10 193,20 194,10 202,10
204,2372 205,410 206,40 207,40
220,10 221,20 222,20 223,10
249,10
##END=
