##TITLE=Catechol, TBDMS derivative
##JCAMP-DX=4.24
##DATA TYPE=MASS SPECTRUM
##ORIGIN=NIST Mass Spectrometry Data Center
##OWNER=NIST Mass Spectrometry Data Center
Collection (C) 2014 copyright by the U.S. Secretary of Commerce
on behalf of the United States of America. All rights reserved.
##$NIST MASS SPEC NO=352584
##MOLFORM=C12 H20 O2 Si
##MW=224
##$NIST SOURCE=MSDC
##XUNITS=M/Z
##YUNITS=RELATIVE INTENSITY
##XFACTOR=1
##YFACTOR=1
##FIRSTX=15
##LASTX=226
##FIRSTY=10
##MAXX=226
##MINX=15
##MAXY=9999
##MINY=10
##NPOINTS=115
##PEAK TABLE=(XY..XY)
15,10 26,10 27,70 28,10
29,180 30,10 31,20 38,20
39,230 40,30 41,420 42,80
43,190 44,30 45,510 46,30
47,350 48,20 49,20 50,40
51,90 52,80 53,140 54,30
55,90 56,40 57,460 58,110
59,250 60,70 61,210 62,40
63,150 64,130 65,260 66,40
67,30 68,10 69,30 70,10
71,20 73,731 74,110 75,5835
76,530 77,420 78,60 79,70
80,60 81,100 82,10 83,40
85,50 86,10 87,20 89,50
91,1571 92,240 93,140 94,20
95,40 96,10 97,20 98,10
99,50 100,10 101,10 103,10
105,50 106,10 107,150 108,80
109,60 110,30 111,20 115,20
119,10 120,10 121,40 122,10
123,70 124,10 125,10 131,10
133,10 134,30 135,70 136,1481
137,641 138,120 139,30 147,70
148,40 149,1291 150,210 151,6045
152,941 153,310 154,30 161,10
163,10 165,40 166,2122 167,9999
168,1682 169,520 170,40 191,10
208,10 209,180 210,30 211,10
224,80 225,20 226,10
##END=
