##TITLE=cis-2-Penten-1-ol, trifluoroacetate
##JCAMP-DX=4.24
##DATA TYPE=MASS SPECTRUM
##ORIGIN=NIST Mass Spectrometry Data Center
##OWNER=NIST Mass Spectrometry Data Center
Collection (C) 2014 copyright by the U.S. Secretary of Commerce
on behalf of the United States of America. All rights reserved.
##$NIST MASS SPEC NO=352713
##MOLFORM=C7 H9 F3 O2
##MW=182
##$NIST SOURCE=MSDC
##XUNITS=M/Z
##YUNITS=RELATIVE INTENSITY
##XFACTOR=1
##YFACTOR=1
##FIRSTX=14
##LASTX=169
##FIRSTY=10
##MAXX=169
##MINX=14
##MAXY=9999
##MINY=10
##NPOINTS=92
##PEAK TABLE=(XY..XY)
14,10 15,50 26,110 27,821
28,200 29,671 30,20 31,70
33,20 37,60 38,200 39,2062
40,571 41,3463 42,1531 43,250
44,50 45,50 46,20 47,170
48,10 49,20 50,480 51,360
52,180 53,2202 54,450 55,2072
56,130 57,250 58,10 59,841
60,50 61,30 62,50 63,80
64,20 65,290 66,220 67,5705
68,9999 69,8998 70,290 71,60
72,10 73,60 75,10 77,50
78,100 79,10 80,10 81,10
82,10 83,80 84,40 85,220
86,10 89,30 91,140 92,10
93,10 95,60 97,420 98,10
99,320 100,20 103,10 105,10
106,10 111,10 112,150 113,470
114,30 115,60 119,20 125,661
126,40 127,10 135,10 136,20
138,20 139,30 140,170 141,771
142,40 149,10 150,20 153,1571
154,140 155,10 167,30 169,10
##END=
