##TITLE=trans-2-Dodecen-1-ol, pentafluoropropionate
##JCAMP-DX=4.24
##DATA TYPE=MASS SPECTRUM
##ORIGIN=NIST Mass Spectrometry Data Center
##OWNER=NIST Mass Spectrometry Data Center
Collection (C) 2014 copyright by the U.S. Secretary of Commerce
on behalf of the United States of America. All rights reserved.
##$NIST MASS SPEC NO=352261
##MOLFORM=C15 H23 F5 O2
##MW=330
##$NIST SOURCE=MSDC
##XUNITS=M/Z
##YUNITS=RELATIVE INTENSITY
##XFACTOR=1
##YFACTOR=1
##FIRSTX=15
##LASTX=330
##FIRSTY=30
##MAXX=330
##MINX=15
##MAXY=9999
##MINY=10
##NPOINTS=142
##PEAK TABLE=(XY..XY)
15,30 18,10 20,20 25,10
26,90 27,1802 28,601 29,3663
30,80 31,120 32,10 33,30
37,20 38,50 39,2262 40,470
41,9088 42,2372 43,9999 44,420
45,90 46,10 47,150 50,120
51,200 52,160 53,2422 54,5185
55,8267 56,6005 57,6726 58,300
59,190 60,10 61,10 62,10
63,30 64,10 65,550 66,891
67,6005 68,4054 69,7907 70,6556
71,3523 72,180 73,70 74,10
75,10 76,10 77,430 78,110
79,1281 80,701 81,5415 82,6656
83,6376 84,3683 85,941 86,50
87,10 89,10 90,10 91,180
92,30 93,310 94,310 95,4344
96,5735 97,4844 98,1231 99,110
100,280 101,30 103,10 105,20
106,10 107,70 108,100 109,2182
110,2032 111,1692 112,1541 113,140
114,10 115,10 117,10 119,5295
120,100 121,100 122,50 123,841
124,1121 125,340 126,410 127,50
128,40 131,10 133,10 135,10
136,20 137,550 138,1672 139,180
140,10 141,60 145,10 147,370
148,10 149,60 151,60 152,10
159,30 161,10 162,10 163,10
164,10 165,20 166,811 167,120
168,10 175,70 176,10 188,10
189,40 190,10 193,10 201,10
203,80 204,20 205,10 211,20
216,30 217,90 218,10 219,10
230,20 231,10 286,10 288,10
302,10 330,10
##END=
