##TITLE=4-Chloro-2-methoxyphenol, acetate
##JCAMP-DX=4.24
##DATA TYPE=MASS SPECTRUM
##ORIGIN=NIST Mass Spectrometry Data Center
##OWNER=NIST Mass Spectrometry Data Center
Collection (C) 2014 copyright by the U.S. Secretary of Commerce
on behalf of the United States of America. All rights reserved.
##$NIST MASS SPEC NO=352854
##MOLFORM=C9 H9 Cl O3
##MW=200
##$NIST SOURCE=MSDC
##XUNITS=M/Z
##YUNITS=RELATIVE INTENSITY
##XFACTOR=1
##YFACTOR=1
##FIRSTX=14
##LASTX=203
##FIRSTY=20
##MAXX=203
##MINX=14
##MAXY=9999
##MINY=10
##NPOINTS=107
##PEAK TABLE=(XY..XY)
14,20 15,120 26,10 27,10
28,10 29,30 31,20 36,10
37,40 38,50 39,90 40,10
41,50 42,120 43,2162 44,60
45,10 47,10 48,10 49,70
50,380 51,931 52,150 53,130
54,10 55,40 60,110 61,100
62,220 63,540 64,50 65,460
66,60 67,20 69,10 71,10
72,40 73,180 74,70 75,170
76,20 77,120 78,30 79,991
80,90 81,10 84,20 85,60
86,270 87,130 88,130 89,50
90,20 91,20 92,10 93,240
94,200 95,40 96,10 97,20
98,70 99,400 100,50 101,140
102,10 103,10 107,10 108,70
109,10 110,10 111,180 112,20
113,120 114,190 115,1601 116,150
117,520 118,30 121,10 122,10
123,140 124,20 126,120 127,80
128,70 129,210 130,20 131,60
139,10 141,10 143,5295 144,380
145,1752 146,120 147,10 155,50
156,20 158,9999 159,891 160,3413
161,260 162,20 169,10 200,360
201,40 202,120 203,10
##END=
