##TITLE=1-Octen-3-ol, TBDMS derivative
##JCAMP-DX=4.24
##DATA TYPE=MASS SPECTRUM
##ORIGIN=NIST Mass Spectrometry Data Center
##OWNER=NIST Mass Spectrometry Data Center
Collection (C) 2014 copyright by the U.S. Secretary of Commerce
on behalf of the United States of America. All rights reserved.
##$NIST MASS SPEC NO=352754
##MOLFORM=C14 H30 O Si
##MW=242
##$NIST SOURCE=MSDC
##XUNITS=M/Z
##YUNITS=RELATIVE INTENSITY
##XFACTOR=1
##YFACTOR=1
##FIRSTX=15
##LASTX=242
##FIRSTY=10
##MAXX=242
##MINX=15
##MAXY=9999
##MINY=10
##NPOINTS=108
##PEAK TABLE=(XY..XY)
15,10 26,10 27,230 28,50
29,550 30,10 31,40 38,10
39,350 40,60 41,1171 42,130
43,701 44,70 45,671 46,40
47,561 48,30 49,20 50,10
51,30 52,20 53,160 54,190
55,581 56,110 57,510 58,270
59,891 60,160 61,360 62,30
63,20 65,50 66,20 67,250
68,50 69,230 70,40 71,100
72,80 73,4124 74,490 75,9999
76,741 77,400 78,20 79,60
80,10 82,20 83,60 84,20
85,370 86,60 87,130 89,130
90,10 91,20 93,10 95,60
96,10 97,100 98,40 99,1551
100,200 101,490 102,50 103,30
107,10 109,100 110,20 111,100
112,20 113,400 114,190 115,2512
116,320 123,10 125,30 126,10
127,190 128,80 129,280 130,60
139,20 141,90 142,20 143,60
144,10 155,60 157,711 158,100
159,60 160,10 167,20 169,20
171,3954 172,601 185,8478 186,1401
187,410 188,40 199,20 227,260
228,50 229,10 241,10 242,10
##END=
