##TITLE=Orcinol, TMS derivative
##JCAMP-DX=4.24
##DATA TYPE=MASS SPECTRUM
##ORIGIN=NIST Mass Spectrometry Data Center
##OWNER=NIST Mass Spectrometry Data Center
Collection (C) 2014 copyright by the U.S. Secretary of Commerce
on behalf of the United States of America. All rights reserved.
##$NIST MASS SPEC NO=352833
##MOLFORM=C10 H16 O2 Si
##MW=196
##$NIST SOURCE=MSDC
##XUNITS=M/Z
##YUNITS=RELATIVE INTENSITY
##XFACTOR=1
##YFACTOR=1
##FIRSTX=15
##LASTX=199
##FIRSTY=20
##MAXX=199
##MINX=15
##MAXY=9999
##MINY=10
##NPOINTS=139
##PEAK TABLE=(XY..XY)
15,20 26,10 27,90 28,30
29,80 30,10 31,20 32,10
35,10 36,20 37,10 38,40
39,280 40,40 41,100 42,50
43,360 44,100 45,721 46,40
47,240 48,20 49,10 50,70
51,240 52,160 53,240 54,30
55,190 56,20 57,50 58,80
59,120 60,50 61,581 62,90
63,160 64,30 65,150 66,100
67,180 68,30 69,150 70,30
71,40 72,40 73,1211 74,180
75,2042 76,290 77,1111 78,240
79,180 80,20 81,80 82,80
83,210 85,140 86,20 87,50
88,10 89,60 90,470 92,40
93,120 94,40 95,120 96,20
97,50 98,20 99,200 100,20
101,30 102,10 103,70 104,20
105,350 106,120 107,520 108,50
109,110 110,20 111,70 112,10
113,40 115,20 117,10 119,70
120,30 121,280 122,50 123,140
124,30 125,80 126,10 127,10
131,10 133,30 134,10 135,280
136,50 137,130 138,20 139,10
145,70 146,10 147,50 148,30
149,70 150,20 151,210 152,30
153,50 154,10 161,70 162,20
163,601 164,100 165,400 166,150
167,140 168,20 169,10 175,10
177,30 178,20 179,210 180,100
181,9999 182,1471 183,440 184,40
193,10 194,10 195,60 196,4784
197,741 198,220 199,20
##END=
