##TITLE=2-Decanol, heptafluorobutyrate
##JCAMP-DX=4.24
##DATA TYPE=MASS SPECTRUM
##ORIGIN=NIST Mass Spectrometry Data Center
##OWNER=NIST Mass Spectrometry Data Center
Collection (C) 2014 copyright by the U.S. Secretary of Commerce
on behalf of the United States of America. All rights reserved.
##$NIST MASS SPEC NO=352326
##MOLFORM=C14 H21 F7 O2
##MW=354
##$NIST SOURCE=MSDC
##XUNITS=M/Z
##YUNITS=RELATIVE INTENSITY
##XFACTOR=1
##YFACTOR=1
##FIRSTX=14
##LASTX=269
##FIRSTY=10
##MAXX=269
##MINX=14
##MAXY=9999
##MINY=10
##NPOINTS=103
##PEAK TABLE=(XY..XY)
14,10 15,80 16,10 18,20
19,10 20,20 25,10 26,100
27,1802 28,671 29,3723 30,80
31,100 32,10 33,10 37,10
38,40 39,1561 40,390 41,8007
42,3173 43,9789 44,450 45,210
46,10 47,200 48,10 50,70
51,100 52,50 53,561 54,851
55,9178 56,7867 57,6346 58,320
59,40 61,20 62,10 63,10
65,100 66,80 67,1081 68,901
69,9999 70,7297 71,3663 72,190
73,10 77,70 78,50 79,130
80,30 81,550 82,1361 83,3873
84,3593 85,3183 86,200 87,10
90,10 91,20 93,70 94,20
95,120 96,881 97,5125 98,2492
99,771 100,611 101,20 109,230
110,340 111,3233 112,1882 113,160
114,10 119,450 120,10 125,120
126,10 131,80 138,10 140,2082
141,350 142,20 147,10 150,100
159,20 169,4324 170,130 178,30
185,30 195,10 197,631 198,20
213,410 214,20 215,10 240,10
241,561 242,30 269,10
##END=
