##TITLE=4-Fluoro-2-methoxyphenol, acetate
##JCAMP-DX=4.24
##DATA TYPE=MASS SPECTRUM
##ORIGIN=NIST Mass Spectrometry Data Center
##OWNER=NIST Mass Spectrometry Data Center
Collection (C) 2014 copyright by the U.S. Secretary of Commerce
on behalf of the United States of America. All rights reserved.
##$NIST MASS SPEC NO=352864
##MOLFORM=C9 H9 F O3
##MW=184
##$NIST SOURCE=MSDC
##XUNITS=M/Z
##YUNITS=RELATIVE INTENSITY
##XFACTOR=1
##YFACTOR=1
##FIRSTX=14
##LASTX=186
##FIRSTY=20
##MAXX=186
##MINX=14
##MAXY=9999
##MINY=10
##NPOINTS=87
##PEAK TABLE=(XY..XY)
14,20 15,120 26,20 27,10
28,20 29,40 31,60 33,10
35,10 37,20 38,40 39,150
40,10 41,20 42,110 43,2232
44,140 45,20 49,30 50,180
51,330 52,30 53,60 54,10
55,30 56,80 57,240 58,20
59,130 60,10 61,50 62,60
63,150 64,20 65,250 66,20
68,60 69,190 70,1001 71,150
72,120 73,40 74,30 75,80
76,10 77,40 78,10 79,60
80,20 81,220 82,190 83,440
84,40 85,70 86,10 92,10
93,70 94,40 95,390 96,50
97,150 98,300 99,1601 100,90
101,10 108,10 109,10 110,120
111,80 112,40 113,260 114,20
123,20 125,20 127,6105 128,440
129,40 139,70 140,20 142,9999
143,841 144,70 153,10 169,10
184,470 185,50 186,10
##END=
