##TITLE=Ethyltriethylene glycol, TMS derivative
##JCAMP-DX=4.24
##DATA TYPE=MASS SPECTRUM
##ORIGIN=NIST Mass Spectrometry Data Center, 2007
##OWNER=NIST Mass Spectrometry Data Center
Collection (C) 2014 copyright by the U.S. Secretary of Commerce
on behalf of the United States of America. All rights reserved.
##$NIST MASS SPEC NO=352084
##MOLFORM=C11 H26 O4 Si
##MW=250
##$NIST SOURCE=MSDC
##XUNITS=M/Z
##YUNITS=RELATIVE INTENSITY
##XFACTOR=1
##YFACTOR=1
##FIRSTX=14
##LASTX=235
##FIRSTY=10
##MAXX=235
##MINX=14
##MAXY=9999
##MINY=10
##NPOINTS=88
##PEAK TABLE=(XY..XY)
14,10 15,100 16,10 19,70
26,50 27,340 28,360 29,1021
30,70 31,971 32,20 39,20
41,110 42,80 43,791 44,400
45,6166 46,170 47,160 48,10
49,10 51,20 53,10 55,60
56,30 57,100 58,400 59,1862
60,130 61,340 62,20 63,30
69,10 70,100 71,110 72,2112
73,9999 74,751 75,1451 76,100
77,180 78,10 79,10 85,20
86,20 87,530 88,370 89,520
90,40 91,20 99,20 101,1281
102,170 103,3583 104,300 105,200
106,10 115,60 116,3203 117,5035
118,601 119,300 120,30 121,10
129,10 131,20 132,10 133,220
134,20 135,20 145,260 146,40
147,671 148,80 149,30 159,10
160,20 161,190 162,20 163,20
176,10 177,20 189,20 191,40
192,10 207,60 208,10 235,20
##END=
