##TITLE=3-Methyl-1-butanol, heptafluorobutyrate
##JCAMP-DX=4.24
##DATA TYPE=MASS SPECTRUM
##ORIGIN=NIST Mass Spectrometry Data Center
##OWNER=NIST Mass Spectrometry Data Center
Collection (C) 2014 copyright by the U.S. Secretary of Commerce
on behalf of the United States of America. All rights reserved.
##$NIST MASS SPEC NO=352323
##MOLFORM=C9 H11 F7 O2
##MW=284
##$NIST SOURCE=MSDC
##XUNITS=M/Z
##YUNITS=RELATIVE INTENSITY
##XFACTOR=1
##YFACTOR=1
##FIRSTX=14
##LASTX=269
##FIRSTY=10
##MAXX=269
##MINX=14
##MAXY=9999
##MINY=10
##NPOINTS=79
##PEAK TABLE=(XY..XY)
14,10 15,70 20,10 26,80
27,1361 28,1361 29,1451 30,50
31,170 33,30 37,20 38,70
39,1341 40,220 41,4224 42,2342
43,9999 44,450 45,120 47,90
50,130 51,110 52,30 53,350
54,380 55,7857 56,450 57,310
58,20 59,20 62,20 63,10
65,20 66,10 67,120 69,3984
70,5045 71,2813 72,150 73,20
77,10 78,60 80,10 81,80
82,10 85,10 87,10 90,10
93,60 95,10 97,10 99,30
100,941 101,20 109,260 110,10
112,10 115,30 119,681 120,20
122,10 131,100 147,20 150,120
151,10 159,10 169,2402 170,80
178,10 195,10 197,80 199,10
213,20 215,60 241,330 242,340
243,40 255,10 269,10
##END=
