##TITLE=1-Octen-3-ol, methyl ether
##JCAMP-DX=4.24
##DATA TYPE=MASS SPECTRUM
##ORIGIN=NIST Mass Spectrometry Data Center
##OWNER=NIST Mass Spectrometry Data Center
Collection (C) 2014 copyright by the U.S. Secretary of Commerce
on behalf of the United States of America. All rights reserved.
##$NIST MASS SPEC NO=352747
##MOLFORM=C9 H18 O
##MW=142
##$NIST SOURCE=MSDC
##XUNITS=M/Z
##YUNITS=RELATIVE INTENSITY
##XFACTOR=1
##YFACTOR=1
##FIRSTX=15
##LASTX=142
##FIRSTY=30
##MAXX=142
##MINX=15
##MAXY=9999
##MINY=10
##NPOINTS=65
##PEAK TABLE=(XY..XY)
15,30 26,30 27,410 28,120
29,430 30,10 31,40 33,10
37,10 38,30 39,641 40,100
41,2342 42,230 43,550 44,20
45,400 46,10 50,30 51,80
52,50 53,410 54,460 55,871
56,210 57,150 58,210 59,70
62,10 63,20 65,70 66,90
67,360 68,240 69,360 71,9999
72,631 73,60 77,50 78,10
79,70 80,20 81,250 82,200
83,140 84,20 85,220 86,320
87,30 91,10 93,10 95,100
96,10 97,20 99,390 100,50
109,10 110,320 111,40 113,150
114,20 115,40 127,10 141,10
142,30
##END=
