##TITLE=2,4-Dihydroxyacetophenone, 2TMS derivative
##JCAMP-DX=4.24
##DATA TYPE=MASS SPECTRUM
##ORIGIN=NIST Mass Spectrometry Data Center
##OWNER=NIST Mass Spectrometry Data Center
Collection (C) 2014 copyright by the U.S. Secretary of Commerce
on behalf of the United States of America. All rights reserved.
##$NIST MASS SPEC NO=352821
##MOLFORM=C14 H24 O3 Si2
##MW=296
##$NIST SOURCE=MSDC
##XUNITS=M/Z
##YUNITS=RELATIVE INTENSITY
##XFACTOR=1
##YFACTOR=1
##FIRSTX=15
##LASTX=298
##FIRSTY=10
##MAXX=298
##MINX=15
##MAXY=9999
##MINY=10
##NPOINTS=190
##PEAK TABLE=(XY..XY)
15,10 29,10 39,10 42,10
43,250 44,40 45,430 46,30
47,40 51,20 52,10 53,20
55,20 57,20 58,30 59,60
60,10 61,40 62,10 63,50
64,10 65,20 66,10 67,20
68,10 69,30 70,10 71,20
73,2472 74,230 75,380 76,40
77,130 78,40 79,40 80,10
81,20 82,20 83,80 84,20
85,50 86,10 87,20 88,10
89,100 90,30 91,110 92,20
93,60 94,10 95,70 96,20
97,60 98,10 99,60 100,10
101,30 102,30 103,110 104,100
105,130 106,30 107,60 108,10
109,80 110,140 111,120 112,80
113,30 114,10 115,100 116,90
117,110 118,190 119,150 120,20
121,100 122,20 123,40 124,190
125,110 126,30 127,20 128,20
129,30 130,10 131,90 132,30
133,1551 135,180 136,30 137,90
138,10 139,10 141,10 143,40
144,10 145,40 146,10 147,200
148,50 149,240 150,70 151,120
152,20 153,20 155,10 157,20
159,50 160,10 161,60 162,30
163,150 164,30 165,90 166,30
167,80 168,10 169,20 171,10
173,10 174,10 175,40 176,20
177,90 178,20 179,120 180,140
181,60 182,10 183,10 187,10
189,10 190,10 191,120 192,60
193,100 194,20 195,70 196,10
197,10 203,10 205,30 206,30
207,40 208,30 209,761 210,120
211,40 219,10 221,30 222,10
223,100 224,20 225,10 233,20
234,10 235,50 236,10 237,70
238,20 239,40 240,10 247,20
248,10 249,40 250,20 251,90
252,30 253,40 254,10 263,110
264,30 265,110 266,30 267,40
268,10 277,10 278,10 279,140
281,9999 282,3974 283,1641 284,270
285,50 286,10 295,40 296,190
297,50 298,20
##END=
