##TITLE=Acetovanillone, TMS derivative
##JCAMP-DX=4.24
##DATA TYPE=MASS SPECTRUM
##ORIGIN=NIST Mass Spectrometry Data Center
##OWNER=NIST Mass Spectrometry Data Center
Collection (C) 2014 copyright by the U.S. Secretary of Commerce
on behalf of the United States of America. All rights reserved.
##$NIST MASS SPEC NO=352842
##MOLFORM=C12 H18 O3 Si
##MW=238
##$NIST SOURCE=MSDC
##XUNITS=M/Z
##YUNITS=RELATIVE INTENSITY
##XFACTOR=1
##YFACTOR=1
##FIRSTX=15
##LASTX=241
##FIRSTY=80
##MAXX=241
##MINX=15
##MAXY=9999
##MINY=10
##NPOINTS=150
##PEAK TABLE=(XY..XY)
15,80 27,20 28,20 29,60
30,10 31,30 38,20 39,70
40,10 41,20 42,60 43,1291
44,170 45,961 46,60 47,70
49,10 50,80 51,230 52,50
53,150 54,20 55,110 56,20
57,80 58,160 59,1101 60,100
61,140 62,80 63,250 64,60
65,120 66,80 67,80 68,30
69,130 70,40 71,50 72,80
73,3593 74,380 75,510 76,160
77,350 78,100 79,320 80,50
81,100 82,50 83,460 84,50
85,100 86,10 87,20 88,40
89,1031 90,150 91,430 92,120
93,130 94,70 95,150 96,50
97,40 98,10 99,60 100,10
101,20 102,20 103,60 104,931
105,290 106,60 107,410 108,70
109,330 110,40 111,50 115,20
116,10 117,20 118,20 119,170
120,110 121,450 122,150 123,240
124,40 125,20 131,20 132,10
133,120 134,70 135,791 136,270
137,1581 138,200 139,70 140,10
145,10 146,10 147,130 148,110
149,671 150,260 151,310 152,50
153,20 160,20 161,60 162,40
163,731 164,210 165,1491 166,270
167,80 168,10 175,20 176,10
177,110 178,70 179,410 180,340
181,90 182,20 190,10 191,50
193,9999 194,1551 195,561 196,60
197,10 203,10 205,20 206,10
207,220 208,5135 209,881 210,260
211,30 221,40 223,6796 224,1171
225,360 226,40 238,3723 239,681
240,200 241,20
##END=
