##TITLE=1,6-Heptadien-4-ol, TBDMS derivative
##JCAMP-DX=4.24
##DATA TYPE=MASS SPECTRUM
##ORIGIN=NIST Mass Spectrometry Data Center
##OWNER=NIST Mass Spectrometry Data Center
Collection (C) 2014 copyright by the U.S. Secretary of Commerce
on behalf of the United States of America. All rights reserved.
##$NIST MASS SPEC NO=352758
##MOLFORM=C13 H26 O Si
##MW=226
##$NIST SOURCE=MSDC
##XUNITS=M/Z
##YUNITS=RELATIVE INTENSITY
##XFACTOR=1
##YFACTOR=1
##FIRSTX=15
##LASTX=225
##FIRSTY=20
##MAXX=225
##MINX=15
##MAXY=9999
##MINY=10
##NPOINTS=125
##PEAK TABLE=(XY..XY)
15,20 26,20 27,190 28,50
29,410 30,10 31,100 37,10
38,30 39,721 40,100 41,1411
42,150 43,530 44,110 45,1021
46,70 47,701 48,40 49,30
50,20 51,70 52,40 53,230
54,140 55,230 56,120 57,581
58,400 59,2302 60,250 61,400
62,30 63,40 64,40 65,90
66,50 67,160 68,30 69,130
70,70 71,480 72,180 73,9999
74,891 75,7757 76,550 77,470
78,40 79,140 80,20 81,30
82,10 83,170 84,40 85,420
86,50 87,90 88,20 89,90
90,10 91,80 92,20 93,330
94,40 95,110 96,20 97,410
98,110 99,5635 100,641 101,3623
102,360 103,160 104,10 107,10
109,70 110,20 111,420 112,80
113,991 114,120 115,1271 116,150
117,80 123,30 125,120 126,20
127,1752 128,230 129,931 130,100
131,40 133,20 135,10 137,10
139,140 141,2482 142,310 143,200
144,20 149,100 150,20 151,520
152,80 153,30 154,10 155,40
163,50 164,10 165,10 167,10
168,10 169,1822 170,270 171,80
172,10 183,10 185,4334 186,721
187,200 188,20 211,30 212,10
225,10
##END=
