##TITLE=Cholesterol, pentafluoropropionate
##JCAMP-DX=4.24
##DATA TYPE=MASS SPECTRUM
##ORIGIN=NIST Mass Spectrometry Data Center
##OWNER=NIST Mass Spectrometry Data Center
Collection (C) 2014 copyright by the U.S. Secretary of Commerce
on behalf of the United States of America. All rights reserved.
##$NIST MASS SPEC NO=352225
##MOLFORM=C30 H45 F5 O2
##MW=532
##$NIST SOURCE=MSDC
##XUNITS=M/Z
##YUNITS=RELATIVE INTENSITY
##XFACTOR=1
##YFACTOR=1
##FIRSTX=20
##LASTX=533
##FIRSTY=30
##MAXX=533
##MINX=20
##MAXY=9999
##MINY=10
##NPOINTS=289
##PEAK TABLE=(XY..XY)
20,30 26,30 27,290 29,791
30,20 31,60 37,10 38,20
39,330 40,90 41,3183 42,470
43,7046 44,280 45,340 50,90
51,130 52,30 53,450 54,110
55,4094 56,550 57,4074 58,200
59,20 62,30 63,20 64,20
65,250 66,130 67,2772 68,460
69,2923 70,320 71,1932 72,120
77,921 78,290 79,2883 80,460
81,4744 82,561 83,1411 84,130
85,410 86,40 89,20 91,3894
92,941 93,3263 94,1031 95,3873
96,390 97,981 98,70 99,90
100,340 102,30 103,260 104,320
105,4454 106,1131 107,3533 108,1251
109,2072 110,240 111,480 112,60
113,110 114,50 115,490 116,290
117,1852 118,761 119,3233 120,2232
121,2162 122,601 123,1021 124,150
125,140 126,20 127,190 128,631
129,1261 130,641 131,2482 132,681
133,3023 134,851 135,1962 136,410
137,370 138,50 139,60 140,10
141,340 142,400 143,2833 144,1011
145,5405 146,1521 147,4064 148,1011
149,1061 150,150 151,250 152,100
153,110 154,70 155,250 156,180
157,1431 158,1601 159,2362 160,1411
161,1371 162,400 163,901 164,140
165,200 166,50 167,70 168,50
169,210 170,100 171,821 172,360
173,741 174,300 175,330 176,100
177,210 178,40 179,100 180,30
181,30 182,40 183,160 184,80
185,681 186,280 187,350 188,60
189,140 190,30 191,190 192,60
193,160 194,40 195,30 196,20
197,240 198,100 199,931 200,310
201,330 202,70 203,60 204,30
205,240 206,260 211,70 212,140
213,2282 214,721 215,360 216,80
217,40 218,30 219,90 220,20
222,10 223,10 225,60 226,40
227,220 228,741 229,290 230,50
231,40 232,30 233,50 234,10
239,100 240,50 241,130 242,60
243,40 244,20 245,150 246,160
247,1151 248,290 249,30 253,60
254,80 255,1201 256,240 257,80
258,40 259,120 260,981 261,310
262,50 263,10 267,20 268,20
271,20 272,10 273,30 274,110
275,310 276,70 277,10 283,150
284,60 287,20 288,10 295,20
296,20 297,40 298,20 299,20
300,10 301,100 302,30 307,70
308,10 309,30 310,20 311,40
312,20 313,20 314,50 321,20
322,20 323,30 324,40 326,200
327,60 335,10 337,20 338,10
339,40 347,10 348,10 349,20
350,10 351,20 352,20 353,1852
354,520 355,80 361,10 362,10
363,60 364,20 365,20 366,20
368,9999 369,3523 370,651 371,70
377,420 378,170 379,30 380,10
390,10 391,40 392,20 393,10
402,10 403,20 404,10 405,50
406,10 417,20 418,10 419,220
420,60 421,10 447,10 448,10
517,80 518,30 519,10 532,30
533,10
##END=
