##TITLE=2-Hydroxy-5-methoxybenzaldehyde, TMS derivative
##JCAMP-DX=4.24
##DATA TYPE=MASS SPECTRUM
##ORIGIN=NIST Mass Spectrometry Data Center
##OWNER=NIST Mass Spectrometry Data Center
Collection (C) 2014 copyright by the U.S. Secretary of Commerce
on behalf of the United States of America. All rights reserved.
##$NIST MASS SPEC NO=352902
##MOLFORM=C11 H16 O3 Si
##MW=224
##$NIST SOURCE=MSDC
##XUNITS=M/Z
##YUNITS=RELATIVE INTENSITY
##XFACTOR=1
##YFACTOR=1
##FIRSTX=15
##LASTX=227
##FIRSTY=80
##MAXX=227
##MINX=15
##MAXY=9999
##MINY=10
##NPOINTS=147
##PEAK TABLE=(XY..XY)
15,80 26,10 27,20 28,20
29,90 30,10 31,30 37,10
38,30 39,60 41,50 42,30
43,260 44,100 45,651 46,40
47,60 50,70 51,140 52,120
53,180 54,60 55,100 56,20
57,60 58,70 59,260 60,40
61,70 62,70 63,300 64,170
65,120 66,50 67,50 68,20
69,90 70,30 71,30 72,90
73,1551 74,190 75,320 76,90
77,250 78,130 79,180 80,70
81,40 82,40 83,210 84,20
85,80 86,10 87,10 88,10
89,100 90,40 91,220 92,270
93,90 94,20 95,220 96,30
97,40 98,10 99,20 101,10
102,10 103,30 106,80 107,180
108,120 109,120 110,30 111,40
112,10 113,10 115,10 117,10
118,10 119,60 120,40 121,360
122,70 123,150 124,50 125,20
131,10 132,10 133,40 134,30
135,280 136,1001 137,360 138,80
139,20 145,10 147,40 148,140
149,160 150,110 151,1051 152,180
153,60 154,10 159,10 160,10
161,60 162,10 163,90 164,70
165,340 166,4294 167,651 168,200
169,20 175,10 176,70 177,60
178,70 179,340 180,180 181,110
182,20 183,120 184,20 185,10
189,10 191,1702 192,280 193,130
194,460 195,100 196,30 197,10
205,10 207,30 209,9999 210,2142
211,681 212,60 213,10 224,1131
225,200 226,60 227,10
##END=
