##TITLE=Itaconic acid, 2TBDMS derivative
##JCAMP-DX=4.24
##DATA TYPE=MASS SPECTRUM
##ORIGIN=NIST Mass Spectrometry Data Center
##OWNER=NIST Mass Spectrometry Data Center
Collection (C) 2014 copyright by the U.S. Secretary of Commerce
on behalf of the United States of America. All rights reserved.
##$NIST MASS SPEC NO=352594
##MOLFORM=C17 H34 O4 Si2
##MW=358
##$NIST SOURCE=MSDC
##XUNITS=M/Z
##YUNITS=RELATIVE INTENSITY
##XFACTOR=1
##YFACTOR=1
##FIRSTX=27
##LASTX=346
##FIRSTY=20
##MAXX=346
##MINX=27
##MAXY=9999
##MINY=10
##NPOINTS=162
##PEAK TABLE=(XY..XY)
27,20 29,150 31,10 38,10
39,140 40,260 41,400 42,30
43,110 44,30 45,320 46,20
47,170 48,10 49,10 51,10
52,10 53,30 54,10 55,60
56,90 57,571 58,250 59,520
60,80 61,90 62,10 65,10
66,30 67,180 68,200 69,110
70,20 71,40 73,6556 74,631
75,1511 76,100 77,60 79,10
81,20 82,10 83,270 84,70
85,130 86,20 87,20 88,10
89,10 93,10 95,40 96,20
97,330 98,240 99,250 100,50
101,70 102,10 103,60 104,10
105,30 107,10 109,20 110,10
111,20 112,10 113,40 115,701
116,110 117,210 118,30 119,130
120,20 122,550 125,10 126,10
127,60 128,20 129,40 130,10
131,170 132,70 133,1391 134,200
135,170 136,20 137,10 141,310
142,250 143,160 144,30 145,60
147,6216 148,1031 149,691 150,80
151,30 155,10 157,390 158,70
159,110 160,20 161,20 169,150
170,30 171,40 172,10 173,170
174,40 175,30 176,10 177,10
183,10 184,20 185,20 186,10
187,230 188,40 189,350 190,70
191,30 197,10 199,50 200,20
201,30 202,20 203,10 211,240
212,40 213,10 215,140 216,50
217,30 218,10 227,280 228,50
229,30 230,10 231,10 243,20
244,20 245,10 257,150 258,90
259,30 260,10 271,20 272,10
273,10 285,10 299,30 301,9999
302,2632 303,1081 304,180 305,30
314,30 315,10 343,490 344,140
345,50 346,10
##END=
