##TITLE=3-Buten-1-ol, pentafluoropropionate
##JCAMP-DX=4.24
##DATA TYPE=MASS SPECTRUM
##ORIGIN=NIST Mass Spectrometry Data Center
##OWNER=NIST Mass Spectrometry Data Center
Collection (C) 2014 copyright by the U.S. Secretary of Commerce
on behalf of the United States of America. All rights reserved.
##$NIST MASS SPEC NO=352272
##MOLFORM=C7 H7 F5 O2
##MW=218
##$NIST SOURCE=MSDC
##XUNITS=M/Z
##YUNITS=RELATIVE INTENSITY
##XFACTOR=1
##YFACTOR=1
##FIRSTX=14
##LASTX=190
##FIRSTY=20
##MAXX=190
##MINX=14
##MAXY=9999
##MINY=10
##NPOINTS=78
##PEAK TABLE=(XY..XY)
14,20 15,90 18,10 20,10
25,10 26,280 27,1942 28,631
29,1742 30,70 31,360 32,10
33,200 37,80 38,240 39,3493
40,330 41,2212 42,220 43,170
44,50 45,120 46,10 47,60
49,20 50,450 51,290 52,130
53,1071 54,9999 55,4794 56,210
57,10 59,100 60,10 62,10
64,10 65,10 67,20 69,2442
70,30 71,60 73,20 77,30
78,100 79,20 80,20 81,70
83,10 85,10 90,10 91,10
93,160 94,10 95,10 97,70
99,60 100,811 101,30 103,20
109,50 117,10 119,7617 120,170
121,30 128,130 129,10 141,10
143,20 147,971 148,30 149,280
150,10 162,10 175,10 177,30
189,10 190,10
##END=
