##TITLE=2,6-Dihydroxyacetophenone, 2TBDMS derivative
##JCAMP-DX=4.24
##DATA TYPE=MASS SPECTRUM
##ORIGIN=NIST Mass Spectrometry Data Center
##OWNER=NIST Mass Spectrometry Data Center
Collection (C) 2014 copyright by the U.S. Secretary of Commerce
on behalf of the United States of America. All rights reserved.
##$NIST MASS SPEC NO=352812
##MOLFORM=C20 H36 O3 Si2
##MW=380
##$NIST SOURCE=MSDC
##XUNITS=M/Z
##YUNITS=RELATIVE INTENSITY
##XFACTOR=1
##YFACTOR=1
##FIRSTX=27
##LASTX=379
##FIRSTY=10
##MAXX=379
##MINX=27
##MAXY=9999
##MINY=10
##NPOINTS=207
##PEAK TABLE=(XY..XY)
27,10 29,80 31,10 39,30
40,10 41,190 42,10 43,70
44,10 45,140 46,10 47,20
51,10 53,10 55,20 56,50
57,340 58,50 59,230 60,20
61,20 63,20 65,10 67,10
69,10 71,10 73,3553 74,320
75,310 76,20 77,60 78,20
79,20 81,10 83,30 85,50
86,10 87,10 89,50 90,20
91,110 92,10 93,20 95,40
96,10 97,20 99,40 100,10
101,10 102,20 103,60 104,30
105,180 106,30 107,40 108,10
109,30 110,30 111,30 112,10
113,10 115,120 116,50 117,90
118,40 119,90 120,20 121,70
122,10 123,20 124,10 125,100
127,10 128,20 129,40 130,10
131,70 132,20 133,641 134,110
135,250 136,40 137,70 138,10
139,10 141,10 143,30 144,10
145,40 146,10 147,280 148,60
149,170 150,40 151,80 152,10
153,10 155,10 157,10 159,140
160,30 161,60 162,20 163,140
164,30 165,80 166,20 167,100
168,10 169,10 171,10 173,20
174,10 175,50 176,10 177,260
178,50 179,80 180,30 181,30
182,10 183,10 185,10 187,10
189,20 190,10 191,80 192,20
193,60 194,20 195,60 196,10
197,100 198,20 199,10 203,30
204,10 205,50 206,20 207,40
208,50 209,320 210,50 211,30
215,10 217,10 218,10 219,70
220,20 221,90 222,20 223,40
224,10 225,110 226,20 227,10
231,10 233,120 234,30 235,80
236,20 237,30 238,10 239,10
247,30 248,10 249,230 250,60
251,811 252,180 253,90 254,10
263,30 264,10 265,150 266,40
267,50 268,10 269,10 275,10
277,10 279,10 281,10 291,20
292,10 293,100 294,30 295,10
305,10 307,100 308,30 309,20
310,10 321,30 323,9999 324,4264
325,1702 326,310 327,50 328,10
337,10 349,10 365,941 366,290
367,110 368,20 379,10
##END=
