##TITLE=Tropic acid, 2TMS derivative
##JCAMP-DX=4.24
##DATA TYPE=MASS SPECTRUM
##ORIGIN=NIST Mass Spectrometry Data Center
##OWNER=NIST Mass Spectrometry Data Center
Collection (C) 2014 copyright by the U.S. Secretary of Commerce
on behalf of the United States of America. All rights reserved.
##$NIST MASS SPEC NO=352439
##MOLFORM=C15 H26 O3 Si2
##MW=310
##$NIST SOURCE=MSDC
##XUNITS=M/Z
##YUNITS=RELATIVE INTENSITY
##XFACTOR=1
##YFACTOR=1
##FIRSTX=15
##LASTX=312
##FIRSTY=10
##MAXX=312
##MINX=15
##MAXY=9999
##MINY=10
##NPOINTS=155
##PEAK TABLE=(XY..XY)
15,10 27,20 29,60 30,10
31,30 38,10 39,50 41,10
42,20 43,310 44,220 45,1421
46,90 47,280 48,10 49,10
50,30 51,110 52,40 53,30
54,10 55,110 56,20 57,70
58,230 59,350 60,60 61,160
62,20 63,70 64,20 65,60
66,30 67,10 69,10 70,30
71,50 72,240 73,9999 74,861
75,1351 76,130 77,440 78,500
79,40 81,10 82,20 83,10
85,20 86,10 87,50 88,30
89,340 90,601 91,230 92,20
93,10 95,10 96,10 97,901
99,20 101,40 102,180 103,5485
104,4254 105,621 106,30 107,20
109,10 110,10 111,270 113,10
115,140 116,40 117,200 118,4564
119,510 120,50 121,70 122,10
123,10 124,10 125,10 126,40
127,10 128,10 129,30 130,20
131,460 132,60 133,671 134,90
135,160 136,20 137,40 140,10
142,10 143,20 144,10 145,100
147,6336 148,1431 149,641 150,80
151,20 159,40 160,10 161,220
162,40 163,130 164,20 165,10
175,30 176,10 177,280 178,170
179,50 180,10 189,10 191,10
192,240 193,100 194,20 195,10
205,370 206,70 207,20 209,10
217,10 219,20 220,250 221,60
222,10 223,10 235,10 251,10
253,10 265,10 267,370 268,100
269,40 270,10 277,10 279,30
280,2943 281,761 282,300 283,50
284,10 295,340 296,90 297,40
310,110 311,30 312,10
##END=
