##TITLE=o-Vanillin, TMS derivative
##JCAMP-DX=4.24
##DATA TYPE=MASS SPECTRUM
##ORIGIN=NIST Mass Spectrometry Data Center
##OWNER=NIST Mass Spectrometry Data Center
Collection (C) 2014 copyright by the U.S. Secretary of Commerce
on behalf of the United States of America. All rights reserved.
##$NIST MASS SPEC NO=352863
##MOLFORM=C11 H16 O3 Si
##MW=224
##$NIST SOURCE=MSDC
##XUNITS=M/Z
##YUNITS=RELATIVE INTENSITY
##XFACTOR=1
##YFACTOR=1
##FIRSTX=15
##LASTX=226
##FIRSTY=70
##MAXX=226
##MINX=15
##MAXY=9999
##MINY=10
##NPOINTS=143
##PEAK TABLE=(XY..XY)
15,70 26,10 27,20 28,10
29,80 30,10 31,30 37,10
38,20 39,60 41,30 42,30
43,250 44,90 45,611 46,40
47,60 49,10 50,80 51,180
52,130 53,140 54,30 55,100
56,20 57,50 58,80 59,500
60,50 61,90 62,50 63,210
64,110 65,160 66,40 67,70
68,20 69,70 70,30 71,30
72,60 73,1231 74,160 75,320
76,120 77,280 78,100 79,170
80,90 81,50 82,30 83,220
84,20 85,70 86,10 87,10
88,10 89,240 90,70 91,320
92,150 93,130 94,30 95,110
96,20 97,30 98,10 99,10
101,10 102,10 103,40 105,240
106,60 107,350 108,220 109,140
110,20 111,30 112,10 115,20
116,10 117,10 118,20 119,110
120,60 121,170 122,70 123,120
124,20 125,10 131,10 132,10
133,70 134,40 135,400 136,761
137,991 138,140 139,40 145,10
147,140 148,841 149,400 150,140
151,1111 152,180 153,60 154,10
159,20 160,10 161,100 162,30
163,510 164,250 165,370 166,801
167,130 168,50 169,10 175,20
176,10 177,60 178,50 179,601
180,130 181,70 182,10 191,20
193,2392 194,4514 195,791 196,230
197,20 205,10 207,70 209,9999
210,1852 211,581 212,50 213,10
224,440 225,80 226,20
##END=
