##TITLE=2,5-Dihydroxyacetophenone, 2TBDMS derivative
##JCAMP-DX=4.24
##DATA TYPE=MASS SPECTRUM
##ORIGIN=NIST Mass Spectrometry Data Center
##OWNER=NIST Mass Spectrometry Data Center
Collection (C) 2014 copyright by the U.S. Secretary of Commerce
on behalf of the United States of America. All rights reserved.
##$NIST MASS SPEC NO=352836
##MOLFORM=C20 H36 O3 Si2
##MW=380
##$NIST SOURCE=MSDC
##XUNITS=M/Z
##YUNITS=RELATIVE INTENSITY
##XFACTOR=1
##YFACTOR=1
##FIRSTX=15
##LASTX=379
##FIRSTY=10
##MAXX=379
##MINX=15
##MAXY=9999
##MINY=10
##NPOINTS=228
##PEAK TABLE=(XY..XY)
15,10 27,30 28,30 29,200
30,10 31,20 32,10 38,10
39,90 40,20 41,400 42,30
43,250 44,20 45,190 46,10
47,30 49,10 50,10 51,10
52,10 53,20 54,10 55,50
56,140 57,520 58,70 59,300
60,30 61,40 63,20 64,10
65,10 67,10 68,10 69,20
71,10 73,2522 74,220 75,480
76,30 77,90 78,20 79,30
81,10 82,10 83,70 84,10
85,60 87,10 89,50 90,20
91,110 92,10 93,20 94,10
95,40 96,10 97,30 98,10
99,50 100,10 101,20 102,20
103,60 104,50 105,100 106,20
107,40 108,10 109,50 110,70
111,50 112,30 113,10 115,170
116,70 117,80 118,110 119,90
120,10 121,50 122,10 123,20
124,90 125,40 126,30 127,20
128,30 129,30 130,10 131,40
132,10 133,671 135,160 136,30
137,60 138,10 139,10 141,10
143,30 144,10 145,40 146,10
147,60 148,30 149,190 150,50
151,70 152,10 153,10 154,10
155,10 157,10 159,100 160,20
161,60 162,40 163,110 164,30
165,50 166,40 167,40 168,10
169,10 171,10 173,20 174,20
175,40 176,20 177,100 178,20
179,60 180,40 181,50 182,10
183,10 185,10 187,10 189,20
190,10 191,140 192,180 193,140
194,30 195,40 196,10 197,10
199,10 201,10 203,30 204,10
205,30 206,70 207,50 208,40
209,130 210,20 211,10 215,10
217,10 218,10 219,60 220,20
221,50 222,20 223,100 224,30
225,30 231,10 233,130 234,50
235,50 236,20 237,30 238,10
239,10 247,30 248,20 249,50
250,20 251,781 252,170 253,70
254,10 261,10 263,30 264,10
265,140 266,50 267,150 268,40
269,10 275,10 277,50 278,20
279,20 280,10 281,10 282,10
289,10 291,60 292,40 293,120
294,30 295,20 305,30 306,10
307,200 308,60 309,40 310,10
321,30 323,9999 324,2943 325,1111
326,200 327,30 328,10 337,10
349,40 350,10 363,10 365,190
366,60 367,30 368,10 379,10
##END=
