##TITLE=Isovanillic acid, 2TBDMS derivative
##JCAMP-DX=4.24
##DATA TYPE=MASS SPECTRUM
##ORIGIN=NIST Mass Spectrometry Data Center
##OWNER=NIST Mass Spectrometry Data Center
Collection (C) 2014 copyright by the U.S. Secretary of Commerce
on behalf of the United States of America. All rights reserved.
##$NIST MASS SPEC NO=352852
##MOLFORM=C20 H36 O4 Si2
##MW=396
##$NIST SOURCE=MSDC
##XUNITS=M/Z
##YUNITS=RELATIVE INTENSITY
##XFACTOR=1
##YFACTOR=1
##FIRSTX=15
##LASTX=396
##FIRSTY=10
##MAXX=396
##MINX=15
##MAXY=9999
##MINY=10
##NPOINTS=194
##PEAK TABLE=(XY..XY)
15,10 27,10 29,90 31,10
39,40 40,10 41,220 42,20
43,40 44,10 45,80 46,10
47,20 50,10 51,10 53,10
55,30 56,60 57,340 58,60
59,300 60,30 61,30 63,20
64,10 65,10 66,10 67,10
69,20 71,10 73,841 74,80
75,230 76,50 77,60 78,20
79,40 80,10 81,20 82,10
83,120 84,20 85,30 87,10
88,10 89,250 90,60 91,130
92,20 93,50 94,10 95,30
96,10 97,20 98,130 99,70
100,10 101,10 103,40 104,90
105,110 106,20 107,70 108,20
109,80 110,10 111,40 112,30
113,10 115,40 116,10 117,20
118,70 119,160 120,40 121,90
122,30 123,60 124,10 126,1651
129,10 131,20 132,10 133,1191
135,440 136,90 137,751 138,100
139,40 141,1221 145,10 146,10
147,60 148,210 149,220 150,160
151,210 152,30 153,20 154,10
157,10 161,20 162,10 163,110
164,80 165,1461 166,300 167,90
168,10 175,20 176,10 177,30
178,40 179,210 180,310 181,100
182,20 183,10 189,10 191,20
192,50 193,1321 194,210 195,130
196,20 197,10 205,10 206,10
207,170 208,40 209,110 210,60
211,50 212,10 219,30 220,10
221,20 222,30 223,821 224,190
225,90 226,10 233,20 234,10
235,40 236,10 237,100 238,20
239,40 240,10 249,80 250,20
251,20 252,10 253,20 263,20
265,961 266,220 267,3883 268,891
269,370 270,60 271,10 279,30
280,10 281,90 282,30 283,30
284,10 293,20 295,1071 296,290
297,110 298,20 307,10 309,70
310,20 311,10 323,20 324,10
325,10 337,30 339,9999 340,2963
341,1151 342,210 343,40 365,10
381,350 382,110 383,40 384,10
395,20 396,10
##END=
