##TITLE=trans-2-Dodecen-1-ol, heptafluorobutyrate
##JCAMP-DX=4.24
##DATA TYPE=MASS SPECTRUM
##ORIGIN=NIST Mass Spectrometry Data Center
##OWNER=NIST Mass Spectrometry Data Center
Collection (C) 2014 copyright by the U.S. Secretary of Commerce
on behalf of the United States of America. All rights reserved.
##$NIST MASS SPEC NO=352260
##MOLFORM=C16 H23 F7 O2
##MW=380
##$NIST SOURCE=MSDC
##XUNITS=M/Z
##YUNITS=RELATIVE INTENSITY
##XFACTOR=1
##YFACTOR=1
##FIRSTX=15
##LASTX=380
##FIRSTY=30
##MAXX=380
##MINX=15
##MAXY=9999
##MINY=10
##NPOINTS=133
##PEAK TABLE=(XY..XY)
15,30 20,10 25,10 26,80
27,1651 28,550 29,3503 30,80
31,100 32,10 33,10 36,10
37,20 38,50 39,2112 40,450
41,8888 42,2332 43,9999 44,420
45,80 46,10 47,150 49,10
50,90 51,180 52,150 53,2232
54,5295 55,8267 56,5795 57,6826
58,290 59,160 60,10 61,10
62,20 63,20 64,10 65,500
66,891 67,6005 68,4104 69,9679
70,6256 71,3423 72,180 73,100
74,10 77,360 78,100 79,1261
80,721 81,5475 82,6916 83,6616
84,3593 85,981 86,50 87,10
90,10 91,170 92,30 93,320
94,320 95,4284 96,6236 97,5055
98,1221 99,110 100,500 101,20
103,10 105,20 106,10 107,80
108,120 109,2312 110,2222 111,1802
112,1631 113,150 114,10 115,10
119,430 120,10 121,30 122,50
123,911 124,1241 125,370 126,440
127,60 128,10 131,70 135,20
136,20 137,591 138,1902 139,210
140,20 141,10 145,60 147,10
150,100 151,80 152,10 159,10
164,10 165,20 166,931 167,130
169,3063 170,100 171,10 178,10
191,30 197,80 199,10 211,20
215,10 225,30 239,30 240,10
251,10 253,40 254,20 255,10
266,20 267,70 268,10 280,20
380,10
##END=
