##TITLE=2',4'-Dihydroxyacetophenone, diacetate
##JCAMP-DX=4.24
##DATA TYPE=MASS SPECTRUM
##ORIGIN=NIST Mass Spectrometry Data Center
##OWNER=NIST Mass Spectrometry Data Center
Collection (C) 2014 copyright by the U.S. Secretary of Commerce
on behalf of the United States of America. All rights reserved.
##$NIST MASS SPEC NO=352819
##MOLFORM=C12 H12 O5
##MW=236
##$NIST SOURCE=MSDC
##XUNITS=M/Z
##YUNITS=RELATIVE INTENSITY
##XFACTOR=1
##YFACTOR=1
##FIRSTX=14
##LASTX=237
##FIRSTY=20
##MAXX=237
##MINX=14
##MAXY=9999
##MINY=10
##NPOINTS=81
##PEAK TABLE=(XY..XY)
14,20 15,160 26,10 27,40
28,30 29,20 37,10 38,40
39,110 40,20 41,60 42,160
43,5155 44,120 45,20 49,10
50,80 51,210 52,120 53,180
54,20 55,70 61,20 62,60
63,140 64,40 65,80 66,50
67,50 68,10 69,220 70,10
74,20 75,10 76,10 77,150
78,40 79,100 80,90 81,250
82,20 89,10 91,10 92,50
93,20 94,20 95,80 96,10
105,100 106,20 107,60 108,180
109,90 110,20 119,10 120,20
121,20 122,10 123,210 124,50
133,10 134,10 135,60 137,9999
138,791 139,90 140,10 150,10
151,110 152,6136 153,550 154,60
163,10 165,10 177,10 179,50
194,1872 195,220 196,30 236,50
237,10
##END=
