##TITLE=2',6'-Dihydroxyacetophenone, acetate
##JCAMP-DX=4.24
##DATA TYPE=MASS SPECTRUM
##ORIGIN=NIST Mass Spectrometry Data Center
##OWNER=NIST Mass Spectrometry Data Center
Collection (C) 2014 copyright by the U.S. Secretary of Commerce
on behalf of the United States of America. All rights reserved.
##$NIST MASS SPEC NO=352814
##MOLFORM=C10 H10 O4
##MW=194
##$NIST SOURCE=MSDC
##XUNITS=M/Z
##YUNITS=RELATIVE INTENSITY
##XFACTOR=1
##YFACTOR=1
##FIRSTX=14
##LASTX=196
##FIRSTY=20
##MAXX=196
##MINX=14
##MAXY=9999
##MINY=10
##NPOINTS=85
##PEAK TABLE=(XY..XY)
14,20 15,150 26,30 27,100
28,40 29,50 31,10 36,10
37,30 38,100 39,400 40,50
41,110 42,150 43,3133 44,80
45,60 49,20 50,120 51,280
52,300 53,310 54,50 55,180
56,10 60,30 61,30 62,70
63,200 64,60 65,100 66,80
67,80 68,50 69,170 70,10
73,10 74,30 75,30 76,20
77,340 78,160 79,120 80,150
81,400 82,40 83,10 85,10
86,10 89,10 90,10 91,70
92,50 93,20 94,10 95,40
105,310 106,80 107,110 108,430
109,80 110,50 119,30 120,10
121,20 123,170 124,20 127,10
128,10 133,10 134,120 135,20
136,100 137,9999 138,801 139,90
140,10 147,10 151,30 152,4604
153,400 154,40 194,561 195,60
196,10
##END=
