##TITLE=9-Decen-1-ol, TMS derivative
##JCAMP-DX=4.24
##DATA TYPE=MASS SPECTRUM
##ORIGIN=NIST Mass Spectrometry Data Center
##OWNER=NIST Mass Spectrometry Data Center
Collection (C) 2014 copyright by the U.S. Secretary of Commerce
on behalf of the United States of America. All rights reserved.
##$NIST MASS SPEC NO=352660
##MOLFORM=C13 H28 O Si
##MW=228
##$NIST SOURCE=MSDC
##XUNITS=M/Z
##YUNITS=RELATIVE INTENSITY
##XFACTOR=1
##YFACTOR=1
##FIRSTX=15
##LASTX=229
##FIRSTY=10
##MAXX=229
##MINX=15
##MAXY=9999
##MINY=10
##NPOINTS=141
##PEAK TABLE=(XY..XY)
15,10 26,10 27,140 28,50
29,270 30,10 31,20 38,10
39,380 40,70 41,1121 42,260
43,280 44,80 45,480 46,40
47,300 48,20 49,10 50,10
51,30 52,20 53,190 54,250
55,1071 56,110 57,80 58,190
59,540 60,90 61,561 62,40
63,20 64,10 65,40 66,50
67,581 68,230 69,290 70,50
71,80 72,140 73,3073 74,370
75,9999 76,841 77,470 78,30
79,110 80,40 81,751 82,410
83,140 84,20 85,170 86,30
87,280 88,110 89,1111 90,110
91,270 92,20 93,60 94,20
95,781 96,430 97,210 98,20
99,390 100,50 101,591 102,80
103,2122 104,210 105,90 107,20
108,10 109,200 110,140 111,60
112,10 113,200 114,30 115,420
116,80 117,30 118,10 121,10
123,40 124,10 125,80 126,10
127,180 128,30 129,500 130,60
131,30 135,70 136,10 137,180
138,220 139,130 140,20 141,60
142,10 143,190 144,30 145,20
149,10 151,10 153,80 154,10
155,40 156,10 157,50 158,10
159,10 167,110 168,20 169,20
171,140 172,20 173,10 181,10
183,20 185,480 186,90 187,30
193,10 195,280 196,50 197,30
199,20 211,10 213,3103 214,581
215,160 216,20 227,20 228,50
229,10
##END=
