##TITLE=2-Decen-1-ol, (E)-, TBDMS derivative
##JCAMP-DX=4.24
##DATA TYPE=MASS SPECTRUM
##ORIGIN=NIST Mass Spectrometry Data Center
##OWNER=NIST Mass Spectrometry Data Center
Collection (C) 2014 copyright by the U.S. Secretary of Commerce
on behalf of the United States of America. All rights reserved.
##$NIST MASS SPEC NO=352669
##MOLFORM=C16 H34 O Si
##MW=270
##$NIST SOURCE=MSDC
##XUNITS=M/Z
##YUNITS=RELATIVE INTENSITY
##XFACTOR=1
##YFACTOR=1
##FIRSTX=15
##LASTX=271
##FIRSTY=10
##MAXX=271
##MINX=15
##MAXY=9999
##MINY=10
##NPOINTS=140
##PEAK TABLE=(XY..XY)
15,10 26,10 27,210 28,50
29,510 30,10 31,20 39,320
40,60 41,1291 42,140 43,961
44,50 45,330 46,20 47,350
48,20 49,10 50,10 51,20
52,20 53,180 54,310 55,681
56,140 57,611 58,150 59,601
60,120 61,270 62,20 63,10
64,10 65,60 66,30 67,450
68,70 69,250 70,40 71,80
73,2132 74,370 75,9999 76,831
77,460 78,30 79,120 80,30
81,500 82,50 83,210 84,30
85,260 86,30 87,120 88,70
89,561 90,50 91,40 92,10
93,30 94,10 95,540 96,60
97,180 98,60 99,661 100,110
101,2142 102,220 103,110 104,10
107,20 108,10 109,110 110,20
111,190 112,40 113,991 114,140
115,1692 116,190 117,80 118,10
121,10 123,50 124,10 125,50
126,10 127,280 128,110 129,2282
130,280 131,110 132,10 135,10
137,370 138,50 139,30 140,10
141,160 143,1421 144,190 145,70
151,10 153,20 155,200 156,30
157,230 158,30 159,10 167,20
169,60 170,10 171,170 172,30
173,10 179,10 181,10 183,691
184,120 185,390 186,60 187,20
195,40 196,10 197,20 199,60
200,10 211,10 213,7537 214,1441
215,400 216,40 255,260 256,60
257,20 269,20 270,30 271,10
##END=
