##TITLE=2-Chloro-6-fluorophenol, methyl ether
##JCAMP-DX=4.24
##DATA TYPE=MASS SPECTRUM
##ORIGIN=NIST Mass Spectrometry Data Center
##OWNER=NIST Mass Spectrometry Data Center
Collection (C) 2014 copyright by the U.S. Secretary of Commerce
on behalf of the United States of America. All rights reserved.
##$NIST MASS SPEC NO=352539
##MOLFORM=C7 H6 Cl F O
##MW=160
##$NIST SOURCE=MSDC
##XUNITS=M/Z
##YUNITS=RELATIVE INTENSITY
##XFACTOR=1
##YFACTOR=1
##FIRSTX=14
##LASTX=164
##FIRSTY=20
##MAXX=164
##MINX=14
##MAXY=9999
##MINY=10
##NPOINTS=111
##PEAK TABLE=(XY..XY)
14,20 15,160 25,10 26,20
27,10 29,150 30,30 31,200
33,20 35,30 36,30 37,180
38,150 39,80 43,10 44,20
45,20 47,50 48,30 49,160
50,480 51,240 52,20 53,190
54,10 55,50 56,370 57,901
58,30 60,100 61,470 62,430
63,801 64,50 65,30 67,520
68,440 69,350 70,60 71,50
72,120 73,450 74,601 75,911
76,80 77,170 78,20 79,60
80,200 81,1551 82,661 83,60
84,110 85,70 86,50 87,30
88,10 89,10 90,60 91,961
92,220 93,861 94,671 95,1001
96,250 97,651 98,110 99,30
100,20 102,30 103,70 104,20
105,30 107,10 108,20 109,400
110,300 111,240 112,30 113,30
114,10 115,80 117,8528 118,540
119,2893 120,160 123,40 124,10
125,100 126,60 127,10 128,40
129,500 130,90 131,210 132,40
133,20 134,10 139,10 143,10
145,8798 146,661 147,3003 148,200
149,10 157,40 160,9999 161,881
162,3523 163,270 164,20
##END=
