##TITLE=6-Amino-1-hexanol, N,O-diacetyl-
##JCAMP-DX=4.24
##DATA TYPE=MASS SPECTRUM
##ORIGIN=NIST Mass Spectrometry Data Center
##OWNER=NIST Mass Spectrometry Data Center
Collection (C) 2014 copyright by the U.S. Secretary of Commerce
on behalf of the United States of America. All rights reserved.
##$NIST MASS SPEC NO=352301
##MOLFORM=C10 H19 N O3
##MW=201
##$NIST SOURCE=MSDC
##XUNITS=M/Z
##YUNITS=RELATIVE INTENSITY
##XFACTOR=1
##YFACTOR=1
##FIRSTX=14
##LASTX=202
##FIRSTY=90
##MAXX=202
##MINX=14
##MAXY=9999
##MINY=10
##NPOINTS=95
##PEAK TABLE=(XY..XY)
14,90 15,731 16,20 17,20
18,190 25,10 26,60 27,420
28,731 29,561 30,7927 31,330
32,30 37,10 38,20 39,540
40,140 41,1421 42,1221 43,9999
44,1521 45,380 46,10 50,10
51,30 52,30 53,180 54,420
55,991 56,961 57,310 58,591
59,100 60,2192 61,1211 62,30
63,10 65,40 66,30 67,571
68,120 69,320 70,460 71,120
72,4984 73,4054 74,190 75,10
76,10 77,30 78,20 79,120
80,40 81,350 82,771 83,260
84,160 85,310 86,1501 87,921
88,60 94,10 95,10 96,40
97,50 98,540 99,330 100,2072
101,180 102,20 110,10 111,20
112,190 113,80 114,611 115,130
116,470 117,40 124,10 126,240
127,20 128,270 129,170 130,20
140,20 141,1361 142,1211 143,110
144,50 158,1251 159,110 160,10
186,30 201,10 202,10
##END=
