##TITLE=2,4-Dimethoxycinnamic acid, (E)-, TBDMS derivative
##JCAMP-DX=4.24
##DATA TYPE=MASS SPECTRUM
##ORIGIN=NIST Mass Spectrometry Data Center
##OWNER=NIST Mass Spectrometry Data Center
Collection (C) 2014 copyright by the U.S. Secretary of Commerce
on behalf of the United States of America. All rights reserved.
##$NIST MASS SPEC NO=352417
##MOLFORM=C17 H26 O4 Si
##MW=322
##$NIST SOURCE=MSDC
##XUNITS=M/Z
##YUNITS=RELATIVE INTENSITY
##XFACTOR=1
##YFACTOR=1
##FIRSTX=15
##LASTX=324
##FIRSTY=20
##MAXX=324
##MINX=15
##MAXY=9999
##MINY=10
##NPOINTS=169
##PEAK TABLE=(XY..XY)
15,20 27,40 28,20 29,180
30,10 31,10 38,10 39,130
40,20 41,370 42,30 43,90
44,10 45,180 46,10 47,150
48,10 49,10 50,40 51,160
52,20 53,50 54,10 55,130
56,60 57,420 58,70 59,240
60,40 61,70 62,60 63,180
64,60 65,110 66,30 67,20
68,10 69,70 70,10 71,10
73,591 74,100 75,991 76,180
77,611 78,100 79,240 80,20
81,10 82,10 83,20 85,30
86,10 87,30 88,80 89,490
90,290 91,370 92,160 93,30
94,20 95,30 97,10 98,10
99,40 100,10 101,60 102,120
103,500 104,110 105,530 106,60
107,70 108,20 109,30 111,10
115,70 116,100 117,190 118,280
119,250 120,230 121,270 122,30
123,10 124,20 125,10 128,10
129,20 130,20 131,180 133,1682
134,200 135,290 136,30 137,150
138,20 143,10 144,10 145,100
146,70 147,250 148,1912 149,390
150,40 151,80 152,10 159,30
160,100 161,591 162,160 163,110
164,30 165,50 166,10 167,10
173,10 174,60 175,70 176,1261
177,200 178,30 179,60 180,10
181,80 182,10 188,10 189,70
191,9999 192,1251 193,250 194,30
195,10 203,10 204,10 205,70
206,2372 207,470 208,150 209,40
210,10 219,20 220,10 221,170
222,40 223,20 233,30 234,30
235,60 236,10 248,20 249,50
250,60 251,20 252,10 263,20
265,8858 266,1772 267,540 268,70
269,10 291,10 307,260 308,60
309,20 321,20 322,200 323,50
324,10
##END=
