##TITLE=9-Decen-1-ol, methyl ether
##JCAMP-DX=4.24
##DATA TYPE=MASS SPECTRUM
##ORIGIN=NIST Mass Spectrometry Data Center
##OWNER=NIST Mass Spectrometry Data Center
Collection (C) 2014 copyright by the U.S. Secretary of Commerce
on behalf of the United States of America. All rights reserved.
##$NIST MASS SPEC NO=352651
##MOLFORM=C11 H22 O
##MW=170
##$NIST SOURCE=MSDC
##XUNITS=M/Z
##YUNITS=RELATIVE INTENSITY
##XFACTOR=1
##YFACTOR=1
##FIRSTX=15
##LASTX=170
##FIRSTY=90
##MAXX=170
##MINX=15
##MAXY=9999
##MINY=10
##NPOINTS=85
##PEAK TABLE=(XY..XY)
15,90 26,40 27,540 28,220
29,1011 30,30 31,90 33,70
37,10 38,50 39,1551 40,280
41,4304 42,731 43,841 45,9999
46,220 47,50 50,40 51,120
52,80 53,841 54,4034 55,6456
56,951 57,300 58,791 59,200
60,30 62,10 63,20 64,10
65,170 66,631 67,6136 68,4594
69,1812 70,310 71,2632 72,180
73,20 74,10 77,110 78,20
79,350 80,210 81,4544 82,5055
83,1041 84,120 85,611 86,50
87,100 88,10 91,40 92,10
93,90 94,120 95,3113 96,2592
97,661 98,50 99,150 100,50
101,10 107,10 108,30 109,1241
110,881 111,80 112,10 113,170
114,20 123,140 124,20 127,230
128,80 129,10 137,10 138,380
139,40 141,40 142,20 155,10
170,10
##END=
