##TITLE=bis[(1-Ethenylhexyl)oxy](dimethyl)silane
##JCAMP-DX=4.24
##DATA TYPE=MASS SPECTRUM
##ORIGIN=NIST Mass Spectrometry Data Center
##OWNER=NIST Mass Spectrometry Data Center
Collection (C) 2014 copyright by the U.S. Secretary of Commerce
on behalf of the United States of America. All rights reserved.
##$NIST MASS SPEC NO=352749
##MOLFORM=C18 H36 O2 Si
##MW=312
##$NIST SOURCE=MSDC
##XUNITS=M/Z
##YUNITS=RELATIVE INTENSITY
##XFACTOR=1
##YFACTOR=1
##FIRSTX=26
##LASTX=313
##FIRSTY=10
##MAXX=313
##MINX=26
##MAXY=9999
##MINY=10
##NPOINTS=177
##PEAK TABLE=(XY..XY)
26,10 27,150 28,30 29,290
30,10 39,170 40,30 41,641
42,120 43,801 44,30 45,140
46,10 47,150 48,10 49,10
51,10 52,10 53,100 54,160
55,520 56,70 57,130 58,50
59,260 60,50 61,200 62,20
63,40 65,40 66,20 67,300
68,60 69,571 70,50 71,80
72,40 73,30 75,3623 76,290
77,811 78,60 79,150 80,20
81,150 82,40 83,80 84,20
85,260 86,30 87,90 88,10
89,60 90,10 91,60 92,20
93,160 94,20 95,80 96,10
97,80 98,90 99,1311 100,140
101,360 102,30 103,90 104,10
105,130 106,10 107,160 108,20
109,150 110,40 111,220 112,50
113,330 114,631 115,1391 116,190
117,220 118,20 119,40 121,30
123,20 124,10 125,70 126,20
127,220 128,631 129,761 130,130
131,540 132,70 133,80 134,10
135,20 137,10 139,40 140,30
141,480 142,190 143,310 144,170
145,120 146,30 147,30 149,70
150,10 151,20 153,20 154,10
155,160 156,50 157,621 158,110
159,200 160,30 161,20 165,10
167,30 168,10 169,140 170,50
171,280 172,50 173,40 174,10
175,10 181,10 182,10 183,120
184,120 185,1852 186,320 187,290
188,40 189,10 197,30 198,20
199,200 200,130 201,270 202,50
203,20 211,30 212,10 213,50
214,20 215,10 223,20 225,10
227,50 228,10 229,10 241,9999
242,2162 243,621 244,70 245,10
255,50 256,40 257,10 269,70
270,20 271,10 283,40 284,10
285,150 286,30 287,10 297,400
298,90 299,30 311,10 312,20
313,10
##END=
