##TITLE=Methyl 18-methylnonadecanoate
##JCAMP-DX=4.24
##DATA TYPE=MASS SPECTRUM
##ORIGIN=NIST Mass Spectrometry Data Center
##OWNER=NIST Mass Spectrometry Data Center
Collection (C) 2014 copyright by the U.S. Secretary of Commerce
on behalf of the United States of America. All rights reserved.
##$NIST MASS SPEC NO=352206
##MOLFORM=C21 H42 O2
##MW=326
##$NIST SOURCE=MSDC
##XUNITS=M/Z
##YUNITS=RELATIVE INTENSITY
##XFACTOR=1
##YFACTOR=1
##FIRSTX=15
##LASTX=329
##FIRSTY=30
##MAXX=329
##MINX=15
##MAXY=9999
##MINY=10
##NPOINTS=184
##PEAK TABLE=(XY..XY)
15,30 26,10 27,170 28,40
29,460 30,10 31,20 33,10
39,240 40,70 41,2322 42,581
43,4444 44,160 45,100 51,10
52,10 53,180 54,240 55,3573
56,851 57,2843 58,190 59,961
60,40 61,30 65,30 66,20
67,450 68,200 69,1942 70,340
71,991 72,70 73,260 74,9999
75,2612 76,120 77,40 78,10
79,120 80,40 81,410 82,160
83,1341 84,430 85,571 87,7647
88,651 89,50 91,20 92,10
93,100 94,30 95,380 96,150
97,1191 98,420 99,130 100,40
101,721 102,80 103,10 105,10
107,100 108,20 109,230 110,80
111,540 112,110 113,80 114,20
115,270 116,130 117,10 119,10
121,140 122,20 123,130 124,40
125,260 126,40 127,40 129,861
130,220 131,20 133,10 135,140
136,20 137,60 138,20 139,130
140,20 141,20 143,2212 144,220
145,20 149,90 150,10 151,30
152,10 153,80 154,10 155,10
157,210 158,40 163,60 164,10
165,20 166,10 167,50 168,10
169,10 171,240 172,50 173,10
177,30 179,10 180,10 181,30
182,10 185,430 186,70 187,10
191,20 193,10 194,10 195,30
196,10 199,510 200,70 201,10
205,10 207,10 208,10 209,20
210,10 213,130 214,30 219,10
221,10 223,20 224,10 227,470
228,80 229,10 233,10 237,10
238,10 241,340 242,60 243,10
250,20 251,20 252,20 255,190
256,40 261,20 262,10 269,160
270,50 271,70 272,10 275,10
276,10 277,60 278,10 279,40
280,10 283,1111 284,230 285,30
293,20 294,10 295,130 296,30
297,180 298,40 311,30 312,10
326,1712 327,420 328,50 329,10
##END=
