##TITLE=2,6-Dihydroxyacetophenone, 2TMS derivative
##JCAMP-DX=4.24
##DATA TYPE=MASS SPECTRUM
##ORIGIN=NIST Mass Spectrometry Data Center
##OWNER=NIST Mass Spectrometry Data Center
Collection (C) 2014 copyright by the U.S. Secretary of Commerce
on behalf of the United States of America. All rights reserved.
##$NIST MASS SPEC NO=352813
##MOLFORM=C14 H24 O3 Si2
##MW=296
##$NIST SOURCE=MSDC
##XUNITS=M/Z
##YUNITS=RELATIVE INTENSITY
##XFACTOR=1
##YFACTOR=1
##FIRSTX=15
##LASTX=297
##FIRSTY=10
##MAXX=297
##MINX=15
##MAXY=9999
##MINY=10
##NPOINTS=193
##PEAK TABLE=(XY..XY)
15,10 29,10 31,10 39,20
42,10 43,190 44,50 45,571
46,40 47,50 51,20 52,10
53,20 55,30 57,30 58,30
59,60 60,10 61,40 62,10
63,60 64,10 65,20 66,10
67,30 68,10 69,30 70,10
71,20 73,3323 74,300 75,400
76,40 77,170 78,50 79,40
80,10 81,20 82,10 83,60
84,20 85,60 86,10 87,20
88,10 89,110 90,30 91,140
92,20 93,50 94,10 95,80
96,20 97,40 98,10 99,30
101,20 102,40 103,110 104,50
105,200 106,40 107,60 108,10
109,60 110,50 111,50 112,10
113,10 114,10 115,140 116,60
117,130 118,50 119,130 120,30
121,110 122,20 123,30 124,20
125,90 127,20 128,30 129,40
130,10 131,140 132,30 133,430
134,80 135,270 136,40 137,130
138,20 139,20 141,10 143,30
144,10 145,40 147,1381 148,250
149,280 150,90 151,120 152,20
153,20 155,10 157,10 159,100
160,20 161,100 162,30 163,190
164,50 165,230 166,40 167,60
168,10 169,10 171,10 173,10
174,10 175,90 176,20 177,120
178,50 179,120 180,110 181,50
182,10 183,10 185,10 187,10
189,30 190,10 191,340 192,60
193,130 194,20 195,70 196,10
197,60 198,10 199,10 203,30
204,10 205,60 206,50 207,50
208,250 209,180 210,40 211,10
217,10 219,60 220,10 221,60
222,10 223,60 224,10 225,90
226,20 227,10 233,30 234,10
235,50 236,10 237,60 238,10
239,30 240,10 247,40 248,10
249,310 250,70 251,110 252,30
253,40 254,10 263,40 264,10
265,300 266,70 267,40 268,10
279,80 281,9999 282,3423 283,1391
284,230 285,40 295,10 296,40
297,10
##END=
