##TITLE=cis-2-Hexen-1-ol, heptafluorobutyrate
##JCAMP-DX=4.24
##DATA TYPE=MASS SPECTRUM
##ORIGIN=NIST Mass Spectrometry Data Center
##OWNER=NIST Mass Spectrometry Data Center
Collection (C) 2014 copyright by the U.S. Secretary of Commerce
on behalf of the United States of America. All rights reserved.
##$NIST MASS SPEC NO=352740
##MOLFORM=C10 H11 F7 O2
##MW=296
##$NIST SOURCE=MSDC
##XUNITS=M/Z
##YUNITS=RELATIVE INTENSITY
##XFACTOR=1
##YFACTOR=1
##FIRSTX=15
##LASTX=268
##FIRSTY=30
##MAXX=268
##MINX=15
##MAXY=9999
##MINY=10
##NPOINTS=107
##PEAK TABLE=(XY..XY)
15,30 26,60 27,771 28,190
29,721 30,20 31,90 33,10
37,20 38,80 39,1621 40,280
41,3853 42,2162 43,561 44,50
45,40 47,90 49,10 50,180
51,250 52,150 53,1461 54,2022
55,3333 56,1391 57,180 58,10
59,250 60,10 61,40 62,30
63,50 64,10 65,350 66,190
67,8828 68,561 69,4454 70,90
71,120 72,10 73,90 74,20
75,10 77,160 78,70 79,460
80,90 81,1211 82,9999 83,3873
84,230 85,100 90,10 91,10
93,100 95,20 97,30 98,10
99,70 100,1181 101,30 107,10
109,280 110,10 112,10 113,10
115,10 119,931 120,20 121,10
127,270 128,20 131,130 132,10
135,10 145,80 147,20 150,150
151,20 157,10 159,20 169,4674
170,150 171,20 178,10 191,30
195,10 197,140 198,10 199,10
206,10 213,10 215,10 225,90
226,10 239,40 240,10 241,10
252,10 253,210 254,100 255,100
256,10 267,60 268,10
##END=
