##TITLE=Triethylene glycol, TBDMS derivative
##JCAMP-DX=4.24
##DATA TYPE=MASS SPECTRUM
##ORIGIN=NIST Mass Spectrometry Data Center, 2007
##OWNER=NIST Mass Spectrometry Data Center
Collection (C) 2014 copyright by the U.S. Secretary of Commerce
on behalf of the United States of America. All rights reserved.
##$NIST MASS SPEC NO=352101
##MOLFORM=C12 H28 O4 Si
##MW=264
##$NIST SOURCE=MSDC
##XUNITS=M/Z
##YUNITS=RELATIVE INTENSITY
##XFACTOR=1
##YFACTOR=1
##FIRSTX=15
##LASTX=209
##FIRSTY=40
##MAXX=209
##MINX=15
##MAXY=9999
##MINY=10
##NPOINTS=92
##PEAK TABLE=(XY..XY)
15,40 19,80 26,20 27,190
28,160 29,380 30,30 31,310
32,10 39,90 40,20 41,350
42,70 43,470 44,210 45,9999
46,270 47,210 48,10 49,10
51,30 53,20 55,60 56,90
57,330 58,450 59,1211 60,140
61,400 62,30 63,30 69,20
70,10 71,60 72,150 73,2973
74,350 75,7237 76,550 77,460
78,20 79,20 83,20 84,10
85,80 86,20 87,480 88,330
89,2793 90,160 91,50 97,10
99,100 100,30 101,661 102,150
103,2382 104,210 105,130 106,10
115,300 116,40 117,450 118,80
119,2662 120,260 121,100 122,10
131,10 133,40 145,190 146,30
147,791 148,80 149,40 159,380
160,50 161,70 162,10 163,360
164,40 165,20 177,140 178,20
179,10 189,50 190,10 191,10
203,10 207,601 208,80 209,30
##END=
