##TITLE=cis-3-Nonen-1-ol, picolinyloxydimethylsilyl ether
##JCAMP-DX=4.24
##DATA TYPE=MASS SPECTRUM
##ORIGIN=NIST Mass Spectrometry Data Center
##OWNER=NIST Mass Spectrometry Data Center
Collection (C) 2014 copyright by the U.S. Secretary of Commerce
on behalf of the United States of America. All rights reserved.
##$NIST MASS SPEC NO=352769
##MOLFORM=C17 H29 N O2 Si
##MW=307
##$NIST SOURCE=MSDC
##XUNITS=M/Z
##YUNITS=RELATIVE INTENSITY
##XFACTOR=1
##YFACTOR=1
##FIRSTX=15
##LASTX=310
##FIRSTY=10
##MAXX=310
##MINX=15
##MAXY=9999
##MINY=10
##NPOINTS=221
##PEAK TABLE=(XY..XY)
15,10 26,20 27,230 28,50
29,550 30,20 31,20 37,10
38,40 39,811 40,90 41,1491
42,240 43,420 44,20 45,280
46,20 47,220 48,10 49,10
50,40 51,110 52,90 53,350
54,520 55,1131 56,140 57,180
58,260 59,891 60,140 61,330
62,40 63,160 64,130 65,1912
66,210 67,961 68,561 69,510
70,80 71,60 72,10 73,40
74,70 75,2082 76,180 77,671
78,150 79,330 80,190 81,791
82,350 83,470 85,150 86,40
87,90 88,120 89,4084 90,380
91,360 92,8167 93,1531 94,190
95,380 96,130 97,160 98,80
99,250 100,70 101,290 102,40
103,130 104,60 105,510 106,390
107,140 108,300 109,130 110,50
111,190 112,50 113,180 114,30
115,200 116,40 117,70 118,70
119,50 120,80 121,70 122,180
123,190 124,150 125,100 126,20
127,90 128,30 129,120 130,60
131,310 132,90 133,50 134,50
135,210 136,4094 137,591 138,460
139,160 140,30 141,50 142,10
143,60 144,40 145,40 146,40
147,20 148,340 149,150 150,991
151,350 152,320 153,60 154,40
155,20 156,10 157,60 158,30
159,20 160,20 161,20 162,60
163,80 164,160 165,300 166,9999
167,1772 168,1101 169,170 170,50
171,30 172,10 173,10 174,20
175,10 176,20 177,10 178,20
179,10 180,110 181,80 182,340
183,140 184,801 185,150 186,50
187,10 188,30 189,10 190,30
191,10 192,20 193,10 194,90
196,8327 197,2813 198,661 199,140
200,20 202,30 204,20 205,10
206,20 207,10 208,70 209,20
210,961 211,240 212,60 213,10
214,10 215,50 216,30 217,10
220,30 221,10 222,80 223,30
224,50 225,20 226,10 232,10
234,40 235,10 236,160 237,210
238,50 239,10 248,10 250,500
251,260 252,70 253,20 262,10
264,931 265,260 266,70 267,10
276,10 278,210 279,60 280,10
292,701 293,160 294,40 295,10
306,410 307,3443 308,891 309,230
310,30
##END=
