##TITLE=2-Methoxycinnamic acid, TMS derivative
##JCAMP-DX=4.24
##DATA TYPE=MASS SPECTRUM
##ORIGIN=NIST Mass Spectrometry Data Center
##OWNER=NIST Mass Spectrometry Data Center
Collection (C) 2014 copyright by the U.S. Secretary of Commerce
on behalf of the United States of America. All rights reserved.
##$NIST MASS SPEC NO=352482
##MOLFORM=C13 H18 O3 Si
##MW=250
##$NIST SOURCE=MSDC
##XUNITS=M/Z
##YUNITS=RELATIVE INTENSITY
##XFACTOR=1
##YFACTOR=1
##FIRSTX=15
##LASTX=253
##FIRSTY=60
##MAXX=253
##MINX=15
##MAXY=9999
##MINY=10
##NPOINTS=162
##PEAK TABLE=(XY..XY)
15,60 26,10 27,90 28,10
29,70 30,10 31,30 37,10
38,60 39,290 40,40 41,20
42,30 43,330 44,150 45,1191
46,80 47,480 48,20 49,20
50,180 51,550 52,120 53,150
54,20 55,300 56,30 57,70
58,120 59,390 60,90 61,220
62,230 63,871 64,300 65,150
66,40 67,30 68,50 69,30
70,30 71,30 72,150 73,3463
74,601 75,2552 76,440 77,2112
78,390 79,981 80,80 82,20
83,20 84,10 85,80 86,40
87,100 88,150 89,2102 90,1331
91,661 92,130 93,50 94,30
95,20 96,10 97,10 98,30
99,60 100,30 101,210 102,731
103,1341 104,340 105,2242 106,210
107,70 108,120 109,20 110,20
113,10 114,20 115,420 116,160
118,2973 119,480 120,40 121,440
122,50 123,10 127,10 128,20
129,90 130,40 131,1972 132,871
133,200 134,40 135,240 136,30
137,40 142,10 143,40 144,50
145,120 146,811 147,170 148,70
149,290 150,40 151,360 152,50
153,20 157,20 158,10 159,120
161,9999 162,1161 163,681 164,90
165,140 166,30 167,10 173,20
174,20 175,270 176,2342 177,430
178,120 179,50 180,10 187,10
189,70 190,30 191,571 192,130
193,80 194,10 201,10 203,10
204,10 205,40 206,10 207,20
209,10 216,10 217,20 219,9759
220,1752 221,520 222,60 223,10
233,10 235,2522 236,470 237,140
238,20 249,60 250,1311 251,270
252,80 253,10
##END=
