##TITLE=Phenylpyruvic acid, tert-butyldimethylsilyl ether, tert-butyldimethylsilyl ester
##JCAMP-DX=4.24
##DATA TYPE=MASS SPECTRUM
##ORIGIN=NIST Mass Spectrometry Data Center
##OWNER=NIST Mass Spectrometry Data Center
Collection (C) 2014 copyright by the U.S. Secretary of Commerce
on behalf of the United States of America. All rights reserved.
##$NIST MASS SPEC NO=352582
##MOLFORM=C21 H36 O3 Si2
##MW=392
##$NIST SOURCE=MSDC
##XUNITS=M/Z
##YUNITS=RELATIVE INTENSITY
##XFACTOR=1
##YFACTOR=1
##FIRSTX=27
##LASTX=391
##FIRSTY=10
##MAXX=391
##MINX=27
##MAXY=9999
##MINY=10
##NPOINTS=171
##PEAK TABLE=(XY..XY)
27,10 29,120 31,10 39,50
40,10 41,260 42,20 43,90
44,20 45,280 46,20 47,50
50,10 51,10 52,10 53,20
55,30 56,40 57,430 58,160
59,450 60,40 61,40 62,10
63,20 64,10 65,10 66,10
67,10 69,10 70,10 71,20
73,4984 74,450 75,601 76,50
77,50 78,10 79,10 82,10
83,30 85,70 86,10 87,20
88,10 89,150 90,240 91,60
92,10 93,10 95,10 97,250
99,60 100,20 101,30 102,240
103,150 104,30 105,90 106,10
107,20 111,100 113,10 114,10
115,220 116,50 117,190 118,200
119,120 120,50 121,40 122,10
123,10 127,20 128,50 129,100
130,170 131,360 132,70 133,1201
134,180 135,170 136,20 137,30
139,20 141,30 142,10 143,30
144,10 145,80 147,9999 148,1812
149,931 150,100 151,30 155,10
157,40 158,10 159,80 160,10
161,100 162,20 163,10 165,30
171,10 173,40 174,10 175,30
176,10 177,30 178,10 179,60
180,10 181,10 185,10 187,10
189,2102 190,380 191,180 192,20
193,40 194,10 195,20 201,70
202,10 203,40 204,20 205,40
206,20 207,50 208,10 209,10
215,10 217,10 218,10 219,70
220,120 221,110 222,20 223,10
231,20 232,10 233,20 235,10
237,30 238,10 245,10 247,10
249,10 257,10 259,30 260,10
261,10 262,10 263,20 277,70
278,30 279,20 280,10 319,10
333,10 335,5955 336,1762 337,691
338,130 339,20 377,230 378,70
379,30 380,10 391,10
##END=
