##TITLE=Ethyltriethylene glycol, TBDMS derivative
##JCAMP-DX=4.24
##DATA TYPE=MASS SPECTRUM
##ORIGIN=NIST Mass Spectrometry Data Center, 2007
##OWNER=NIST Mass Spectrometry Data Center
Collection (C) 2014 copyright by the U.S. Secretary of Commerce
on behalf of the United States of America. All rights reserved.
##$NIST MASS SPEC NO=352135
##MOLFORM=C14 H32 O4 Si
##MW=292
##$NIST SOURCE=MSDC
##XUNITS=M/Z
##YUNITS=RELATIVE INTENSITY
##XFACTOR=1
##YFACTOR=1
##FIRSTX=14
##LASTX=237
##FIRSTY=10
##MAXX=237
##MINX=14
##MAXY=9999
##MINY=10
##NPOINTS=88
##PEAK TABLE=(XY..XY)
14,10 15,70 19,60 25,10
26,40 27,280 28,310 29,1111
30,60 31,971 32,20 38,10
39,90 40,20 41,390 42,80
43,581 44,220 45,9298 46,220
47,150 48,10 49,10 51,20
53,10 54,10 55,80 56,80
57,310 58,420 59,1712 60,140
61,360 62,20 63,30 69,20
70,10 71,70 72,270 73,9999
74,611 75,1902 76,150 77,230
78,10 79,10 83,10 84,10
85,90 86,20 87,350 88,420
89,1191 90,90 91,30 97,10
99,90 100,30 101,731 102,170
103,3673 104,310 105,170 115,350
117,6686 118,530 119,210 120,20
121,10 131,20 133,30 143,20
145,140 146,30 147,791 148,90
149,30 159,500 160,70 161,30
163,10 189,110 190,20 191,30
203,20 235,250 236,40 237,10
##END=
