##TITLE=2-Hexanol, pentafluoropropionate
##JCAMP-DX=4.24
##DATA TYPE=MASS SPECTRUM
##ORIGIN=NIST Mass Spectrometry Data Center
##OWNER=NIST Mass Spectrometry Data Center
Collection (C) 2014 copyright by the U.S. Secretary of Commerce
on behalf of the United States of America. All rights reserved.
##$NIST MASS SPEC NO=352362
##MOLFORM=C9 H13 F5 O2
##MW=248
##$NIST SOURCE=MSDC
##XUNITS=M/Z
##YUNITS=RELATIVE INTENSITY
##XFACTOR=1
##YFACTOR=1
##FIRSTX=15
##LASTX=233
##FIRSTY=90
##MAXX=233
##MINX=15
##MAXY=9999
##MINY=10
##NPOINTS=87
##PEAK TABLE=(XY..XY)
15,90 26,110 27,1371 28,450
29,1862 30,50 31,150 33,10
37,20 38,70 39,1411 40,320
41,4904 42,2672 43,6596 44,390
45,320 47,731 48,20 50,190
51,160 52,50 53,370 54,320
55,4694 56,4904 57,1862 58,110
59,40 60,10 61,30 62,10
63,20 65,70 66,20 67,340
69,8237 70,380 71,120 72,10
74,10 77,40 78,80 79,30
81,90 82,40 83,300 84,4834
85,7667 86,510 87,10 93,110
94,20 95,10 97,190 98,10
100,951 101,40 109,70 113,30
117,30 119,9999 120,230 128,190
129,30 143,10 144,20 145,10
147,2102 148,70 149,50 163,3263
164,140 165,140 166,10 175,20
190,370 191,4424 192,260 193,30
203,10 204,10 205,10 206,10
219,140 220,10 233,10
##END=
