##TITLE=2,3-Dimethoxycinnamic acid, (E)-, TBDMS derivative
##JCAMP-DX=4.24
##DATA TYPE=MASS SPECTRUM
##ORIGIN=NIST Mass Spectrometry Data Center
##OWNER=NIST Mass Spectrometry Data Center
Collection (C) 2014 copyright by the U.S. Secretary of Commerce
on behalf of the United States of America. All rights reserved.
##$NIST MASS SPEC NO=352432
##MOLFORM=C17 H26 O4 Si
##MW=322
##$NIST SOURCE=MSDC
##XUNITS=M/Z
##YUNITS=RELATIVE INTENSITY
##XFACTOR=1
##YFACTOR=1
##FIRSTX=15
##LASTX=322
##FIRSTY=20
##MAXX=322
##MINX=15
##MAXY=9999
##MINY=10
##NPOINTS=172
##PEAK TABLE=(XY..XY)
15,20 27,30 28,10 29,160
30,10 31,10 38,10 39,110
40,20 41,320 42,20 43,70
44,10 45,170 46,10 47,150
48,10 49,10 50,60 51,240
52,30 53,50 54,10 55,130
56,60 57,380 58,70 59,240
60,50 61,70 62,40 63,120
64,30 65,120 66,20 67,10
68,10 69,20 71,10 73,651
74,120 75,1421 76,270 77,691
78,100 79,140 80,10 81,10
82,20 83,20 85,20 86,10
87,30 88,70 89,410 90,170
91,520 92,130 93,30 94,20
95,40 97,20 98,10 99,60
100,10 101,50 102,340 103,520
104,120 105,811 106,80 107,50
108,10 109,20 110,10 111,100
114,10 115,100 116,70 117,100
118,260 119,330 120,350 121,120
122,20 123,10 125,270 127,10
128,10 129,60 130,100 131,290
133,1041 134,130 135,160 136,30
137,30 138,10 143,10 144,30
145,90 146,120 147,520 148,901
149,160 150,20 151,20 153,10
158,10 159,50 160,40 161,340
162,80 163,70 164,20 165,20
166,10 173,20 174,20 175,200
176,2282 177,330 178,50 179,80
180,60 181,20 187,10 188,10
189,50 191,5905 192,831 193,140
194,20 195,30 196,10 201,10
203,30 204,30 205,120 206,2853
207,571 208,170 209,40 210,10
217,10 218,10 219,30 220,20
221,280 222,80 223,20 232,10
233,40 234,20 235,40 236,10
249,90 250,240 251,60 252,20
263,10 265,9999 266,2032 267,611
268,80 269,10 291,20 307,250
308,60 309,20 321,10 322,10
##END=
