##TITLE=Orcinol, TBDMS derivative
##JCAMP-DX=4.24
##DATA TYPE=MASS SPECTRUM
##ORIGIN=NIST Mass Spectrometry Data Center
##OWNER=NIST Mass Spectrometry Data Center
Collection (C) 2014 copyright by the U.S. Secretary of Commerce
on behalf of the United States of America. All rights reserved.
##$NIST MASS SPEC NO=352832
##MOLFORM=C13 H22 O2 Si
##MW=238
##$NIST SOURCE=MSDC
##XUNITS=M/Z
##YUNITS=RELATIVE INTENSITY
##XFACTOR=1
##YFACTOR=1
##FIRSTX=27
##LASTX=241
##FIRSTY=40
##MAXX=241
##MINX=27
##MAXY=9999
##MINY=10
##NPOINTS=134
##PEAK TABLE=(XY..XY)
27,40 28,10 29,110 31,10
38,10 39,140 40,20 41,250
42,40 43,120 44,10 45,190
46,10 47,100 48,10 49,10
50,20 51,80 52,70 53,110
54,10 55,80 56,40 57,210
58,70 59,170 60,30 61,400
62,40 63,60 64,10 65,50
66,40 67,70 68,10 69,60
70,10 71,20 72,10 73,520
74,70 75,1631 76,170 77,731
78,160 79,130 80,10 81,40
82,30 83,110 85,120 86,10
87,40 88,10 89,30 91,200
92,20 93,90 94,20 95,60
96,20 97,40 98,10 99,210
100,20 101,30 102,10 103,50
104,20 105,250 106,160 107,460
108,70 109,110 110,20 111,50
112,10 113,40 114,10 115,20
117,10 119,50 120,20 121,170
122,30 123,60 124,30 125,80
126,10 127,10 131,10 133,20
134,10 135,240 136,60 137,120
138,20 139,10 145,60 146,10
147,40 148,40 149,60 150,20
151,320 152,60 153,70 154,10
161,50 162,10 163,410 164,70
165,330 166,120 167,270 168,40
169,10 177,20 178,10 179,140
181,9999 182,2292 183,591 184,70
185,10 193,10 207,20 223,100
224,20 225,10 238,1321 239,260
240,70 241,10
##END=
