##TITLE=cis-3-Nonen-1-ol, methyl ether
##JCAMP-DX=4.24
##DATA TYPE=MASS SPECTRUM
##ORIGIN=NIST Mass Spectrometry Data Center
##OWNER=NIST Mass Spectrometry Data Center
Collection (C) 2014 copyright by the U.S. Secretary of Commerce
on behalf of the United States of America. All rights reserved.
##$NIST MASS SPEC NO=352761
##MOLFORM=C10 H20 O
##MW=156
##$NIST SOURCE=MSDC
##XUNITS=M/Z
##YUNITS=RELATIVE INTENSITY
##XFACTOR=1
##YFACTOR=1
##FIRSTX=15
##LASTX=157
##FIRSTY=80
##MAXX=157
##MINX=15
##MAXY=9999
##MINY=10
##NPOINTS=74
##PEAK TABLE=(XY..XY)
15,80 26,30 27,430 28,110
29,751 30,20 31,30 33,10
37,10 38,30 39,931 40,150
41,2022 42,220 43,390 45,9999
46,240 47,30 50,40 51,130
52,90 53,641 54,1942 55,1822
56,240 57,240 58,691 59,110
62,10 63,30 64,10 65,200
66,280 67,2362 68,3043 69,1361
70,140 71,681 72,50 73,10
77,140 78,30 79,360 80,110
81,2352 82,2092 83,330 84,30
85,110 86,10 91,40 92,10
93,40 94,30 95,1461 96,631
97,100 98,10 99,30 100,20
109,170 110,50 111,10 113,80
114,60 115,10 124,2022 125,200
126,10 127,30 128,60 129,10
156,50 157,10
##END=
