##TITLE=DL-Glyceraldehyde, tris(trimethylsilyl) ether
##JCAMP-DX=4.24
##DATA TYPE=MASS SPECTRUM
##ORIGIN=NIST Mass Spectrometry Data Center
##OWNER=NIST Mass Spectrometry Data Center
Collection (C) 2014 copyright by the U.S. Secretary of Commerce
on behalf of the United States of America. All rights reserved.
##$NIST MASS SPEC NO=352232
##MOLFORM=C12 H30 O3 Si3
##MW=306
##$NIST SOURCE=MSDC
##XUNITS=M/Z
##YUNITS=RELATIVE INTENSITY
##XFACTOR=1
##YFACTOR=1
##FIRSTX=27
##LASTX=294
##FIRSTY=10
##MAXX=294
##MINX=27
##MAXY=9999
##MINY=10
##NPOINTS=171
##PEAK TABLE=(XY..XY)
27,10 29,20 31,10 39,10
41,40 42,10 43,100 44,100
45,490 46,30 47,80 53,20
54,60 55,330 56,180 57,50
58,80 59,440 60,40 61,100
62,10 66,30 67,10 69,20
70,30 71,60 72,290 73,9999
74,921 75,1061 76,60 77,50
81,30 83,10 85,80 86,20
87,100 88,30 89,240 90,30
91,10 96,10 97,20 98,20
99,180 100,30 101,490 102,110
103,3443 104,330 105,160 106,10
109,30 111,40 112,10 113,550
114,100 115,300 116,1531 117,881
118,140 119,190 120,20 121,10
124,10 127,40 128,130 129,1692
130,320 131,561 132,90 133,1271
134,170 135,130 136,10 137,10
141,10 142,60 143,200 144,150
145,791 147,7237 148,1141 149,1081
150,130 151,70 152,10 155,20
157,50 158,10 159,340 160,60
161,50 162,30 163,781 164,130
165,60 166,10 169,40 170,20
171,40 172,10 173,120 174,100
175,300 176,50 177,500 178,80
179,50 183,10 185,10 186,10
187,20 189,1762 190,370 191,3573
192,651 193,300 194,40 195,10
198,10 199,130 200,20 201,20
203,951 204,230 205,160 206,30
207,40 208,10 215,20 217,3033
218,4704 219,2943 220,751 221,250
222,40 223,10 231,20 232,10
233,150 234,661 235,791 236,200
237,70 238,10 243,20 245,10
247,10 249,10 251,30 252,10
259,10 260,10 261,10 263,20
265,20 273,50 274,10 275,60
276,10 277,40 278,10 279,10
288,10 289,20 290,10 291,150
292,40 293,30 294,10
##END=
