##TITLE=2-Amino-1-phenylethanol, TMS derivative
##JCAMP-DX=4.24
##DATA TYPE=MASS SPECTRUM
##ORIGIN=NIST Mass Spectrometry Data Center
##OWNER=NIST Mass Spectrometry Data Center
Collection (C) 2014 copyright by the U.S. Secretary of Commerce
on behalf of the United States of America. All rights reserved.
##$NIST MASS SPEC NO=352572
##MOLFORM=C11 H19 N O Si
##MW=209
##$NIST SOURCE=MSDC
##XUNITS=M/Z
##YUNITS=RELATIVE INTENSITY
##XFACTOR=1
##YFACTOR=1
##FIRSTX=27
##LASTX=196
##FIRSTY=10
##MAXX=196
##MINX=27
##MAXY=9999
##MINY=10
##NPOINTS=116
##PEAK TABLE=(XY..XY)
27,10 28,80 29,50 30,591
31,20 38,10 39,60 40,10
41,30 42,60 43,320 44,140
45,711 46,70 47,180 48,10
49,10 50,50 51,190 52,50
53,50 54,20 55,60 56,20
57,70 58,160 59,180 60,80
61,140 62,40 63,120 64,30
65,180 66,20 67,20 69,10
70,30 71,30 73,7467 74,1832
75,1171 76,170 77,550 78,160
79,70 80,10 81,10 82,10
83,10 85,10 86,20 87,30
88,20 89,210 90,120 91,540
92,60 93,50 94,10 95,20
97,10 100,10 101,10 102,60
103,260 104,240 105,400 106,50
107,50 108,10 109,10 115,20
116,60 117,150 118,290 119,130
120,170 121,80 122,10 123,20
130,10 131,40 132,10 133,90
134,30 135,140 136,20 137,30
143,10 145,70 146,10 147,60
148,50 149,721 150,100 151,30
159,10 160,40 161,70 162,20
163,751 164,180 165,120 166,20
175,10 176,120 177,360 179,9999
180,1952 181,550 182,60 191,10
192,20 194,310 195,50 196,10
##END=
