##TITLE=Butoxytriglycol, TBDMS derivative
##JCAMP-DX=4.24
##DATA TYPE=MASS SPECTRUM
##ORIGIN=NIST Mass Spectrometry Data Center, 2007
##OWNER=NIST Mass Spectrometry Data Center
Collection (C) 2014 copyright by the U.S. Secretary of Commerce
on behalf of the United States of America. All rights reserved.
##$NIST MASS SPEC NO=352141
##MOLFORM=C16 H36 O4 Si
##MW=320
##$NIST SOURCE=MSDC
##XUNITS=M/Z
##YUNITS=RELATIVE INTENSITY
##XFACTOR=1
##YFACTOR=1
##FIRSTX=15
##LASTX=265
##FIRSTY=70
##MAXX=265
##MINX=15
##MAXY=9999
##MINY=10
##NPOINTS=111
##PEAK TABLE=(XY..XY)
15,70 19,30 25,10 26,50
27,320 28,410 29,2022 30,100
31,210 37,10 38,10 39,240
40,50 41,2963 42,220 43,721
44,280 45,7417 46,190 47,160
48,10 49,10 50,10 51,30
52,10 53,50 55,1141 56,430
57,9999 58,961 59,1401 60,150
61,430 62,30 63,30 66,10
67,10 68,10 69,40 70,20
71,160 72,220 73,4494 74,460
75,3093 76,220 77,310 78,20
79,20 81,10 83,300 84,30
85,190 86,40 87,691 88,591
89,7637 90,390 91,70 95,10
97,20 98,10 99,140 101,6636
102,611 103,4544 104,390 105,200
106,10 113,10 115,561 116,80
117,681 118,220 119,1391 120,140
121,60 127,10 129,20 131,250
132,30 133,90 134,10 135,10
143,30 145,3703 146,360 147,260
148,30 149,10 159,751 160,110
161,50 162,10 163,50 164,10
175,280 176,40 177,20 189,190
190,30 191,20 203,50 204,10
207,160 208,20 209,10 219,20
263,310 264,60 265,20
##END=
