##TITLE=2-Ethyl-1-butanol, heptafluorobutyrate
##JCAMP-DX=4.24
##DATA TYPE=MASS SPECTRUM
##ORIGIN=NIST Mass Spectrometry Data Center
##OWNER=NIST Mass Spectrometry Data Center
Collection (C) 2014 copyright by the U.S. Secretary of Commerce
on behalf of the United States of America. All rights reserved.
##$NIST MASS SPEC NO=352363
##MOLFORM=C10 H13 F7 O2
##MW=298
##$NIST SOURCE=MSDC
##XUNITS=M/Z
##YUNITS=RELATIVE INTENSITY
##XFACTOR=1
##YFACTOR=1
##FIRSTX=15
##LASTX=269
##FIRSTY=30
##MAXX=269
##MINX=15
##MAXY=9999
##MINY=10
##NPOINTS=76
##PEAK TABLE=(XY..XY)
15,30 20,10 26,70 27,1211
28,300 29,1942 30,60 31,140
33,30 37,10 38,40 39,1011
40,150 41,3113 42,831 43,9999
44,420 45,70 47,80 50,90
51,100 52,40 53,380 54,440
55,5235 56,1832 57,721 58,30
59,50 61,10 62,10 63,10
64,10 65,40 66,10 67,170
69,5575 70,430 71,6526 72,370
73,10 77,10 78,50 79,20
80,10 81,70 82,20 83,130
84,3163 85,1661 86,100 93,30
99,30 100,721 101,20 109,180
110,10 112,10 113,10 119,500
120,10 129,60 130,10 131,80
147,20 150,110 151,10 159,10
169,2252 170,70 197,80 199,10
213,10 225,10 253,10 269,10
##END=
