##TITLE=trans-3-Hexen-1-ol, heptafluorobutyrate
##JCAMP-DX=4.24
##DATA TYPE=MASS SPECTRUM
##ORIGIN=NIST Mass Spectrometry Data Center
##OWNER=NIST Mass Spectrometry Data Center
Collection (C) 2014 copyright by the U.S. Secretary of Commerce
on behalf of the United States of America. All rights reserved.
##$NIST MASS SPEC NO=352308
##MOLFORM=C10 H11 F7 O2
##MW=296
##$NIST SOURCE=MSDC
##XUNITS=M/Z
##YUNITS=RELATIVE INTENSITY
##XFACTOR=1
##YFACTOR=1
##FIRSTX=15
##LASTX=253
##FIRSTY=60
##MAXX=253
##MINX=15
##MAXY=9999
##MINY=10
##NPOINTS=76
##PEAK TABLE=(XY..XY)
15,60 20,10 26,80 27,1021
28,310 29,871 30,40 31,140
32,10 33,20 37,20 38,100
39,1792 40,340 41,5055 42,681
43,260 44,50 45,90 47,30
49,10 50,180 51,260 52,130
53,951 54,1121 55,4134 56,350
57,30 59,50 61,10 62,30
63,50 64,10 65,360 66,220
67,9999 68,711 69,3743 70,100
71,20 73,10 74,10 75,10
77,120 78,60 79,390 80,90
81,1031 82,8277 83,1241 84,60
85,20 90,10 93,40 95,10
97,10 100,701 101,20 109,190
110,10 112,10 119,540 120,10
131,80 145,10 147,10 150,90
159,10 169,2042 170,60 197,110
198,10 225,10 235,10 253,10
##END=
