##TITLE=Farnesol, TBDMS derivative
##JCAMP-DX=4.24
##DATA TYPE=MASS SPECTRUM
##ORIGIN=NIST Mass Spectrometry Data Center
##OWNER=NIST Mass Spectrometry Data Center
Collection (C) 2014 copyright by the U.S. Secretary of Commerce
on behalf of the United States of America. All rights reserved.
##$NIST MASS SPEC NO=352677
##MOLFORM=C21 H40 O Si
##MW=336
##$NIST SOURCE=MSDC
##XUNITS=M/Z
##YUNITS=RELATIVE INTENSITY
##XFACTOR=1
##YFACTOR=1
##FIRSTX=27
##LASTX=337
##FIRSTY=60
##MAXX=337
##MINX=27
##MAXY=9999
##MINY=10
##NPOINTS=203
##PEAK TABLE=(XY..XY)
27,60 29,120 31,10 38,10
39,180 40,70 41,1551 42,90
43,150 44,10 45,150 46,10
47,170 48,10 49,10 50,10
51,30 52,20 53,350 54,40
55,340 56,50 57,290 58,60
59,270 60,50 61,130 62,10
63,10 65,80 66,40 67,651
68,460 69,3964 70,230 71,40
73,2452 74,310 75,9999 76,811
77,581 78,50 79,300 80,390
81,1101 82,100 83,140 84,20
85,80 86,10 87,40 88,10
89,350 90,30 91,290 92,110
93,791 94,160 95,530 96,60
97,90 98,20 99,110 100,30
101,160 102,30 103,60 104,10
105,330 106,80 107,561 108,120
109,821 110,110 111,120 112,20
113,120 114,20 115,280 116,40
117,180 118,30 119,520 120,120
121,561 122,210 123,550 124,80
125,110 126,30 127,861 128,150
129,220 130,30 131,40 132,20
133,360 134,170 135,1291 136,430
137,240 138,30 139,40 140,20
141,430 142,100 143,200 144,30
145,30 146,10 147,440 148,220
149,290 150,40 151,60 152,10
153,60 154,20 155,220 156,30
157,40 158,10 159,20 160,20
161,460 162,90 163,80 164,10
165,40 166,10 167,40 168,20
169,110 170,20 171,30 173,10
175,200 176,60 177,50 178,10
179,80 180,20 181,30 182,10
183,40 184,10 185,160 186,80
187,20 189,280 190,50 191,280
192,50 193,60 194,10 195,180
196,30 197,130 198,110 199,60
200,10 201,10 203,561 204,230
205,150 206,20 207,10 209,40
210,10 211,100 212,20 213,10
217,10 219,20 221,10 223,140
224,30 225,40 226,20 233,10
235,10 236,10 237,10 241,10
251,30 252,20 253,20 254,10
256,10 259,10 261,80 262,20
263,10 265,10 267,10 279,1401
280,340 281,90 282,10 293,10
321,20 336,50 337,10
##END=
