##TITLE=3,6,9,12,15,18,21,24-Octaoxapentacosan-1-ol, TBDMS derivative
##JCAMP-DX=4.24
##DATA TYPE=MASS SPECTRUM
##ORIGIN=NIST Mass Spectrometry Data Center, 2007
##OWNER=NIST Mass Spectrometry Data Center
Collection (C) 2014 copyright by the U.S. Secretary of Commerce
on behalf of the United States of America. All rights reserved.
##$NIST MASS SPEC NO=352098
##MOLFORM=C23 H50 O9 Si
##MW=498
##$NIST SOURCE=MSDC
##XUNITS=M/Z
##YUNITS=RELATIVE INTENSITY
##XFACTOR=1
##YFACTOR=1
##FIRSTX=15
##LASTX=339
##FIRSTY=50
##MAXX=339
##MINX=15
##MAXY=9999
##MINY=10
##NPOINTS=129
##PEAK TABLE=(XY..XY)
15,50 19,10 26,20 27,90
28,270 29,591 30,60 31,621
32,10 33,10 39,40 40,10
41,290 42,200 43,1211 44,450
45,2452 46,70 47,40 51,10
53,10 55,40 56,70 57,250
58,881 59,9999 60,390 61,150
62,10 63,10 67,10 69,50
70,70 71,691 72,390 73,3513
74,270 75,761 76,60 77,70
79,10 80,10 83,10 84,10
85,50 86,70 87,951 88,360
89,1381 90,90 91,40 95,40
97,10 99,70 100,30 101,971
102,240 103,7577 104,480 105,150
106,10 107,10 113,60 114,20
115,1101 116,140 117,781 118,180
119,520 120,50 121,30 127,10
129,20 130,10 131,210 132,30
133,1071 134,100 135,30 139,40
141,10 143,40 145,691 146,140
147,1782 148,160 149,40 157,10
158,30 159,1571 160,210 161,110
162,10 163,230 164,20 165,10
175,70 176,20 177,591 178,70
179,30 187,10 189,410 190,60
191,80 192,10 201,10 203,230
204,40 205,10 207,150 208,20
209,10 219,20 221,170 222,30
223,10 233,120 234,20 235,10
247,20 251,60 252,10 265,20
277,50 278,10 295,20 321,10
339,10
##END=
