##TITLE=4-Chloro-2-methoxyphenol, TMS derivative
##JCAMP-DX=4.24
##DATA TYPE=MASS SPECTRUM
##ORIGIN=NIST Mass Spectrometry Data Center
##OWNER=NIST Mass Spectrometry Data Center
Collection (C) 2014 copyright by the U.S. Secretary of Commerce
on behalf of the United States of America. All rights reserved.
##$NIST MASS SPEC NO=352858
##MOLFORM=C10 H15 Cl O2 Si
##MW=230
##$NIST SOURCE=MSDC
##XUNITS=M/Z
##YUNITS=RELATIVE INTENSITY
##XFACTOR=1
##YFACTOR=1
##FIRSTX=15
##LASTX=234
##FIRSTY=90
##MAXX=234
##MINX=15
##MAXY=9999
##MINY=10
##NPOINTS=167
##PEAK TABLE=(XY..XY)
15,90 26,10 27,30 28,20
29,90 30,10 31,30 37,10
38,20 39,40 41,10 42,40
43,340 44,140 45,781 46,50
47,60 49,10 50,100 51,260
52,20 53,110 54,20 55,80
56,20 57,60 58,130 59,621
60,80 61,80 62,90 63,420
64,40 65,200 66,40 67,30
68,10 69,30 70,30 71,40
72,90 73,2212 74,250 75,320
76,50 77,170 78,50 79,330
80,30 81,30 82,20 83,60
84,20 85,50 86,60 87,30
88,50 89,320 90,70 91,120
93,300 95,80 96,10 97,40
98,70 99,130 100,200 101,110
102,20 103,40 104,10 105,70
106,10 107,140 109,40 110,40
111,130 112,50 113,80 114,120
115,50 116,40 117,20 119,30
120,10 121,80 122,10 123,20
124,10 125,180 126,80 127,90
128,30 129,80 130,10 131,30
133,20 134,20 135,140 136,80
137,100 138,20 139,40 140,10
141,40 142,60 143,30 144,20
145,10 147,40 148,30 149,230
150,90 151,40 152,10 153,10
154,20 155,150 156,30 157,120
158,10 159,20 161,20 162,10
163,20 164,10 165,90 166,30
167,10 169,160 170,1892 171,340
172,681 173,100 174,30 178,10
179,170 180,90 181,40 182,20
183,90 185,2072 186,300 187,761
188,100 189,30 194,10 195,30
196,10 197,20 200,9999 201,1491
202,3753 203,490 204,150 205,10
213,30 215,2192 216,340 217,811
218,110 219,40 230,1782 231,290
232,651 233,100 234,30
##END=
