##TITLE=Ursodeoxycholic acid, 3TMS derivative
##JCAMP-DX=4.24
##DATA TYPE=MASS SPECTRUM
##ORIGIN=NIST Mass Spectrometry Data Center
##OWNER=NIST Mass Spectrometry Data Center
Collection (C) 2014 copyright by the U.S. Secretary of Commerce
on behalf of the United States of America. All rights reserved.
##$NIST MASS SPEC NO=352609
##MOLFORM=C33 H64 O4 Si3
##MW=608
##$NIST SOURCE=MSDC
##XUNITS=M/Z
##YUNITS=RELATIVE INTENSITY
##XFACTOR=1
##YFACTOR=1
##FIRSTX=14
##LASTX=609
##FIRSTY=20
##MAXX=609
##MINX=14
##MAXY=9999
##MINY=10
##NPOINTS=411
##PEAK TABLE=(XY..XY)
14,20 15,60 26,20 27,50
29,110 31,10 37,10 38,10
39,90 40,10 41,310 42,60
43,390 44,70 45,480 46,30
47,240 48,10 49,30 50,10
51,30 52,10 53,100 54,40
55,1842 56,130 57,180 58,90
59,280 60,80 61,370 62,30
63,30 65,50 66,40 67,921
68,130 69,651 70,40 71,60
72,250 73,9999 74,971 75,7887
76,550 77,651 78,100 79,1001
80,200 81,1962 82,210 83,751
84,50 85,340 86,70 87,80
88,50 89,230 90,40 91,1231
92,240 93,1922 94,611 95,1912
96,210 97,220 98,30 99,120
100,10 101,450 102,70 103,510
104,120 105,1882 106,420 107,1712
108,380 109,971 110,130 111,170
112,40 113,140 114,30 115,260
116,510 117,3123 118,611 119,1641
120,490 121,1732 122,430 123,400
124,80 125,140 126,40 127,220
128,130 129,4834 130,721 131,1832
132,911 133,1742 134,550 135,1081
136,190 137,190 138,30 139,50
140,20 141,220 142,651 143,971
144,340 145,2422 146,691 147,2432
148,781 149,971 150,170 151,140
152,50 153,70 154,100 155,661
156,320 157,921 158,340 159,1902
160,821 161,1221 162,290 163,470
164,80 165,140 166,50 167,220
168,480 169,530 170,180 171,561
172,250 173,1091 174,410 175,601
176,150 177,320 178,110 179,140
180,50 181,330 182,170 183,360
184,100 185,571 186,210 187,561
188,150 189,270 190,70 191,100
192,40 193,230 194,100 195,270
196,130 197,250 198,70 199,831
200,480 201,871 202,350 203,250
204,220 205,110 206,140 207,150
208,80 209,430 210,280 211,310
212,190 213,1181 214,460 215,631
216,220 217,400 218,70 219,90
220,40 221,80 222,30 223,90
224,50 225,110 226,60 227,290
228,420 229,440 230,120 231,40
232,20 233,70 234,40 235,160
236,60 237,110 238,50 239,170
240,80 241,210 242,150 243,1351
244,340 245,190 246,30 247,80
248,40 249,150 250,170 251,621
253,280 254,200 255,3693 256,831
257,110 258,40 259,20 260,10
261,40 262,20 263,120 264,50
265,100 266,561 267,200 268,70
269,80 270,20 271,40 272,20
273,60 274,20 275,40 276,20
277,50 278,30 279,150 280,100
281,120 282,50 283,170 284,70
285,20 286,30 287,30 288,30
289,80 290,80 291,70 292,30
293,80 294,30 295,100 296,90
297,611 298,140 299,30 301,30
302,20 303,240 304,120 305,160
306,60 307,150 308,40 309,30
310,40 311,40 312,10 314,10
315,10 317,30 318,50 319,100
320,70 321,210 322,80 323,150
324,40 325,30 326,10 329,10
330,20 331,20 332,40 333,40
334,30 335,20 336,10 337,30
338,60 339,60 340,20 341,20
343,30 344,40 345,280 346,110
347,30 348,10 351,10 353,10
354,10 355,20 357,20 358,20
359,20 360,10 361,10 367,10
369,10 370,10 371,70 372,60
373,110 374,280 375,90 376,20
377,10 379,10 380,10 381,20
383,10 385,140 386,80 387,140
388,50 389,30 390,20 391,10
392,10 393,30 394,20 395,20
398,10 400,30 401,20 402,60
403,20 404,10 407,240 408,120
409,70 410,30 411,40 412,20
413,1031 414,360 415,100 416,20
419,10 422,250 423,110 424,70
425,20 426,10 427,140 428,1501
429,520 430,140 431,40 432,10
433,20 434,10 435,10 436,70
437,30 438,20 448,10 449,20
450,10 461,70 462,60 463,30
464,10 475,20 479,10 485,10
487,10 488,10 501,10 502,10
503,170 504,70 505,30 506,10
516,40 517,150 518,2502 519,1011
520,370 521,80 522,20 593,370
594,170 595,90 596,20 597,10
607,10 608,10 609,10
##END=
