##TITLE=2,5-Dihydroxyacetophenone, diacetate
##JCAMP-DX=4.24
##DATA TYPE=MASS SPECTRUM
##ORIGIN=NIST Mass Spectrometry Data Center
##OWNER=NIST Mass Spectrometry Data Center
Collection (C) 2014 copyright by the U.S. Secretary of Commerce
on behalf of the United States of America. All rights reserved.
##$NIST MASS SPEC NO=352834
##MOLFORM=C12 H12 O5
##MW=236
##$NIST SOURCE=MSDC
##XUNITS=M/Z
##YUNITS=RELATIVE INTENSITY
##XFACTOR=1
##YFACTOR=1
##FIRSTX=14
##LASTX=236
##FIRSTY=40
##MAXX=236
##MINX=14
##MAXY=9999
##MINY=10
##NPOINTS=81
##PEAK TABLE=(XY..XY)
14,40 15,290 25,10 26,50
27,50 28,40 29,30 37,10
38,30 39,100 40,20 41,60
42,250 43,6426 44,150 45,30
50,80 51,180 52,250 53,420
54,170 55,110 60,10 61,20
62,70 63,150 64,40 65,60
66,30 67,70 68,10 69,100
74,20 75,10 76,10 77,180
78,60 79,100 80,100 81,270
82,80 83,10 91,10 92,30
93,20 94,10 95,60 96,10
105,70 106,20 107,70 108,200
109,190 110,50 120,10 121,10
123,80 124,20 133,50 134,270
135,80 136,190 137,6176 138,480
139,60 149,10 150,10 151,80
152,9999 153,881 154,100 155,10
163,10 177,10 179,50 180,10
194,1672 195,190 196,20 221,10
236,20
##END=
