##TITLE=2-Butene-1,4-diol, TMS derivative
##JCAMP-DX=4.24
##DATA TYPE=MASS SPECTRUM
##ORIGIN=NIST Mass Spectrometry Data Center
##OWNER=NIST Mass Spectrometry Data Center
Collection (C) 2014 copyright by the U.S. Secretary of Commerce
on behalf of the United States of America. All rights reserved.
##$NIST MASS SPEC NO=352695
##MOLFORM=C7 H16 O2 Si
##MW=160
##$NIST SOURCE=MSDC
##XUNITS=M/Z
##YUNITS=RELATIVE INTENSITY
##XFACTOR=1
##YFACTOR=1
##FIRSTX=15
##LASTX=159
##FIRSTY=30
##MAXX=159
##MINX=15
##MAXY=9999
##MINY=10
##NPOINTS=93
##PEAK TABLE=(XY..XY)
15,30 26,20 27,180 28,50
29,240 30,20 31,190 37,10
38,20 39,350 40,50 41,420
42,270 43,581 44,190 45,1341
46,100 47,651 48,30 49,30
50,20 51,50 52,20 53,130
54,70 55,160 56,40 57,220
58,310 59,520 60,140 61,581
62,40 63,30 65,10 66,10
67,20 68,30 69,350 70,1041
71,110 72,110 73,5375 74,571
75,9999 76,771 77,490 78,20
79,10 83,40 84,10 85,60
86,10 87,30 88,80 89,20
90,10 91,310 92,30 93,10
97,40 98,20 99,260 100,30
101,250 102,20 103,240 104,20
105,40 109,20 111,80 112,10
113,90 114,10 115,40 116,20
117,10 119,80 120,10 125,20
127,691 128,90 129,3753 130,460
131,160 132,10 142,1141 143,180
144,50 145,440 146,50 147,20
159,10
##END=
