##TITLE=2-Butene-1,4-diol, TBDMS derivative
##JCAMP-DX=4.24
##DATA TYPE=MASS SPECTRUM
##ORIGIN=NIST Mass Spectrometry Data Center
##OWNER=NIST Mass Spectrometry Data Center
Collection (C) 2014 copyright by the U.S. Secretary of Commerce
on behalf of the United States of America. All rights reserved.
##$NIST MASS SPEC NO=352694
##MOLFORM=C10 H22 O2 Si
##MW=202
##$NIST SOURCE=MSDC
##XUNITS=M/Z
##YUNITS=RELATIVE INTENSITY
##XFACTOR=1
##YFACTOR=1
##FIRSTX=15
##LASTX=184
##FIRSTY=10
##MAXX=184
##MINX=15
##MAXY=9999
##MINY=10
##NPOINTS=90
##PEAK TABLE=(XY..XY)
15,10 26,10 27,100 28,20
29,200 30,10 31,90 38,10
39,230 40,40 41,500 42,90
43,240 44,40 45,490 46,40
47,450 48,20 49,20 50,10
51,20 52,10 53,80 54,120
55,100 56,70 57,520 58,230
59,450 60,120 61,240 62,20
63,20 67,20 68,10 69,120
70,90 71,50 72,20 73,1111
75,9999 76,951 77,641 78,20
79,10 81,10 83,40 84,10
85,90 86,10 87,30 88,60
89,60 90,10 93,10 95,10
97,40 98,20 99,360 100,40
101,120 102,10 103,60 104,10
105,30 109,20 111,90 112,20
113,100 114,20 115,120 116,20
117,60 118,10 125,20 127,1271
128,160 129,80 130,10 131,30
132,10 133,10 143,10 145,2542
146,290 147,110 148,10 171,60
172,10 184,10
##END=
