##TITLE=9-Decen-1-ol, TBDMS derivative
##JCAMP-DX=4.24
##DATA TYPE=MASS SPECTRUM
##ORIGIN=NIST Mass Spectrometry Data Center
##OWNER=NIST Mass Spectrometry Data Center
Collection (C) 2014 copyright by the U.S. Secretary of Commerce
on behalf of the United States of America. All rights reserved.
##$NIST MASS SPEC NO=352658
##MOLFORM=C16 H34 O Si
##MW=270
##$NIST SOURCE=MSDC
##XUNITS=M/Z
##YUNITS=RELATIVE INTENSITY
##XFACTOR=1
##YFACTOR=1
##FIRSTX=26
##LASTX=269
##FIRSTY=10
##MAXX=269
##MINX=26
##MAXY=9999
##MINY=10
##NPOINTS=138
##PEAK TABLE=(XY..XY)
26,10 27,90 28,30 29,240
30,10 31,10 38,10 39,270
40,50 41,971 42,250 43,190
44,20 45,240 46,20 47,240
48,10 49,10 50,10 51,20
52,10 53,120 54,110 55,861
56,140 57,290 58,190 59,631
60,90 61,350 62,20 63,10
65,30 66,20 67,350 68,60
69,240 70,20 71,50 72,50
73,1251 75,9999 76,901 77,490
78,30 79,90 80,30 81,591
82,60 83,80 84,10 85,190
86,40 87,270 88,120 89,1381
90,120 91,70 92,10 93,50
95,651 96,60 97,110 98,20
99,420 100,70 101,651 102,80
103,100 104,10 105,10 107,20
108,10 109,90 110,10 111,60
112,10 113,230 114,40 115,561
116,60 117,60 118,10 121,10
123,20 125,80 126,10 127,230
128,30 129,300 130,40 131,30
132,10 133,10 135,80 136,10
137,170 138,20 139,120 140,20
141,80 142,10 143,190 144,20
145,20 151,10 153,90 154,10
155,60 156,10 157,60 158,10
167,130 168,20 169,30 171,90
172,10 173,10 181,10 183,50
185,380 186,60 187,20 193,10
195,310 196,60 197,40 198,10
199,20 211,10 213,3573 214,671
215,120 227,10 255,110 256,20
257,10 269,10
##END=
