##TITLE=5-Hexen-1-ol, trifluoroacetate
##JCAMP-DX=4.24
##DATA TYPE=MASS SPECTRUM
##ORIGIN=NIST Mass Spectrometry Data Center
##OWNER=NIST Mass Spectrometry Data Center
Collection (C) 2014 copyright by the U.S. Secretary of Commerce
on behalf of the United States of America. All rights reserved.
##$NIST MASS SPEC NO=352736
##MOLFORM=C8 H11 F3 O2
##MW=196
##$NIST SOURCE=MSDC
##XUNITS=M/Z
##YUNITS=RELATIVE INTENSITY
##XFACTOR=1
##YFACTOR=1
##FIRSTX=14
##LASTX=169
##FIRSTY=10
##MAXX=169
##MINX=14
##MAXY=9999
##MINY=10
##NPOINTS=87
##PEAK TABLE=(XY..XY)
14,10 15,90 20,10 25,10
26,190 27,1551 28,581 29,1311
30,50 31,100 32,10 33,90
37,50 38,190 39,3553 40,571
41,6656 42,1321 43,310 44,80
45,120 46,10 47,50 49,10
50,330 51,310 52,140 53,1011
54,8658 55,4174 56,490 57,110
58,10 59,120 60,10 61,70
62,20 63,40 64,10 65,340
66,170 67,9999 68,611 69,4864
70,60 71,20 73,20 74,10
75,10 77,130 78,130 79,400
80,80 81,941 82,3343 83,330
84,20 85,170 86,10 87,10
91,20 93,20 95,20 97,450
98,10 99,891 100,70 101,10
103,20 107,100 108,10 109,20
111,30 112,30 113,10 115,20
119,80 125,50 127,70 131,20
140,20 141,10 150,70 153,30
155,30 168,30 169,30
##END=
