##TITLE=2-Thiobarbituric acid, S-trimethylsilyl-, bis(trimethylsilyl) ether
##JCAMP-DX=4.24
##DATA TYPE=MASS SPECTRUM
##ORIGIN=NIST Mass Spectrometry Data Center
##OWNER=NIST Mass Spectrometry Data Center
Collection (C) 2014 copyright by the U.S. Secretary of Commerce
on behalf of the United States of America. All rights reserved.
##$NIST MASS SPEC NO=352469
##MOLFORM=C13 H28 N2 O2 S Si3
##MW=360
##$NIST SOURCE=MSDC
##XUNITS=M/Z
##YUNITS=RELATIVE INTENSITY
##XFACTOR=1
##YFACTOR=1
##FIRSTX=29
##LASTX=363
##FIRSTY=20
##MAXX=363
##MINX=29
##MAXY=9999
##MINY=10
##NPOINTS=181
##PEAK TABLE=(XY..XY)
29,20 31,10 42,10 43,130
44,110 45,751 46,50 47,50
53,10 54,10 55,30 56,20
57,50 58,60 59,170 60,20
61,30 66,10 67,10 68,20
69,160 70,50 71,60 72,130
73,4614 74,420 75,440 76,30
77,50 78,10 82,10 83,20
84,60 85,80 86,70 87,40
88,60 89,20 90,40 91,30
92,10 93,10 97,10 98,30
99,691 100,270 101,70 102,60
103,40 104,10 105,30 106,10
110,10 111,20 112,20 113,80
114,30 115,50 116,390 117,150
118,50 119,40 120,10 123,10
124,40 125,10 126,50 127,10
128,30 129,40 130,180 131,500
132,110 133,220 134,30 135,20
139,10 140,30 141,30 142,40
143,30 144,20 145,10 147,4154
148,661 149,430 150,50 151,20
154,10 155,40 156,80 157,70
158,50 159,30 160,20 161,10
163,20 165,10 167,40 168,10
169,10 170,20 171,440 172,90
173,70 174,40 175,20 176,20
177,10 181,10 182,10 183,30
184,30 185,10 186,10 187,60
188,20 189,80 190,160 191,30
192,20 196,10 197,30 198,20
199,10 200,10 203,10 204,10
205,10 212,10 213,10 214,10
225,10 228,10 231,10 232,10
239,30 240,10 241,20 243,10
244,10 253,40 254,10 255,90
256,30 257,360 258,70 259,50
260,10 261,10 269,180 270,210
271,130 272,60 273,40 274,10
285,10 287,80 288,20 289,10
313,10 315,10 327,20 328,10
329,20 330,10 331,10 343,20
345,9999 346,3213 347,2012 348,460
349,160 350,20 351,10 357,10
359,380 360,150 361,90 362,20
363,10
##END=
