##TITLE=Tiglic acid, TBDMS derivative
##JCAMP-DX=4.24
##DATA TYPE=MASS SPECTRUM
##ORIGIN=NIST Mass Spectrometry Data Center
##OWNER=NIST Mass Spectrometry Data Center
Collection (C) 2014 copyright by the U.S. Secretary of Commerce
on behalf of the United States of America. All rights reserved.
##$NIST MASS SPEC NO=352568
##MOLFORM=C11 H22 O2 Si
##MW=214
##$NIST SOURCE=MSDC
##XUNITS=M/Z
##YUNITS=RELATIVE INTENSITY
##XFACTOR=1
##YFACTOR=1
##FIRSTX=15
##LASTX=201
##FIRSTY=10
##MAXX=201
##MINX=15
##MAXY=9999
##MINY=10
##NPOINTS=83
##PEAK TABLE=(XY..XY)
15,10 26,10 27,120 28,30
29,290 30,10 31,10 38,10
39,260 40,30 41,290 42,40
43,120 44,20 45,280 46,20
47,270 48,10 49,10 50,20
51,40 52,20 53,220 54,170
55,1511 56,100 57,250 58,110
59,220 60,70 61,110 62,10
67,20 69,20 70,10 71,10
73,1031 74,150 75,2943 76,230
77,130 81,20 82,100 83,1641
84,100 85,70 86,10 87,40
88,10 89,10 95,10 96,10
97,90 98,50 99,70 100,10
101,80 102,10 103,10 111,80
112,50 113,1001 114,120 115,90
116,10 125,10 127,30 128,10
129,10 139,10 141,10 142,20
143,60 144,10 155,10 157,9999
158,1762 159,611 160,50 183,20
199,200 200,30 201,10
##END=
