##TITLE=Nerol, TBDMS derivative
##JCAMP-DX=4.24
##DATA TYPE=MASS SPECTRUM
##ORIGIN=NIST Mass Spectrometry Data Center
##OWNER=NIST Mass Spectrometry Data Center
Collection (C) 2014 copyright by the U.S. Secretary of Commerce
on behalf of the United States of America. All rights reserved.
##$NIST MASS SPEC NO=352648
##MOLFORM=C16 H32 O Si
##MW=268
##$NIST SOURCE=MSDC
##XUNITS=M/Z
##YUNITS=RELATIVE INTENSITY
##XFACTOR=1
##YFACTOR=1
##FIRSTX=15
##LASTX=271
##FIRSTY=10
##MAXX=271
##MINX=15
##MAXY=9999
##MINY=10
##NPOINTS=155
##PEAK TABLE=(XY..XY)
15,10 26,10 27,120 28,20
29,210 30,10 31,10 39,300
40,100 41,1762 42,110 43,290
44,30 45,300 46,20 47,330
48,20 49,10 50,10 51,50
52,30 53,360 54,40 55,230
56,80 57,380 58,110 59,370
60,90 61,190 62,20 63,20
65,80 66,40 67,460 68,230
69,1621 70,100 71,30 73,2092
75,9999 76,871 77,611 78,50
79,210 80,460 81,500 82,50
83,60 84,10 85,100 86,10
87,50 88,20 89,180 90,20
91,240 92,260 93,1631 94,210
95,210 96,20 97,60 98,20
99,140 100,30 101,200 102,30
103,40 104,10 105,90 106,20
107,340 108,60 109,170 110,30
111,90 112,20 113,180 114,20
115,270 116,30 117,140 118,20
119,50 120,10 121,470 122,70
123,150 124,20 125,110 127,731
128,100 129,210 130,30 131,20
132,20 133,20 135,1762 136,611
137,290 138,30 139,30 141,681
142,120 143,170 144,20 145,10
149,10 151,40 152,10 153,50
154,10 155,270 156,40 157,20
165,30 167,20 168,10 169,90
170,10 171,20 173,30 175,10
177,10 179,10 181,50 182,10
183,40 184,10 185,160 186,200
187,40 188,10 191,30 193,210
194,40 195,30 197,30 198,300
199,90 200,20 211,1451 212,270
213,80 214,10 225,50 226,10
253,220 254,50 255,10 268,811
269,180 270,50 271,10
##END=
