##TITLE=Picolinic acid N-oxide, methyl ester
##JCAMP-DX=4.24
##DATA TYPE=MASS SPECTRUM
##ORIGIN=NIST Mass Spectrometry Data Center
##OWNER=NIST Mass Spectrometry Data Center
Collection (C) 2014 copyright by the U.S. Secretary of Commerce
on behalf of the United States of America. All rights reserved.
##$NIST MASS SPEC NO=352499
##MOLFORM=C7 H7 N O3
##MW=153
##$NIST SOURCE=MSDC
##XUNITS=M/Z
##YUNITS=RELATIVE INTENSITY
##XFACTOR=1
##YFACTOR=1
##FIRSTX=14
##LASTX=155
##FIRSTY=10
##MAXX=155
##MINX=14
##MAXY=9999
##MINY=10
##NPOINTS=66
##PEAK TABLE=(XY..XY)
14,10 15,220 25,10 26,90
27,230 28,170 29,210 30,150
31,30 36,10 37,160 38,440
39,991 40,110 41,30 42,30
43,10 44,30 45,20 48,10
49,100 50,561 51,1932 52,751
53,260 54,30 55,20 59,190
60,20 61,130 62,310 63,761
64,200 65,110 66,140 67,30
68,20 69,20 74,20 75,100
76,170 77,150 78,9999 79,2242
80,140 81,10 91,20 92,100
93,30 95,2873 96,180 97,10
106,2893 107,641 108,60 109,20
120,10 122,761 123,991 124,80
125,10 137,60 138,50 153,1972
154,170 155,20
##END=
