##TITLE=Coniferyl aldehyde, TBDMS derivative
##JCAMP-DX=4.24
##DATA TYPE=MASS SPECTRUM
##ORIGIN=NIST Mass Spectrometry Data Center
##OWNER=NIST Mass Spectrometry Data Center
Collection (C) 2014 copyright by the U.S. Secretary of Commerce
on behalf of the United States of America. All rights reserved.
##$NIST MASS SPEC NO=352424
##MOLFORM=C16 H24 O3 Si
##MW=292
##$NIST SOURCE=MSDC
##XUNITS=M/Z
##YUNITS=RELATIVE INTENSITY
##XFACTOR=1
##YFACTOR=1
##FIRSTX=15
##LASTX=294
##FIRSTY=20
##MAXX=294
##MINX=15
##MAXY=9999
##MINY=10
##NPOINTS=190
##PEAK TABLE=(XY..XY)
15,20 27,40 29,230 30,10
31,30 38,10 39,140 40,20
41,430 42,50 43,170 44,30
45,300 46,20 47,40 50,40
51,120 52,50 53,80 54,20
55,170 56,60 57,530 58,300
59,1271 60,110 61,120 62,40
63,160 64,40 65,80 66,20
67,30 68,30 69,50 70,10
71,20 73,1311 74,160 75,480
76,90 77,280 78,120 79,70
80,20 81,30 82,100 83,190
84,20 85,70 86,20 87,40
88,340 89,911 90,140 91,280
92,60 93,50 94,20 95,60
96,170 98,10 99,60 100,20
101,70 102,470 103,220 104,50
105,110 106,40 107,80 108,20
110,250 113,20 114,20 115,350
116,90 117,340 118,130 119,80
120,20 121,90 122,20 123,20
124,10 125,10 127,30 128,50
129,50 130,40 131,150 132,30
133,70 134,40 135,240 136,310
137,160 138,30 139,10 141,10
143,30 144,70 145,130 146,90
147,110 148,90 149,180 150,60
151,771 152,160 153,50 154,10
157,10 158,10 159,60 160,240
161,490 162,791 163,240 164,60
165,90 166,971 167,140 168,50
169,10 171,10 172,10 173,100
174,80 175,330 176,80 177,1331
178,310 179,460 180,80 181,30
185,30 186,10 187,40 188,20
189,210 190,190 191,460 192,3123
193,671 194,170 195,20 201,20
202,10 203,110 204,50 205,370
206,110 207,60 208,20 215,10
216,10 217,20 219,3723 220,9999
221,1852 222,530 223,60 224,10
231,10 232,10 233,50 235,9338
236,1732 237,520 238,60 239,10
245,10 246,10 247,10 248,10
260,10 261,50 262,160 263,40
264,10 275,20 276,10 277,150
278,30 279,10 291,20 292,90
293,20 294,10
##END=
