##TITLE=2-Methoxy-5-methylphenol, TBDMS derivative
##JCAMP-DX=4.24
##DATA TYPE=MASS SPECTRUM
##ORIGIN=NIST Mass Spectrometry Data Center
##OWNER=NIST Mass Spectrometry Data Center
Collection (C) 2014 copyright by the U.S. Secretary of Commerce
on behalf of the United States of America. All rights reserved.
##$NIST MASS SPEC NO=352882
##MOLFORM=C14 H24 O2 Si
##MW=252
##$NIST SOURCE=MSDC
##XUNITS=M/Z
##YUNITS=RELATIVE INTENSITY
##XFACTOR=1
##YFACTOR=1
##FIRSTX=15
##LASTX=253
##FIRSTY=20
##MAXX=253
##MINX=15
##MAXY=9999
##MINY=10
##NPOINTS=126
##PEAK TABLE=(XY..XY)
15,20 27,40 28,20 29,150
31,20 38,10 39,120 40,30
41,290 42,40 43,110 44,20
45,170 46,10 47,30 50,20
51,70 52,30 53,50 54,10
55,50 56,40 57,280 58,90
59,540 60,50 61,50 62,20
63,40 64,10 65,90 66,50
67,30 68,10 69,20 70,10
71,10 73,470 74,50 75,140
76,80 77,170 78,80 79,70
80,10 81,20 82,40 83,40
85,30 87,10 88,10 89,250
90,90 91,200 92,30 93,30
94,20 95,40 96,10 97,20
99,40 101,10 102,10 103,30
104,20 105,130 106,30 107,40
108,10 109,40 111,10 115,20
116,10 117,10 119,30 120,10
121,50 122,10 123,30 131,10
133,20 134,10 135,130 136,30
137,30 138,10 145,10 147,30
149,871 150,871 151,210 152,50
153,10 161,50 162,30 163,90
165,1411 166,380 167,90 168,10
175,20 176,10 177,10 179,1461
180,9999 181,1611 182,490 183,40
191,10 192,10 193,30 195,3803
196,621 197,190 198,20 205,10
206,20 222,140 223,30 224,10
236,10 237,50 238,10 251,10
252,50 253,10
##END=
