##TITLE=2-(Benzyloxy)ethyl methyl carbonate
##JCAMP-DX=4.24
##DATA TYPE=MASS SPECTRUM
##ORIGIN=NIST Mass Spectrometry Data Center
##OWNER=NIST Mass Spectrometry Data Center
Collection (C) 2014 copyright by the U.S. Secretary of Commerce
on behalf of the United States of America. All rights reserved.
##$NIST MASS SPEC NO=352535
##MOLFORM=C11 H14 O4
##MW=210
##$NIST SOURCE=MSDC
##XUNITS=M/Z
##YUNITS=RELATIVE INTENSITY
##XFACTOR=1
##YFACTOR=1
##FIRSTX=15
##LASTX=211
##FIRSTY=40
##MAXX=211
##MINX=15
##MAXY=9999
##MINY=10
##NPOINTS=65
##PEAK TABLE=(XY..XY)
15,40 26,10 27,40 28,30
29,170 30,30 31,60 33,20
37,10 38,30 39,270 40,20
41,80 42,20 43,140 44,30
45,410 46,10 49,10 50,150
51,430 52,130 53,40 59,881
60,30 61,20 62,90 63,370
64,120 65,1631 66,90 73,10
74,40 75,40 76,40 77,2282
78,350 79,480 80,30 86,10
87,10 89,520 90,390 91,9999
92,1011 93,50 103,1752 104,3113
105,3243 106,2462 107,1501 108,120
109,10 116,10 119,30 120,10
121,70 122,10 133,180 134,831
135,80 136,10 151,10 210,110
211,20
##END=
