##TITLE=2-Chloro-4-methoxyphenol, TMS derivative
##JCAMP-DX=4.24
##DATA TYPE=MASS SPECTRUM
##ORIGIN=NIST Mass Spectrometry Data Center
##OWNER=NIST Mass Spectrometry Data Center
Collection (C) 2014 copyright by the U.S. Secretary of Commerce
on behalf of the United States of America. All rights reserved.
##$NIST MASS SPEC NO=352907
##MOLFORM=C10 H15 Cl O2 Si
##MW=230
##$NIST SOURCE=MSDC
##XUNITS=M/Z
##YUNITS=RELATIVE INTENSITY
##XFACTOR=1
##YFACTOR=1
##FIRSTX=15
##LASTX=235
##FIRSTY=110
##MAXX=235
##MINX=15
##MAXY=9999
##MINY=10
##NPOINTS=179
##PEAK TABLE=(XY..XY)
15,110 26,20 27,40 28,60
29,130 30,20 31,30 36,10
37,10 38,30 39,110 40,10
41,50 42,60 43,510 44,240
45,1111 46,80 47,80 49,10
50,110 51,410 52,60 53,360
54,110 55,140 56,20 57,100
58,100 59,140 60,50 61,70
62,170 63,1001 64,120 65,911
66,110 67,230 68,20 69,60
70,40 71,50 72,150 73,3373
74,360 75,280 76,60 77,370
78,591 79,1341 80,120 81,210
82,60 83,150 84,30 85,60
86,60 87,40 88,60 89,130
90,60 91,510 92,200 93,4254
94,420 95,1501 96,110 97,160
98,50 99,60 100,20 101,30
102,10 103,260 104,40 105,240
106,80 107,561 109,410 110,40
111,150 112,30 113,60 114,80
115,80 116,50 117,80 118,20
119,80 120,40 121,2853 122,320
123,50 124,10 125,70 126,70
127,60 128,30 129,280 130,30
131,120 132,20 133,50 134,20
135,180 136,60 137,100 138,10
139,10 140,10 141,20 142,90
143,50 144,40 145,30 146,10
147,90 148,120 149,330 150,70
151,120 152,20 153,20 154,10
155,210 156,40 157,751 158,90
159,240 160,30 161,50 162,10
163,40 164,80 165,130 166,20
167,10 169,50 170,80 171,100
172,100 173,40 174,30 175,10
177,90 179,9999 180,1421 181,440
182,40 183,70 184,190 185,140
186,90 187,90 188,20 189,20
191,10 193,10 194,100 195,20
196,10 197,10 199,110 200,280
201,80 202,100 203,20 213,50
215,2532 216,380 217,901 218,130
219,40 230,3253 231,520 232,1171
233,190 234,60 235,10
##END=
