##TITLE=Crotyl alcohol, pentafluoropropionate
##JCAMP-DX=4.24
##DATA TYPE=MASS SPECTRUM
##ORIGIN=NIST Mass Spectrometry Data Center
##OWNER=NIST Mass Spectrometry Data Center
Collection (C) 2014 copyright by the U.S. Secretary of Commerce
on behalf of the United States of America. All rights reserved.
##$NIST MASS SPEC NO=352265
##MOLFORM=C7 H7 F5 O2
##MW=218
##$NIST SOURCE=MSDC
##XUNITS=M/Z
##YUNITS=RELATIVE INTENSITY
##XFACTOR=1
##YFACTOR=1
##FIRSTX=14
##LASTX=219
##FIRSTY=20
##MAXX=219
##MINX=14
##MAXY=9999
##MINY=10
##NPOINTS=80
##PEAK TABLE=(XY..XY)
14,20 15,100 16,10 18,10
20,10 25,20 26,360 27,2853
28,811 29,2813 30,70 31,430
32,10 33,40 37,110 38,320
39,4934 40,400 41,1481 42,230
43,1071 44,110 45,120 46,10
47,100 49,40 50,661 51,440
52,230 53,1702 54,6726 55,9999
56,470 59,510 60,20 62,10
65,10 66,10 67,20 69,2963
70,70 71,1001 72,50 73,40
77,30 78,70 81,70 85,20
90,10 91,10 93,130 95,10
97,40 99,941 100,891 101,40
109,30 117,10 119,6085 120,130
121,30 128,50 129,10 131,10
141,10 147,370 148,10 149,70
150,10 162,10 163,10 169,10
175,210 176,20 189,90 190,20
203,170 204,10 218,280 219,20
##END=
