##TITLE=Protocatechoic acid, 3TBDMS derivative
##JCAMP-DX=4.24
##DATA TYPE=MASS SPECTRUM
##ORIGIN=NIST Mass Spectrometry Data Center
##OWNER=NIST Mass Spectrometry Data Center
Collection (C) 2014 copyright by the U.S. Secretary of Commerce
on behalf of the United States of America. All rights reserved.
##$NIST MASS SPEC NO=352467
##MOLFORM=C25 H48 O4 Si3
##MW=496
##$NIST SOURCE=MSDC
##XUNITS=M/Z
##YUNITS=RELATIVE INTENSITY
##XFACTOR=1
##YFACTOR=1
##FIRSTX=27
##LASTX=498
##FIRSTY=10
##MAXX=498
##MINX=27
##MAXY=9999
##MINY=10
##NPOINTS=208
##PEAK TABLE=(XY..XY)
27,10 29,90 31,10 39,30
41,240 42,10 43,40 44,10
45,150 46,10 47,20 53,10
55,20 56,70 57,490 58,140
59,400 60,40 61,20 69,10
71,10 73,6736 74,611 75,350
76,20 77,10 79,10 81,10
83,50 84,10 85,60 86,10
87,10 89,10 90,10 91,80
92,10 93,20 95,10 97,20
98,10 99,80 100,20 101,10
103,30 104,50 105,80 106,10
107,20 109,30 111,10 113,20
114,10 115,210 116,30 117,30
118,20 119,60 120,10 121,30
122,10 123,30 126,10 127,10
129,10 131,40 132,10 133,220
134,60 135,90 136,30 137,300
138,40 139,10 143,20 145,20
146,10 147,100 148,30 149,80
150,70 151,90 152,10 153,10
155,10 157,10 159,10 161,10
162,10 163,80 164,40 165,360
166,60 167,30 173,10 175,10
177,30 178,170 179,90 180,20
181,50 182,10 183,10 189,10
191,40 192,40 193,1802 194,280
195,160 196,30 197,10 205,20
206,10 207,120 208,40 209,130
210,30 211,40 212,10 217,10
219,30 220,10 221,20 222,40
223,841 224,200 225,80 226,10
233,20 235,230 236,40 237,60
238,10 239,20 249,60 250,10
251,100 252,30 253,30 254,10
263,10 265,100 266,40 267,751
268,170 269,70 270,10 279,20
280,10 281,50 282,10 283,20
291,10 293,30 294,10 295,10
307,110 308,30 309,400 310,100
311,40 312,10 321,10 323,20
325,40 326,10 327,10 337,10
339,20 340,10 349,30 350,10
351,10 363,10 365,601 366,190
367,90 368,20 369,10 379,10
381,110 382,40 383,30 384,10
395,701 396,260 397,120 398,30
399,10 423,30 424,10 425,10
437,30 439,9999 440,4104 441,1922
442,490 443,120 444,20 465,10
481,360 482,150 483,70 484,20
495,30 496,40 497,20 498,10
##END=
