##TITLE=2-Decen-1-ol, (E)-, TMS derivative
##JCAMP-DX=4.24
##DATA TYPE=MASS SPECTRUM
##ORIGIN=NIST Mass Spectrometry Data Center
##OWNER=NIST Mass Spectrometry Data Center
Collection (C) 2014 copyright by the U.S. Secretary of Commerce
on behalf of the United States of America. All rights reserved.
##$NIST MASS SPEC NO=352662
##MOLFORM=C13 H28 O Si
##MW=228
##$NIST SOURCE=MSDC
##XUNITS=M/Z
##YUNITS=RELATIVE INTENSITY
##XFACTOR=1
##YFACTOR=1
##FIRSTX=15
##LASTX=230
##FIRSTY=10
##MAXX=230
##MINX=15
##MAXY=9999
##MINY=10
##NPOINTS=129
##PEAK TABLE=(XY..XY)
15,10 26,10 27,220 28,50
29,400 30,10 31,20 39,320
40,50 41,1011 42,120 43,861
44,100 45,621 46,40 47,310
48,20 49,10 50,10 51,30
52,20 53,210 54,390 55,571
56,80 57,190 58,100 59,410
60,90 61,410 62,30 63,20
64,20 65,70 66,70 67,540
68,290 69,200 70,60 71,90
73,6266 74,671 75,6256 76,470
77,290 78,20 79,130 80,50
81,480 82,480 83,180 84,20
85,160 86,20 87,70 88,60
89,200 90,20 91,340 92,40
93,40 94,20 95,460 96,360
97,150 98,40 99,400 100,50
101,1001 102,100 103,270 104,20
105,10 107,10 108,10 109,210
110,250 111,150 112,30 113,621
114,100 115,631 116,280 117,60
118,10 123,40 124,10 125,30
126,10 127,170 129,9999 130,1341
131,450 132,30 137,380 138,240
139,40 140,10 141,80 143,2452
144,350 145,110 146,10 155,80
156,20 157,190 158,30 159,10
169,10 171,581 172,90 173,30
183,100 185,1181 186,200 187,60
188,10 195,10 199,160 200,30
201,10 213,1631 214,300 215,80
216,10 227,30 228,390 229,80
230,20
##END=
