##TITLE=trans-2,4-Dimethoxycinnamic acid, methyl ester
##JCAMP-DX=4.24
##DATA TYPE=MASS SPECTRUM
##ORIGIN=NIST Mass Spectrometry Data Center
##OWNER=NIST Mass Spectrometry Data Center
Collection (C) 2014 copyright by the U.S. Secretary of Commerce
on behalf of the United States of America. All rights reserved.
##$NIST MASS SPEC NO=352415
##MOLFORM=C12 H14 O4
##MW=222
##$NIST SOURCE=MSDC
##XUNITS=M/Z
##YUNITS=RELATIVE INTENSITY
##XFACTOR=1
##YFACTOR=1
##FIRSTX=14
##LASTX=225
##FIRSTY=10
##MAXX=225
##MINX=14
##MAXY=9999
##MINY=10
##NPOINTS=141
##PEAK TABLE=(XY..XY)
14,10 15,410 26,20 27,70
28,60 29,160 30,40 31,60
37,20 38,110 39,340 40,30
41,100 42,20 43,100 45,160
46,10 49,10 50,330 51,991
52,130 53,220 54,30 55,210
56,10 57,40 59,400 60,10
61,80 62,450 63,951 64,290
65,470 66,130 67,40 68,20
69,300 70,10 71,40 73,20
74,190 75,200 76,390 77,1732
78,370 79,581 80,70 81,30
82,20 83,20 85,60 86,80
87,140 88,220 89,1071 90,621
91,991 92,420 93,100 94,50
95,190 97,150 98,60 99,530
100,40 101,90 102,190 103,821
104,220 105,1171 106,160 107,170
108,130 109,60 110,10 111,130
115,80 116,140 117,250 118,480
119,571 120,450 121,2162 122,210
123,40 124,40 125,10 129,10
130,20 131,290 132,230 133,2642
134,440 135,751 136,170 137,250
138,70 139,10 144,20 145,110
146,130 147,530 148,3373 149,3713
150,370 151,300 152,30 153,10
159,30 160,70 161,1161 162,821
163,390 164,470 165,130 166,20
167,10 173,10 174,10 175,70
176,2152 177,460 178,80 179,220
180,30 181,30 189,60 191,9999
192,1211 193,140 194,30 205,10
206,20 207,70 208,10 220,10
221,60 222,6116 223,821 224,100
225,10
##END=
