##TITLE=cis-3-Hexen-1-ol, heptafluorobutyrate
##JCAMP-DX=4.24
##DATA TYPE=MASS SPECTRUM
##ORIGIN=NIST Mass Spectrometry Data Center
##OWNER=NIST Mass Spectrometry Data Center
Collection (C) 2014 copyright by the U.S. Secretary of Commerce
on behalf of the United States of America. All rights reserved.
##$NIST MASS SPEC NO=352286
##MOLFORM=C10 H11 F7 O2
##MW=296
##$NIST SOURCE=MSDC
##XUNITS=M/Z
##YUNITS=RELATIVE INTENSITY
##XFACTOR=1
##YFACTOR=1
##FIRSTX=15
##LASTX=253
##FIRSTY=50
##MAXX=253
##MINX=15
##MAXY=9999
##MINY=10
##NPOINTS=74
##PEAK TABLE=(XY..XY)
15,50 20,10 26,80 27,941
28,290 29,801 30,30 31,130
33,20 37,20 38,90 39,1682
40,320 41,4584 42,661 43,260
44,40 45,80 47,20 49,10
50,170 51,240 52,130 53,921
54,1131 55,4164 56,360 57,30
59,40 61,10 62,30 63,50
64,10 65,340 66,210 67,9999
68,701 69,3413 70,80 71,20
73,10 74,10 75,10 77,110
78,60 79,360 80,80 81,1001
82,7517 83,1081 84,50 85,20
90,10 93,40 95,10 97,10
100,691 101,20 109,190 110,10
112,10 119,540 120,10 131,80
145,10 147,10 150,90 151,10
159,10 169,2042 170,70 197,100
225,10 253,10
##END=
