##TITLE=trans-2-Dodecen-1-ol, acetate
##JCAMP-DX=4.24
##DATA TYPE=MASS SPECTRUM
##ORIGIN=NIST Mass Spectrometry Data Center
##OWNER=NIST Mass Spectrometry Data Center
Collection (C) 2014 copyright by the U.S. Secretary of Commerce
on behalf of the United States of America. All rights reserved.
##$NIST MASS SPEC NO=352259
##MOLFORM=C14 H26 O2
##MW=226
##$NIST SOURCE=MSDC
##XUNITS=M/Z
##YUNITS=RELATIVE INTENSITY
##XFACTOR=1
##YFACTOR=1
##FIRSTX=14
##LASTX=211
##FIRSTY=20
##MAXX=211
##MINX=14
##MAXY=9999
##MINY=10
##NPOINTS=113
##PEAK TABLE=(XY..XY)
14,20 15,190 16,10 18,20
25,10 26,40 27,801 28,250
29,1421 30,30 31,30 37,10
38,20 39,931 40,170 41,3053
42,641 43,9999 44,300 45,60
50,20 51,70 52,60 53,581
54,2492 55,2322 56,631 57,1491
58,260 59,60 60,20 61,190
62,10 63,10 65,180 66,280
67,2402 68,1732 69,1611 70,661
71,941 72,360 73,150 74,10
77,140 78,30 79,500 80,280
81,2132 82,2562 83,1161 84,300
85,310 86,210 87,60 88,10
91,60 92,10 93,90 94,90
95,1601 96,2152 97,681 98,150
99,400 100,550 101,140 102,10
105,10 107,20 108,30 109,841
110,701 111,250 112,80 113,390
114,540 115,210 116,20 121,10
122,20 123,320 124,490 125,80
126,30 127,110 128,150 129,10
135,10 136,10 137,200 138,1021
139,120 140,30 141,160 142,80
143,10 151,30 152,10 155,340
156,50 165,20 166,340 167,50
168,10 169,110 170,10 182,10
183,130 184,400 185,60 197,20
211,10
##END=
