##TITLE=2-Methylresorcinol, 2TMS derivative
##JCAMP-DX=4.24
##DATA TYPE=MASS SPECTRUM
##ORIGIN=NIST Mass Spectrometry Data Center
##OWNER=NIST Mass Spectrometry Data Center
Collection (C) 2014 copyright by the U.S. Secretary of Commerce
on behalf of the United States of America. All rights reserved.
##$NIST MASS SPEC NO=352786
##MOLFORM=C13 H24 O2 Si2
##MW=268
##$NIST SOURCE=MSDC
##XUNITS=M/Z
##YUNITS=RELATIVE INTENSITY
##XFACTOR=1
##YFACTOR=1
##FIRSTX=15
##LASTX=272
##FIRSTY=10
##MAXX=272
##MINX=15
##MAXY=9999
##MINY=10
##NPOINTS=179
##PEAK TABLE=(XY..XY)
15,10 27,10 29,30 31,20
39,30 41,10 42,10 43,200
44,80 45,811 46,50 47,70
50,10 51,80 52,50 53,40
54,10 55,50 56,10 57,50
58,60 59,390 60,40 61,70
62,10 63,50 64,20 65,50
66,20 67,40 68,20 69,50
70,20 71,40 73,9999 74,1111
75,791 76,60 77,250 78,160
79,80 80,10 81,40 82,20
83,120 84,10 85,70 86,10
87,20 88,10 89,120 90,40
91,230 92,30 93,60 94,10
95,130 96,40 97,80 98,10
99,40 101,10 102,30 103,150
104,100 105,270 106,70 107,160
108,20 109,110 110,20 111,140
112,80 113,20 115,70 116,20
117,70 118,20 119,791 121,160
122,30 123,60 124,10 125,30
127,10 129,20 130,10 131,90
132,20 133,320 134,60 135,380
136,70 137,170 138,20 139,20
141,10 143,50 144,10 145,60
146,20 147,310 148,90 149,380
150,70 151,480 152,70 153,40
155,10 157,20 159,30 160,10
161,180 162,50 163,661 164,150
165,981 166,150 167,160 168,20
169,10 175,30 176,10 177,320
178,70 179,380 180,250 181,100
182,20 183,10 189,10 191,40
192,10 193,200 194,80 195,150
196,30 197,10 203,10 205,40
206,10 207,50 208,10 209,80
210,20 211,10 217,10 219,50
220,20 221,70 222,20 223,80
224,20 225,10 231,10 233,90
234,20 235,110 236,30 237,741
238,160 239,80 240,10 247,10
249,30 250,10 251,160 253,3934
254,961 255,390 256,70 257,10
265,10 267,450 268,9689 269,3123
270,1251 271,200 272,40
##END=
