##TITLE=Phloretic acid, 2TBDMS derivative
##JCAMP-DX=4.24
##DATA TYPE=MASS SPECTRUM
##ORIGIN=NIST Mass Spectrometry Data Center
##OWNER=NIST Mass Spectrometry Data Center
Collection (C) 2014 copyright by the U.S. Secretary of Commerce
on behalf of the United States of America. All rights reserved.
##$NIST MASS SPEC NO=352426
##MOLFORM=C21 H38 O3 Si2
##MW=394
##$NIST SOURCE=MSDC
##XUNITS=M/Z
##YUNITS=RELATIVE INTENSITY
##XFACTOR=1
##YFACTOR=1
##FIRSTX=27
##LASTX=397
##FIRSTY=20
##MAXX=397
##MINX=27
##MAXY=9999
##MINY=10
##NPOINTS=181
##PEAK TABLE=(XY..XY)
27,20 29,100 31,10 39,50
40,10 41,270 42,20 43,80
44,10 45,190 46,10 47,120
48,10 51,10 52,10 53,20
55,811 56,150 57,490 58,120
59,370 60,60 61,90 62,10
63,10 64,10 65,20 67,10
68,10 69,20 70,10 71,20
72,90 73,3483 74,350 75,2492
76,190 77,220 78,60 79,30
81,10 82,10 83,30 85,70
86,10 87,20 88,30 89,110
90,110 91,350 92,30 93,10
95,30 96,10 97,20 98,10
99,160 100,20 101,80 102,50
103,170 104,140 105,190 106,20
107,460 108,40 109,20 111,10
113,20 114,10 115,160 116,210
117,110 118,20 119,70 120,20
121,100 122,10 123,30 125,40
127,10 128,20 129,60 130,20
131,270 132,60 133,270 134,50
135,260 136,40 137,40 140,1341
143,20 144,10 145,80 146,20
147,270 148,70 149,641 150,150
151,180 152,30 153,20 157,10
158,10 159,20 160,10 161,160
162,50 163,751 164,320 165,691
166,110 167,30 173,10 174,10
175,90 176,30 177,270 179,5995
180,971 181,330 182,40 183,10
185,10 187,30 188,10 189,40
190,10 191,60 192,20 193,30
194,10 195,20 203,30 205,1191
206,220 207,70 208,10 209,20
217,10 219,140 221,9999 222,2032
223,631 224,80 225,20 231,10
233,10 234,30 235,70 236,20
237,30 238,10 247,80 248,20
249,10 261,10 263,20 265,10
266,10 279,20 280,10 281,90
282,20 283,10 295,10 335,10
337,5335 338,1581 339,611 340,110
341,20 351,10 379,180 380,60
381,20 394,200 395,60 396,20
397,10
##END=
