##TITLE=2-Methoxycinnamic acid, TBDMS derivative
##JCAMP-DX=4.24
##DATA TYPE=MASS SPECTRUM
##ORIGIN=NIST Mass Spectrometry Data Center
##OWNER=NIST Mass Spectrometry Data Center
Collection (C) 2014 copyright by the U.S. Secretary of Commerce
on behalf of the United States of America. All rights reserved.
##$NIST MASS SPEC NO=352481
##MOLFORM=C16 H24 O3 Si
##MW=292
##$NIST SOURCE=MSDC
##XUNITS=M/Z
##YUNITS=RELATIVE INTENSITY
##XFACTOR=1
##YFACTOR=1
##FIRSTX=15
##LASTX=279
##FIRSTY=10
##MAXX=279
##MINX=15
##MAXY=9999
##MINY=10
##NPOINTS=149
##PEAK TABLE=(XY..XY)
15,10 27,60 28,10 29,200
30,10 31,10 38,20 39,180
40,30 41,410 42,30 43,100
44,20 45,240 46,20 47,230
48,10 49,10 50,50 51,170
52,40 53,60 54,10 55,190
56,60 57,430 58,90 59,260
60,60 61,90 62,60 63,250
64,100 65,70 66,10 67,20
68,20 69,10 71,10 72,10
73,591 74,160 75,1511 76,210
77,1001 78,150 79,561 80,40
82,10 83,20 85,30 86,10
87,40 88,50 89,791 90,601
91,290 92,60 93,10 94,20
95,10 97,10 98,10 99,60
100,20 101,110 102,370 103,771
104,150 105,1481 106,140 107,50
108,10 109,10 110,10 113,10
114,10 115,250 116,70 118,2082
119,280 120,20 121,30 128,10
129,50 130,20 131,811 132,180
133,80 134,20 135,150 136,20
137,30 142,10 143,10 144,70
145,90 146,811 147,170 148,50
149,250 150,40 151,320 152,40
153,20 158,10 159,80 161,9559
162,1151 163,591 164,80 165,140
166,20 167,10 173,10 174,10
175,220 176,2642 177,510 178,150
179,60 180,10 187,10 189,40
190,10 191,731 192,160 193,60
194,10 201,10 202,10 203,30
204,10 205,60 206,10 218,10
219,110 220,30 221,20 233,30
235,9999 236,1972 237,591 238,70
239,10 261,10 277,240 278,50
279,10
##END=
