##TITLE=Farnesol (E), methyl ether
##JCAMP-DX=4.24
##DATA TYPE=MASS SPECTRUM
##ORIGIN=NIST Mass Spectrometry Data Center
##OWNER=NIST Mass Spectrometry Data Center
Collection (C) 2014 copyright by the U.S. Secretary of Commerce
on behalf of the United States of America. All rights reserved.
##$NIST MASS SPEC NO=352673
##MOLFORM=C16 H28 O
##MW=236
##$NIST SOURCE=MSDC
##XUNITS=M/Z
##YUNITS=RELATIVE INTENSITY
##XFACTOR=1
##YFACTOR=1
##FIRSTX=15
##LASTX=237
##FIRSTY=20
##MAXX=237
##MINX=15
##MAXY=9999
##MINY=10
##NPOINTS=137
##PEAK TABLE=(XY..XY)
15,20 26,10 27,220 28,30
29,320 30,10 31,20 33,60
37,10 38,20 39,691 40,220
41,4044 42,250 43,490 45,1111
46,20 50,30 51,140 52,90
53,1181 54,130 55,1201 56,110
57,310 58,90 59,290 60,10
62,10 63,30 64,10 65,410
66,130 67,2662 68,1702 69,9999
70,621 71,320 72,20 73,70
77,571 78,110 79,961 80,981
81,3273 82,440 83,490 84,130
85,1041 86,180 87,20 89,10
91,781 92,480 93,3683 94,631
95,1271 96,170 97,190 98,731
99,571 100,50 102,10 103,50
104,20 105,490 106,150 107,1902
108,400 109,1011 110,130 111,450
112,80 113,10 115,40 116,10
117,50 118,20 119,530 120,210
121,1541 122,701 123,1131 124,180
125,200 126,40 127,10 128,10
129,10 131,20 133,370 134,230
135,1041 136,1311 137,390 138,40
139,20 140,10 141,100 142,10
143,10 145,10 146,10 147,250
148,230 149,230 150,30 151,130
152,130 153,70 154,40 156,10
159,10 161,571 162,130 163,40
164,10 165,30 166,20 167,30
175,60 176,40 177,50 178,60
179,20 180,20 189,330 190,50
191,350 192,50 193,90 194,20
204,150 205,30 221,20 236,80
237,20
##END=
