##TITLE=5-Amino-2-methoxyphenol, N,N-methyl-, methyl ether
##JCAMP-DX=4.24
##DATA TYPE=MASS SPECTRUM
##ORIGIN=NIST Mass Spectrometry Data Center
##OWNER=NIST Mass Spectrometry Data Center
Collection (C) 2014 copyright by the U.S. Secretary of Commerce
on behalf of the United States of America. All rights reserved.
##$NIST MASS SPEC NO=352886
##MOLFORM=C10 H15 N O2
##MW=181
##$NIST SOURCE=MSDC
##XUNITS=M/Z
##YUNITS=RELATIVE INTENSITY
##XFACTOR=1
##YFACTOR=1
##FIRSTX=15
##LASTX=184
##FIRSTY=1391
##MAXX=184
##MINX=15
##MAXY=9999
##MINY=10
##NPOINTS=114
##PEAK TABLE=(XY..XY)
15,1391 18,60 26,60 27,160
28,240 29,260 30,80 31,90
37,30 38,110 39,500 40,80
41,230 42,941 43,330 44,300
45,40 46,20 47,20 49,20
50,310 51,821 52,500 53,450
54,170 55,170 56,50 57,10
58,20 59,30 61,50 62,190
63,420 64,250 65,661 66,460
67,470 68,430 69,390 70,40
71,10 72,50 73,20 74,80
75,90 76,150 77,520 78,300
79,1211 80,420 81,180 82,661
84,10 87,10 88,20 89,30
91,320 92,901 93,400 94,1071
95,801 96,80 97,10 98,10
102,20 103,30 104,240 105,240
106,290 107,561 108,971 109,150
110,80 111,10 117,40 118,200
119,170 120,450 121,410 122,2262
123,2923 124,270 125,30 127,30
128,50 132,20 133,40 134,120
135,250 136,2482 137,941 138,5365
139,490 140,30 148,140 149,60
150,611 151,120 152,50 162,10
163,10 164,420 165,440 166,9999
167,991 168,60 169,10 178,70
179,30 180,310 181,8247 182,891
183,90 184,10
##END=
