##TITLE=2-Chloro-4-methoxyphenol, acetate
##JCAMP-DX=4.24
##DATA TYPE=MASS SPECTRUM
##ORIGIN=NIST Mass Spectrometry Data Center
##OWNER=NIST Mass Spectrometry Data Center
Collection (C) 2014 copyright by the U.S. Secretary of Commerce
on behalf of the United States of America. All rights reserved.
##$NIST MASS SPEC NO=352903
##MOLFORM=C9 H9 Cl O3
##MW=200
##$NIST SOURCE=MSDC
##XUNITS=M/Z
##YUNITS=RELATIVE INTENSITY
##XFACTOR=1
##YFACTOR=1
##FIRSTX=14
##LASTX=203
##FIRSTY=20
##MAXX=203
##MINX=14
##MAXY=9999
##MINY=10
##NPOINTS=110
##PEAK TABLE=(XY..XY)
14,20 15,140 25,10 26,50
27,10 28,30 29,30 36,10
37,40 38,50 39,130 40,10
41,70 42,130 43,2042 44,50
45,10 47,10 48,10 49,50
50,170 51,540 52,120 53,440
54,220 55,50 59,10 60,140
61,120 62,290 63,631 64,80
65,460 66,80 67,10 69,40
71,10 72,50 73,150 74,80
75,130 76,10 77,80 78,20
79,841 80,80 81,10 82,70
84,20 85,40 86,160 87,110
88,130 89,60 90,30 91,60
92,20 93,40 94,30 95,80
96,20 97,50 98,80 99,170
100,40 101,60 102,10 103,10
105,10 107,951 108,130 109,20
110,10 111,30 112,10 113,60
114,130 115,180 116,50 117,50
122,10 123,50 124,20 126,100
127,50 128,90 129,400 130,40
131,130 132,10 141,50 143,5685
144,410 145,1872 146,130 147,10
150,10 155,10 157,490 158,9999
159,981 160,3363 161,250 162,20
165,20 169,10 200,350 201,40
202,110 203,10
##END=
