##TITLE=(.+/-.)-Lavandulol, TBDMS derivative
##JCAMP-DX=4.24
##DATA TYPE=MASS SPECTRUM
##ORIGIN=NIST Mass Spectrometry Data Center
##OWNER=NIST Mass Spectrometry Data Center
Collection (C) 2014 copyright by the U.S. Secretary of Commerce
on behalf of the United States of America. All rights reserved.
##$NIST MASS SPEC NO=352633
##MOLFORM=C16 H32 O Si
##MW=268
##$NIST SOURCE=MSDC
##XUNITS=M/Z
##YUNITS=RELATIVE INTENSITY
##XFACTOR=1
##YFACTOR=1
##FIRSTX=27
##LASTX=254
##FIRSTY=10
##MAXX=254
##MINX=27
##MAXY=9999
##MINY=10
##NPOINTS=154
##PEAK TABLE=(XY..XY)
27,10 29,70 38,10 39,200
40,90 41,1281 42,40 43,260
44,30 45,270 46,20 47,220
48,20 49,10 51,60 52,30
53,520 54,50 55,400 56,130
57,651 58,450 59,1271 60,130
61,270 62,10 63,20 64,10
65,170 66,70 67,711 68,320
69,9158 70,360 71,70 72,110
73,5815 74,480 75,9999 76,601
77,671 78,60 79,550 80,1161
81,450 82,50 83,170 84,50
85,360 86,50 87,110 88,210
89,2472 90,170 91,691 92,691
93,4024 94,400 95,370 96,50
97,280 98,70 99,450 100,100
101,681 102,70 103,90 104,20
105,280 106,60 107,701 108,100
109,460 110,80 111,260 112,60
113,2332 114,280 115,1031 116,110
117,240 118,30 119,90 120,30
121,1491 122,190 123,741 124,70
125,460 126,80 127,1211 128,160
129,440 130,50 131,30 132,10
133,20 135,2392 136,701 137,220
138,30 139,270 140,60 141,1471
142,270 143,4354 144,550 145,200
146,20 147,10 149,20 151,90
152,20 153,130 154,30 155,350
156,50 157,20 163,10 165,30
166,10 167,50 168,40 169,911
170,140 171,60 172,10 177,10
179,10 181,70 182,10 183,60
184,10 185,100 186,20 187,10
191,10 193,130 194,20 195,30
196,10 197,20 198,10 199,30
200,10 209,20 211,5565 212,1011
213,280 214,30 225,40 226,10
253,60 254,10
##END=
