##TITLE=3-Buten-2-ol, pentafluoropropionate
##JCAMP-DX=4.24
##DATA TYPE=MASS SPECTRUM
##ORIGIN=NIST Mass Spectrometry Data Center
##OWNER=NIST Mass Spectrometry Data Center
Collection (C) 2014 copyright by the U.S. Secretary of Commerce
on behalf of the United States of America. All rights reserved.
##$NIST MASS SPEC NO=352687
##MOLFORM=C7 H7 F5 O2
##MW=218
##$NIST SOURCE=MSDC
##XUNITS=M/Z
##YUNITS=RELATIVE INTENSITY
##XFACTOR=1
##YFACTOR=1
##FIRSTX=14
##LASTX=218
##FIRSTY=40
##MAXX=218
##MINX=14
##MAXY=9999
##MINY=10
##NPOINTS=79
##PEAK TABLE=(XY..XY)
14,40 15,230 16,10 18,20
19,10 20,10 25,30 26,530
27,3343 28,891 29,2793 30,60
31,450 32,10 33,10 37,90
38,260 39,3243 40,340 41,540
42,170 43,3133 44,170 45,210
46,10 47,190 48,10 49,50
50,801 51,540 52,210 53,1672
54,4934 55,9999 56,561 57,30
59,891 60,30 62,10 65,10
67,20 69,3163 70,60 71,791
72,40 73,50 77,40 78,90
81,100 82,10 83,10 85,10
91,10 93,50 95,10 97,50
99,1421 100,1021 101,40 109,40
117,10 119,6806 120,150 127,10
128,80 129,10 147,460 148,20
149,40 163,90 165,10 175,320
176,20 189,40 190,10 191,50
203,440 204,30 218,20
##END=
