##TITLE=Butoxytriglycol, TMS derivative
##JCAMP-DX=4.24
##DATA TYPE=MASS SPECTRUM
##ORIGIN=NIST Mass Spectrometry Data Center, 2007
##OWNER=NIST Mass Spectrometry Data Center
Collection (C) 2014 copyright by the U.S. Secretary of Commerce
on behalf of the United States of America. All rights reserved.
##$NIST MASS SPEC NO=352108
##MOLFORM=C13 H30 O4 Si
##MW=278
##$NIST SOURCE=MSDC
##XUNITS=M/Z
##YUNITS=RELATIVE INTENSITY
##XFACTOR=1
##YFACTOR=1
##FIRSTX=14
##LASTX=263
##FIRSTY=10
##MAXX=263
##MINX=14
##MAXY=9999
##MINY=10
##NPOINTS=117
##PEAK TABLE=(XY..XY)
14,10 15,100 19,40 25,10
26,60 27,420 28,540 29,2072
30,120 31,260 32,10 38,10
39,200 41,2412 42,230 43,961
44,520 45,5095 46,150 47,190
48,10 49,10 50,10 51,30
53,40 54,20 55,741 56,1161
57,6546 58,811 59,1792 60,140
61,420 62,30 63,30 66,10
67,20 68,10 69,70 70,170
71,330 72,1251 73,9999 74,911
75,2863 76,190 77,250 78,20
79,10 81,10 82,30 83,180
84,30 85,1001 86,100 87,1121
88,621 89,2833 90,210 91,50
98,100 99,130 100,741 101,4884
102,490 103,5345 104,460 105,330
106,30 107,10 113,10 115,340
116,5575 117,6326 118,921 119,1001
120,80 121,30 127,10 128,10
129,70 130,20 131,280 132,40
133,621 134,70 135,40 143,10
144,130 145,1371 146,160 147,891
148,110 149,50 150,10 159,20
160,40 161,520 162,70 163,40
175,90 176,40 177,60 178,10
179,10 188,10 189,50 190,10
191,90 192,10 204,10 205,10
207,40 208,10 235,80 236,10
263,20
##END=
