##TITLE=4-Penten-2-ol, trifluoroacetate
##JCAMP-DX=4.24
##DATA TYPE=MASS SPECTRUM
##ORIGIN=NIST Mass Spectrometry Data Center
##OWNER=NIST Mass Spectrometry Data Center
Collection (C) 2014 copyright by the U.S. Secretary of Commerce
on behalf of the United States of America. All rights reserved.
##$NIST MASS SPEC NO=352318
##MOLFORM=C7 H9 F3 O2
##MW=182
##$NIST SOURCE=MSDC
##XUNITS=M/Z
##YUNITS=RELATIVE INTENSITY
##XFACTOR=1
##YFACTOR=1
##FIRSTX=14
##LASTX=168
##FIRSTY=20
##MAXX=168
##MINX=14
##MAXY=9999
##MINY=10
##NPOINTS=81
##PEAK TABLE=(XY..XY)
14,20 15,170 16,10 20,10
25,10 26,150 27,981 28,290
29,380 30,10 31,70 32,10
33,10 34,10 37,80 38,250
39,2592 40,581 41,4864 42,751
43,1031 44,120 45,200 46,20
47,2282 48,50 49,10 50,320
51,210 52,80 53,1171 54,150
55,80 56,10 57,30 58,10
59,80 60,20 61,20 62,40
63,60 64,20 65,160 66,90
67,1842 68,5885 69,9999 70,260
71,30 73,50 77,10 78,110
81,10 83,10 85,20 89,20
90,10 91,220 92,10 93,50
94,10 95,20 97,490 98,10
99,60 100,10 112,30 113,2262
114,80 115,60 119,10 125,30
138,20 139,40 141,5035 142,230
143,30 153,10 154,10 167,90
168,10
##END=
