##TITLE=L-(+)-Tartaric acid, 4TMS derivative
##JCAMP-DX=4.24
##DATA TYPE=MASS SPECTRUM
##ORIGIN=NIST Mass Spectrometry Data Center
##OWNER=NIST Mass Spectrometry Data Center
Collection (C) 2014 copyright by the U.S. Secretary of Commerce
on behalf of the United States of America. All rights reserved.
##$NIST MASS SPEC NO=352521
##MOLFORM=C16 H38 O6 Si4
##MW=438
##$NIST SOURCE=MSDC
##XUNITS=M/Z
##YUNITS=RELATIVE INTENSITY
##XFACTOR=1
##YFACTOR=1
##FIRSTX=15
##LASTX=438
##FIRSTY=10
##MAXX=438
##MINX=15
##MAXY=9999
##MINY=10
##NPOINTS=148
##PEAK TABLE=(XY..XY)
15,10 29,20 31,10 39,10
41,10 42,10 43,110 44,130
45,881 46,60 47,70 53,20
55,50 56,10 57,40 58,60
59,210 60,20 61,40 66,10
67,10 68,20 69,50 70,20
71,30 72,190 73,9999 74,851
75,591 76,30 77,20 83,10
85,30 86,10 87,30 88,10
89,10 96,10 99,60 100,10
101,50 102,290 103,150 104,30
105,30 113,20 115,80 116,30
117,160 118,20 119,70 120,10
121,10 127,10 129,20 130,110
131,310 132,50 133,641 134,90
135,60 136,10 141,10 142,10
143,520 144,60 145,40 147,4474
148,721 149,450 150,50 151,20
157,20 159,20 161,30 162,10
163,50 164,10 165,10 171,150
172,20 173,30 175,260 176,30
177,50 187,10 189,931 190,200
191,270 192,40 193,20 201,10
204,90 205,50 206,20 207,100
208,20 209,10 215,10 216,10
217,250 218,60 219,1091 220,210
221,440 222,90 223,50 224,10
231,50 232,20 233,10 245,10
259,10 263,80 264,20 265,10
277,180 278,50 279,60 280,20
292,1992 293,561 294,280 295,60
296,10 305,380 306,110 307,50
308,10 321,80 322,30 323,10
333,170 334,50 335,30 336,10
351,30 352,10 367,30 368,20
369,10 379,10 395,10 423,270
424,100 425,60 426,20 438,10
##END=
