##TITLE=1-Pentacosanol, TMS derivative
##JCAMP-DX=4.24
##DATA TYPE=MASS SPECTRUM
##ORIGIN=NIST Mass Spectrometry Data Center
##OWNER=NIST Mass Spectrometry Data Center
Collection (C) 2014 copyright by the U.S. Secretary of Commerce
on behalf of the United States of America. All rights reserved.
##$NIST MASS SPEC NO=352213
##MOLFORM=C28 H60 O Si
##MW=440
##$NIST SOURCE=MSDC
##XUNITS=M/Z
##YUNITS=RELATIVE INTENSITY
##XFACTOR=1
##YFACTOR=1
##FIRSTX=27
##LASTX=440
##FIRSTY=70
##MAXX=440
##MINX=27
##MAXY=9999
##MINY=10
##NPOINTS=179
##PEAK TABLE=(XY..XY)
27,70 29,270 30,10 39,90
40,20 41,1161 42,280 43,2853
44,120 45,180 46,10 47,90
53,70 54,200 55,2102 56,530
57,3463 58,250 59,340 60,50
61,651 62,40 63,20 65,10
66,20 67,400 68,270 69,1511
70,310 71,1491 72,170 73,2492
74,260 75,5335 76,400 77,400
78,20 79,60 80,30 81,380
82,350 83,1772 84,220 85,1001
86,70 87,140 88,90 89,1081
90,120 91,1031 92,100 93,70
94,10 95,320 96,200 97,1802
98,190 99,440 100,60 101,561
102,80 103,2532 104,240 105,100
106,10 107,20 108,10 109,150
110,80 111,891 112,110 113,260
114,40 115,400 116,60 117,50
118,20 121,20 122,10 123,70
124,40 125,350 126,60 127,130
128,20 129,310 130,40 131,50
132,10 135,10 137,30 138,20
139,110 140,30 141,60 142,10
143,90 144,10 145,30 149,10
151,10 152,20 153,60 154,20
155,30 156,10 157,50 158,10
159,10 165,10 166,10 167,30
168,10 169,20 171,50 172,10
173,10 179,10 180,10 181,20
182,10 183,10 185,40 186,10
194,10 195,10 196,10 197,10
199,40 200,10 209,10 211,10
213,30 214,10 223,10 227,30
228,10 237,10 241,30 242,10
251,10 255,40 256,10 269,50
270,10 271,10 283,50 284,10
285,10 297,60 298,10 299,10
311,60 312,20 313,10 322,10
325,60 326,20 327,10 339,50
340,10 341,10 350,20 351,10
353,30 354,10 367,10 369,10
409,150 410,50 411,20 423,20
425,9999 426,3533 427,951 428,170
429,20 439,10 440,10
##END=
