##TITLE=Isovanillin, TMS derivative
##JCAMP-DX=4.24
##DATA TYPE=MASS SPECTRUM
##ORIGIN=NIST Mass Spectrometry Data Center
##OWNER=NIST Mass Spectrometry Data Center
Collection (C) 2014 copyright by the U.S. Secretary of Commerce
on behalf of the United States of America. All rights reserved.
##$NIST MASS SPEC NO=352851
##MOLFORM=C11 H16 O3 Si
##MW=224
##$NIST SOURCE=MSDC
##XUNITS=M/Z
##YUNITS=RELATIVE INTENSITY
##XFACTOR=1
##YFACTOR=1
##FIRSTX=15
##LASTX=227
##FIRSTY=50
##MAXX=227
##MINX=15
##MAXY=9999
##MINY=10
##NPOINTS=135
##PEAK TABLE=(XY..XY)
15,50 26,10 27,20 28,20
29,140 30,10 31,20 37,10
38,20 39,60 41,40 42,30
43,270 44,100 45,651 46,40
47,60 49,10 50,80 51,220
52,100 53,130 54,30 55,90
56,10 57,60 58,110 59,641
60,60 61,80 62,60 63,210
64,70 65,150 66,40 67,70
68,20 69,80 70,30 71,40
72,60 73,1812 74,210 75,310
76,100 77,270 78,80 79,230
80,80 81,50 82,30 83,280
84,30 85,60 86,10 87,10
88,20 89,460 90,70 91,310
92,90 93,100 94,20 95,190
96,30 97,20 98,10 99,20
101,10 102,10 103,40 104,510
105,200 106,40 107,260 108,70
109,160 110,30 111,30 117,10
118,10 119,140 120,40 121,220
122,50 123,110 124,10 125,10
131,10 133,40 134,40 135,480
136,480 137,981 138,140 139,40
147,50 148,40 149,320 150,130
151,500 152,70 153,30 161,50
163,961 164,430 165,1001 166,410
167,80 168,20 175,20 176,10
177,60 178,20 179,701 180,170
181,70 182,10 189,10 191,10
193,5205 194,9999 195,1812 196,540
197,50 205,10 207,110 209,3803
210,631 211,200 212,20 224,2422
225,430 226,130 227,10
##END=
