##TITLE=3-Methyl-1-butanol, pentafluoropropionate
##JCAMP-DX=4.24
##DATA TYPE=MASS SPECTRUM
##ORIGIN=NIST Mass Spectrometry Data Center
##OWNER=NIST Mass Spectrometry Data Center
Collection (C) 2014 copyright by the U.S. Secretary of Commerce
on behalf of the United States of America. All rights reserved.
##$NIST MASS SPEC NO=352324
##MOLFORM=C8 H11 F5 O2
##MW=234
##$NIST SOURCE=MSDC
##XUNITS=M/Z
##YUNITS=RELATIVE INTENSITY
##XFACTOR=1
##YFACTOR=1
##FIRSTX=14
##LASTX=219
##FIRSTY=10
##MAXX=219
##MINX=14
##MAXY=9999
##MINY=10
##NPOINTS=75
##PEAK TABLE=(XY..XY)
14,10 15,140 16,10 18,10
20,10 26,130 27,1982 28,1491
29,1892 30,60 31,280 32,10
33,60 37,30 38,100 39,1812
40,290 41,4794 42,2542 43,9999
44,420 45,150 47,100 50,230
51,140 52,40 53,400 54,370
55,7857 56,450 57,320 58,20
59,20 61,10 62,10 63,10
65,20 66,10 67,110 68,70
69,2492 70,4614 71,2502 72,130
73,10 77,10 78,80 80,10
81,60 85,10 87,10 93,20
97,70 99,40 100,601 101,20
109,40 115,30 117,20 119,4864
120,100 128,70 145,20 147,420
148,10 149,90 163,40 165,80
177,10 191,450 192,631 193,70
194,10 205,10 219,10
##END=
