##TITLE=1,1,3,3-Tetramethyl-1,3-bis[(2Z)-pent-2-en-1-yloxy]disiloxane
##JCAMP-DX=4.24
##DATA TYPE=MASS SPECTRUM
##ORIGIN=NIST Mass Spectrometry Data Center
##OWNER=NIST Mass Spectrometry Data Center
Collection (C) 2014 copyright by the U.S. Secretary of Commerce
on behalf of the United States of America. All rights reserved.
##$NIST MASS SPEC NO=352707
##MOLFORM=C14 H30 O3 Si2
##MW=302
##$NIST SOURCE=MSDC
##XUNITS=M/Z
##YUNITS=RELATIVE INTENSITY
##XFACTOR=1
##YFACTOR=1
##FIRSTX=15
##LASTX=273
##FIRSTY=10
##MAXX=273
##MINX=15
##MAXY=9999
##MINY=10
##NPOINTS=153
##PEAK TABLE=(XY..XY)
15,10 26,10 27,110 28,30
29,140 31,10 38,10 39,240
40,70 41,2833 42,180 43,80
44,10 45,60 47,30 50,10
51,30 52,40 53,240 54,90
55,180 56,10 57,30 58,10
59,90 60,10 61,100 62,10
63,20 65,60 66,240 67,581
68,1071 69,3843 70,230 71,30
72,20 73,250 74,40 75,280
76,30 77,50 78,10 79,30
80,10 81,80 82,10 83,20
84,10 85,30 86,20 87,40
88,20 89,80 90,10 91,20
93,30 94,711 95,180 96,10
97,10 99,10 101,120 102,30
103,140 104,40 105,100 106,20
107,70 108,40 109,10 111,20
113,20 114,10 115,250 116,50
117,170 118,40 119,380 120,60
121,80 122,320 125,20 129,40
131,50 132,30 133,2913 134,410
135,651 136,80 137,90 138,10
141,10 143,20 144,10 145,40
146,10 147,70 149,9999 150,1501
151,3113 152,380 153,210 154,20
155,10 157,30 158,10 159,40
160,10 161,20 162,10 163,50
164,10 165,20 167,40 168,10
169,10 171,10 172,10 173,50
174,10 175,70 176,10 177,220
178,40 179,20 185,20 186,10
187,170 188,40 189,90 190,30
191,10 199,20 201,40 202,10
203,20 204,10 205,40 206,10
207,10 215,40 216,100 217,220
218,50 219,310 220,70 221,30
233,721 234,160 235,70 236,10
273,10
##END=
