##TITLE=2-(Acetyloxy)-3-methoxybenzoic acid
##JCAMP-DX=4.24
##DATA TYPE=MASS SPECTRUM
##ORIGIN=NIST Mass Spectrometry Data Center
##OWNER=NIST Mass Spectrometry Data Center
Collection (C) 2014 copyright by the U.S. Secretary of Commerce
on behalf of the United States of America. All rights reserved.
##$NIST MASS SPEC NO=352874
##MOLFORM=C10 H10 O5
##MW=210
##$NIST SOURCE=MSDC
##XUNITS=M/Z
##YUNITS=RELATIVE INTENSITY
##XFACTOR=1
##YFACTOR=1
##FIRSTX=14
##LASTX=211
##FIRSTY=480
##MAXX=211
##MINX=14
##MAXY=9999
##MINY=10
##NPOINTS=89
##PEAK TABLE=(XY..XY)
14,480 15,611 24,30 25,70
26,80 28,550 29,240 31,90
37,50 38,80 39,220 40,120
41,410 42,1551 43,9799 44,370
45,821 50,480 51,1161 52,581
53,400 54,100 55,330 56,20
60,510 61,60 62,180 63,350
64,140 65,611 66,180 67,170
68,110 69,50 74,60 75,50
76,150 77,280 78,110 79,701
80,280 83,20 91,90 92,711
93,330 94,130 95,90 96,80
104,100 105,130 106,80 107,1651
108,981 109,140 110,30 111,50
119,180 120,1331 121,2362 122,7707
123,561 124,210 125,20 133,50
134,50 135,40 136,200 137,170
139,260 146,10 147,40 149,761
150,9999 151,4884 152,561 153,50
165,70 166,20 167,50 168,3263
169,320 170,20 179,20 192,80
193,811 194,120 195,20 210,530
211,50
##END=
