##TITLE=2'-Hydroxy-6'-methoxyacetophenone, acetate
##JCAMP-DX=4.24
##DATA TYPE=MASS SPECTRUM
##ORIGIN=NIST Mass Spectrometry Data Center
##OWNER=NIST Mass Spectrometry Data Center
Collection (C) 2014 copyright by the U.S. Secretary of Commerce
on behalf of the United States of America. All rights reserved.
##$NIST MASS SPEC NO=352925
##MOLFORM=C11 H12 O4
##MW=208
##$NIST SOURCE=MSDC
##XUNITS=M/Z
##YUNITS=RELATIVE INTENSITY
##XFACTOR=1
##YFACTOR=1
##FIRSTX=14
##LASTX=209
##FIRSTY=30
##MAXX=209
##MINX=14
##MAXY=9999
##MINY=10
##NPOINTS=95
##PEAK TABLE=(XY..XY)
14,30 15,190 26,20 27,50
28,50 29,40 31,10 37,40
38,80 39,380 40,40 41,80
42,130 43,2742 44,60 45,20
49,10 50,170 51,390 52,210
53,210 54,20 55,120 56,10
59,20 60,10 61,30 62,110
63,300 64,130 65,380 66,140
67,80 68,20 69,60 73,10
74,40 75,40 76,90 77,380
78,100 79,240 80,120 81,70
82,10 83,10 85,10 86,10
89,30 90,20 91,230 92,130
93,200 94,90 95,90 96,10
103,10 104,10 105,190 106,40
107,851 108,510 109,90 110,10
118,20 119,90 120,90 121,190
122,190 123,110 124,20 130,10
131,40 132,10 133,60 134,20
135,30 136,561 137,100 138,10
147,571 148,1041 149,140 150,130
151,9999 152,881 153,90 154,10
166,3753 167,370 168,40 177,10
193,10 208,260 209,30
##END=
