##TITLE=(.+/-.)-Lavandulol, methyl ether
##JCAMP-DX=4.24
##DATA TYPE=MASS SPECTRUM
##ORIGIN=NIST Mass Spectrometry Data Center
##OWNER=NIST Mass Spectrometry Data Center
Collection (C) 2014 copyright by the U.S. Secretary of Commerce
on behalf of the United States of America. All rights reserved.
##$NIST MASS SPEC NO=352627
##MOLFORM=C11 H20 O
##MW=168
##$NIST SOURCE=MSDC
##XUNITS=M/Z
##YUNITS=RELATIVE INTENSITY
##XFACTOR=1
##YFACTOR=1
##FIRSTX=15
##LASTX=168
##FIRSTY=100
##MAXX=168
##MINX=15
##MAXY=9999
##MINY=10
##NPOINTS=97
##PEAK TABLE=(XY..XY)
15,100 26,20 27,550 28,90
29,691 30,30 31,50 33,90
37,20 38,70 39,1772 40,390
41,6336 42,370 43,1001 45,3263
46,70 47,10 50,120 51,410
52,220 53,1762 54,200 55,1281
56,150 57,480 58,120 59,420
60,10 61,10 62,30 63,110
64,30 65,741 66,240 67,3733
68,3623 69,9999 70,621 71,390
72,40 73,80 74,10 75,10
77,1111 78,210 79,1772 80,1181
81,2522 82,310 83,761 84,90
85,2422 86,260 87,100 88,10
89,20 91,1541 92,1541 93,6526
94,891 95,791 96,100 97,300
98,561 99,1351 100,160 101,10
102,10 103,80 104,20 105,671
106,150 107,1231 108,340 109,180
110,40 111,350 112,150 113,40
115,20 117,20 119,130 121,2943
122,571 123,3273 124,450 125,2252
126,200 127,10 136,1722 137,200
138,10 139,10 153,290 154,30
168,10
##END=
