##TITLE=3,5-Dimethoxycinnamic acid, TBDMS derivative
##JCAMP-DX=4.24
##DATA TYPE=MASS SPECTRUM
##ORIGIN=NIST Mass Spectrometry Data Center
##OWNER=NIST Mass Spectrometry Data Center
Collection (C) 2014 copyright by the U.S. Secretary of Commerce
on behalf of the United States of America. All rights reserved.
##$NIST MASS SPEC NO=352436
##MOLFORM=C17 H26 O4 Si
##MW=322
##$NIST SOURCE=MSDC
##XUNITS=M/Z
##YUNITS=RELATIVE INTENSITY
##XFACTOR=1
##YFACTOR=1
##FIRSTX=15
##LASTX=323
##FIRSTY=20
##MAXX=323
##MINX=15
##MAXY=9999
##MINY=10
##NPOINTS=170
##PEAK TABLE=(XY..XY)
15,20 27,30 28,10 29,160
30,10 31,10 38,10 39,110
40,20 41,330 42,20 43,70
44,10 45,160 46,10 47,160
48,10 49,10 50,40 51,150
52,30 53,60 54,10 55,60
56,60 57,380 58,60 59,220
60,40 61,80 62,50 63,160
64,50 65,80 66,40 67,10
68,10 69,80 70,10 71,10
73,430 74,90 75,2732 76,310
77,510 78,80 79,140 80,20
81,10 82,10 83,20 85,20
86,10 87,30 88,60 89,440
90,290 91,490 92,130 93,20
94,30 95,40 97,10 98,10
99,90 100,20 101,50 102,250
103,250 104,70 105,310 106,50
107,70 108,10 109,20 110,10
111,10 113,10 115,50 116,70
117,380 118,320 119,370 120,350
121,70 122,110 123,10 125,10
128,10 129,20 130,50 131,110
133,871 134,100 135,70 136,10
137,20 138,10 139,10 143,10
144,30 145,80 146,40 147,130
148,2162 149,230 150,30 151,10
152,10 153,10 158,10 159,60
160,80 161,180 162,90 163,430
164,90 165,40 166,10 173,20
174,20 175,220 176,160 177,60
178,30 179,40 180,10 181,20
187,10 188,10 189,130 190,50
191,4254 192,561 193,70 194,10
195,20 196,10 203,20 204,10
205,540 206,130 207,120 208,40
209,10 218,10 219,40 221,2192
222,450 223,130 224,20 233,30
234,50 235,40 236,10 249,10
250,30 251,10 263,60 265,9999
266,2012 267,611 268,80 269,10
307,240 308,50 309,20 321,10
322,30 323,10
##END=
