##TITLE=2-Amino-4,6-dihydroxypyrimidine, 3TMS derivative
##JCAMP-DX=4.24
##DATA TYPE=MASS SPECTRUM
##ORIGIN=NIST Mass Spectrometry Data Center
##OWNER=NIST Mass Spectrometry Data Center
Collection (C) 2014 copyright by the U.S. Secretary of Commerce
on behalf of the United States of America. All rights reserved.
##$NIST MASS SPEC NO=352449
##MOLFORM=C13 H29 N3 O2 Si3
##MW=343
##$NIST SOURCE=MSDC
##XUNITS=M/Z
##YUNITS=RELATIVE INTENSITY
##XFACTOR=1
##YFACTOR=1
##FIRSTX=15
##LASTX=347
##FIRSTY=10
##MAXX=347
##MINX=15
##MAXY=9999
##MINY=10
##NPOINTS=183
##PEAK TABLE=(XY..XY)
15,10 29,10 31,10 42,10
43,100 44,80 45,510 46,40
47,40 53,10 54,10 55,20
56,10 57,30 58,60 59,110
60,20 61,30 64,10 66,20
67,10 68,40 69,90 70,40
71,80 72,130 73,2803 74,290
75,380 76,30 77,10 78,10
82,10 83,20 84,40 85,100
86,60 87,30 88,10 89,10
97,10 98,50 99,931 100,270
101,70 102,30 103,30 104,10
105,20 110,10 111,30 112,30
113,90 114,50 115,100 116,80
117,130 118,30 119,30 120,10
123,10 124,30 125,10 126,40
127,20 128,40 129,40 130,370
131,360 132,200 133,140 134,30
135,10 139,30 140,40 141,60
142,991 143,150 144,70 145,20
146,60 147,871 148,150 149,80
150,10 152,10 154,20 155,100
156,410 157,350 158,120 159,60
160,20 161,10 166,20 167,10
168,10 169,10 171,2472 172,510
173,410 174,70 175,30 180,20
181,10 182,10 183,20 184,40
185,30 186,30 187,100 188,50
189,20 190,10 196,20 197,70
198,190 199,40 200,20 201,10
204,40 205,10 206,10 210,20
211,20 212,50 213,30 214,240
215,60 216,20 224,10 225,10
226,10 227,10 228,10 229,40
230,30 231,20 232,10 238,80
239,40 240,561 241,120 242,120
243,30 244,20 245,80 246,20
247,10 252,20 253,30 254,100
255,30 256,30 257,10 268,20
269,290 270,120 271,40 272,10
286,10 298,30 299,10 300,10
310,10 312,190 313,60 314,30
315,10 326,160 328,9999 329,3733
330,1852 331,380 332,90 333,10
340,20 342,2002 343,3773 344,1301
345,550 346,120 347,30
##END=
