##TITLE=2-Octanol, pentafluoropropionate
##JCAMP-DX=4.24
##DATA TYPE=MASS SPECTRUM
##ORIGIN=NIST Mass Spectrometry Data Center
##OWNER=NIST Mass Spectrometry Data Center
Collection (C) 2014 copyright by the U.S. Secretary of Commerce
on behalf of the United States of America. All rights reserved.
##$NIST MASS SPEC NO=352372
##MOLFORM=C11 H17 F5 O2
##MW=276
##$NIST SOURCE=MSDC
##XUNITS=M/Z
##YUNITS=RELATIVE INTENSITY
##XFACTOR=1
##YFACTOR=1
##FIRSTX=15
##LASTX=219
##FIRSTY=60
##MAXX=219
##MINX=15
##MAXY=9999
##MINY=10
##NPOINTS=90
##PEAK TABLE=(XY..XY)
15,60 20,10 26,80 27,1311
28,440 29,2232 30,50 31,100
33,10 37,10 38,40 39,1331
40,330 41,5675 42,2762 43,5545
44,290 45,170 46,10 47,440
48,10 50,100 51,110 52,40
53,440 54,430 55,7327 56,5695
57,5435 58,280 59,40 61,20
62,10 63,10 65,80 66,30
67,671 68,791 69,5245 70,9999
71,4484 72,230 73,10 77,60
78,60 79,90 80,10 81,210
82,1381 83,6316 84,3994 85,360
86,20 91,10 93,70 94,10
95,40 96,20 97,1161 98,90
99,10 100,370 101,20 109,50
110,10 111,60 112,2342 113,490
114,30 117,20 119,6426 120,130
128,110 129,10 144,20 145,10
147,1251 148,40 149,30 157,30
163,1201 164,50 165,50 175,10
190,60 191,1051 192,60 193,10
203,10 219,20
##END=
