##TITLE=2,5-Dimethylbenzenethiol, TMS derivative
##JCAMP-DX=4.24
##DATA TYPE=MASS SPECTRUM
##ORIGIN=NIST Mass Spectrometry Data Center
##OWNER=NIST Mass Spectrometry Data Center
Collection (C) 2014 copyright by the U.S. Secretary of Commerce
on behalf of the United States of America. All rights reserved.
##$NIST MASS SPEC NO=353020
##MOLFORM=C11 H18 S Si
##MW=210
##$NIST SOURCE=MSDC
##XUNITS=M/Z
##YUNITS=RELATIVE INTENSITY
##XFACTOR=1
##YFACTOR=1
##FIRSTX=15
##LASTX=214
##FIRSTY=30
##MAXX=214
##MINX=15
##MAXY=9999
##MINY=10
##NPOINTS=140
##PEAK TABLE=(XY..XY)
15,30 26,10 27,170 28,50
29,130 30,10 31,60 38,20
39,300 40,30 41,100 42,50
43,480 44,240 45,1852 46,100
47,80 50,80 51,310 52,100
53,270 54,30 55,90 56,20
57,100 58,120 59,350 60,40
61,70 62,40 63,200 64,40
65,310 66,50 67,40 68,10
69,90 70,50 71,80 72,130
73,9999 74,901 75,741 76,120
77,1361 78,420 79,530 80,40
81,20 82,40 83,50 84,10
85,30 86,10 87,20 89,220
90,180 91,951 92,120 93,200
94,20 95,50 96,20 97,110
99,10 101,30 102,140 103,681
104,290 105,2292 106,220 107,50
108,20 109,40 110,10 111,10
115,130 116,30 117,120 118,40
119,410 120,50 121,240 122,80
123,20 124,10 127,10 128,10
129,20 130,20 131,80 132,20
133,70 134,120 135,270 136,80
137,330 138,60 139,20 143,30
144,10 145,220 146,40 147,70
148,10 149,70 150,30 151,150
152,20 153,20 157,10 159,140
160,30 161,100 162,20 163,130
164,120 165,510 166,80 167,50
168,10 177,40 179,2602 180,550
181,260 182,40 183,10 191,10
193,160 195,5055 196,871 197,460
198,60 199,10 208,10 210,5255
211,931 212,470 213,70 214,10
##END=
