##TITLE=2-Aminothiophenol, N,N,S-trimethyl-
##JCAMP-DX=4.24
##DATA TYPE=MASS SPECTRUM
##ORIGIN=NIST Mass Spectrometry Data Center
##OWNER=NIST Mass Spectrometry Data Center
Collection (C) 2014 copyright by the U.S. Secretary of Commerce
on behalf of the United States of America. All rights reserved.
##$NIST MASS SPEC NO=353085
##MOLFORM=C9 H13 N S
##MW=167
##$NIST SOURCE=MSDC
##XUNITS=M/Z
##YUNITS=RELATIVE INTENSITY
##XFACTOR=1
##YFACTOR=1
##FIRSTX=14
##LASTX=170
##FIRSTY=10
##MAXX=170
##MINX=14
##MAXY=9999
##MINY=10
##NPOINTS=114
##PEAK TABLE=(XY..XY)
14,10 15,250 26,10 27,50
28,40 29,10 30,50 37,20
38,60 39,250 40,40 41,90
42,530 43,70 44,520 45,420
46,100 47,120 48,40 49,20
50,240 51,460 52,140 53,50
54,30 55,20 56,10 57,30
58,80 59,30 60,20 61,50
62,100 63,370 64,160 65,671
66,160 67,50 69,490 70,130
71,70 72,20 73,30 74,180
76,330 77,1291 78,591 79,220
80,50 81,90 82,220 83,100
85,40 86,10 87,10 88,30
89,90 90,200 91,2242 92,310
93,190 94,60 95,240 96,150
97,70 98,20 99,10 100,10
102,30 103,100 104,891 105,540
106,821 107,160 108,691 109,2152
110,240 111,160 112,20 115,10
116,40 117,300 118,2612 119,480
120,1151 121,370 122,320 123,450
124,290 125,110 126,20 130,10
131,10 132,60 134,2963 135,1101
136,6586 137,5405 138,851 139,270
140,20 148,40 150,4474 151,2462
152,5985 153,671 154,300 155,20
164,10 166,881 167,9999 168,1271
169,571 170,50
##END=
