##TITLE=2,4-Dimethylbenzenethiol, S-methyl-
##JCAMP-DX=4.24
##DATA TYPE=MASS SPECTRUM
##ORIGIN=NIST Mass Spectrometry Data Center
##OWNER=NIST Mass Spectrometry Data Center
Collection (C) 2014 copyright by the U.S. Secretary of Commerce
on behalf of the United States of America. All rights reserved.
##$NIST MASS SPEC NO=353012
##MOLFORM=C9 H12 S
##MW=152
##$NIST SOURCE=MSDC
##XUNITS=M/Z
##YUNITS=RELATIVE INTENSITY
##XFACTOR=1
##YFACTOR=1
##FIRSTX=14
##LASTX=155
##FIRSTY=10
##MAXX=155
##MINX=14
##MAXY=9999
##MINY=10
##NPOINTS=105
##PEAK TABLE=(XY..XY)
14,10 15,100 26,20 27,190
28,10 29,10 37,20 38,70
39,520 40,50 41,100 45,1702
46,100 47,150 48,30 49,20
50,200 51,530 52,160 53,260
54,20 55,10 57,20 58,60
59,180 60,20 61,70 62,150
63,440 64,80 65,440 66,70
67,100 68,40 69,280 70,90
71,120 72,20 73,40 74,140
75,180 76,300 77,1511 78,661
79,480 80,30 81,30 82,70
83,50 84,40 85,40 86,40
87,40 88,10 89,200 90,80
91,2132 92,260 93,901 94,80
95,100 96,40 97,290 98,40
99,20 101,30 102,240 103,951
104,450 105,3763 106,540 107,200
108,60 109,140 110,50 111,50
112,10 115,80 116,20 117,90
118,40 119,260 120,30 121,561
122,290 123,60 124,50 125,30
128,10 133,20 134,360 135,961
136,320 137,4624 138,470 139,230
140,20 147,20 148,10 149,30
151,500 152,9999 153,1191 154,550
155,50
##END=
