##TITLE=2,6-Dimethylbenzenethiol, TMS derivative
##JCAMP-DX=4.24
##DATA TYPE=MASS SPECTRUM
##ORIGIN=NIST Mass Spectrometry Data Center
##OWNER=NIST Mass Spectrometry Data Center
Collection (C) 2014 copyright by the U.S. Secretary of Commerce
on behalf of the United States of America. All rights reserved.
##$NIST MASS SPEC NO=353025
##MOLFORM=C11 H18 S Si
##MW=210
##$NIST SOURCE=MSDC
##XUNITS=M/Z
##YUNITS=RELATIVE INTENSITY
##XFACTOR=1
##YFACTOR=1
##FIRSTX=15
##LASTX=214
##FIRSTY=20
##MAXX=214
##MINX=15
##MAXY=9999
##MINY=10
##NPOINTS=135
##PEAK TABLE=(XY..XY)
15,20 26,10 27,120 28,40
29,110 30,10 31,60 38,20
39,260 40,20 41,70 42,40
43,410 44,200 45,1611 46,90
47,70 50,60 51,240 52,80
53,190 54,20 55,80 56,20
57,90 58,100 59,350 60,30
61,50 62,40 63,170 64,40
65,270 66,40 67,30 68,10
69,80 70,50 71,70 73,9999
74,891 75,621 76,90 77,1101
78,340 79,400 80,30 81,10
82,20 83,30 84,10 85,20
86,10 87,20 89,160 90,110
91,731 92,90 93,160 94,20
95,30 96,10 97,80 99,10
101,20 102,140 103,550 104,210
105,1651 106,160 107,30 108,20
109,40 110,10 111,10 115,90
116,20 117,80 118,30 119,190
120,30 121,180 122,70 123,20
127,10 128,10 129,10 130,20
131,50 132,10 133,40 134,120
135,260 136,80 137,280 138,60
139,20 143,30 144,10 145,150
146,30 147,50 148,10 149,50
150,20 151,120 152,20 153,10
157,10 159,60 160,10 161,40
162,10 163,90 164,80 165,380
166,60 167,40 177,20 179,1732
180,350 181,170 182,30 183,10
193,80 195,3083 196,520 197,280
198,40 199,10 210,3954 211,681
212,350 213,50 214,10
##END=
