##TITLE=1,3-Benzenedithiol, S,S'-dimethyl-
##JCAMP-DX=4.24
##DATA TYPE=MASS SPECTRUM
##ORIGIN=NIST Mass Spectrometry Data Center
##OWNER=NIST Mass Spectrometry Data Center
Collection (C) 2014 copyright by the U.S. Secretary of Commerce
on behalf of the United States of America. All rights reserved.
##$NIST MASS SPEC NO=353068
##MOLFORM=C8 H10 S2
##MW=170
##$NIST SOURCE=MSDC
##XUNITS=M/Z
##YUNITS=RELATIVE INTENSITY
##XFACTOR=1
##YFACTOR=1
##FIRSTX=14
##LASTX=174
##FIRSTY=10
##MAXX=174
##MINX=14
##MAXY=9999
##MINY=10
##NPOINTS=113
##PEAK TABLE=(XY..XY)
14,10 15,100 26,10 27,20
37,30 38,90 39,240 40,10
41,10 45,1441 46,180 47,250
48,20 49,30 50,310 51,230
52,40 53,40 57,90 58,210
59,60 60,20 61,80 62,170
63,530 64,90 65,230 66,40
67,60 68,30 69,1011 70,310
71,250 72,70 73,50 74,200
75,150 76,160 77,661 78,520
79,320 80,30 81,200 82,591
83,90 84,90 85,340 86,40
87,10 88,20 89,80 90,40
91,1601 92,140 93,210 94,40
95,380 96,771 97,250 98,50
99,10 100,40 101,60 102,10
103,80 104,130 105,110 106,90
107,110 108,2052 109,1241 110,270
111,851 112,80 113,50 114,30
115,10 116,10 117,10 119,10
120,10 121,851 122,691 123,901
124,841 125,290 126,60 127,30
128,10 134,10 135,80 137,4624
138,460 139,520 140,1181 141,130
142,110 143,10 151,10 152,20
153,450 154,530 155,671 156,110
157,60 158,10 167,20 168,10
170,9999 171,1151 172,1031 173,90
174,30
##END=
