##TITLE=3-Aminothiophenol, N,N,S-trimethyl-
##JCAMP-DX=4.24
##DATA TYPE=MASS SPECTRUM
##ORIGIN=NIST Mass Spectrometry Data Center
##OWNER=NIST Mass Spectrometry Data Center
Collection (C) 2014 copyright by the U.S. Secretary of Commerce
on behalf of the United States of America. All rights reserved.
##$NIST MASS SPEC NO=353081
##MOLFORM=C9 H13 N S
##MW=167
##$NIST SOURCE=MSDC
##XUNITS=M/Z
##YUNITS=RELATIVE INTENSITY
##XFACTOR=1
##YFACTOR=1
##FIRSTX=14
##LASTX=170
##FIRSTY=10
##MAXX=170
##MINX=14
##MAXY=9999
##MINY=10
##NPOINTS=117
##PEAK TABLE=(XY..XY)
14,10 15,120 26,10 27,30
28,20 29,10 30,10 37,10
38,50 39,170 40,20 41,50
42,360 43,30 44,120 45,300
46,80 47,140 48,10 49,10
50,170 51,210 52,100 53,50
54,30 55,20 56,10 57,20
58,70 59,20 60,10 61,40
62,80 63,350 64,110 65,350
66,140 67,100 68,50 69,340
70,80 71,60 72,20 73,20
74,120 75,140 76,230 77,701
78,430 79,290 80,50 81,60
82,210 83,470 85,30 86,10
87,10 88,30 89,60 90,130
91,581 92,190 93,210 94,90
95,130 96,140 97,90 98,30
99,10 102,30 103,70 104,581
105,470 106,190 107,130 108,1421
109,701 110,180 111,200 112,20
113,10 116,20 117,260 118,1041
119,631 120,811 121,370 122,550
123,530 124,400 125,110 126,30
127,10 130,10 131,10 132,60
133,150 134,2722 135,330 136,781
137,500 138,140 139,30 140,10
148,20 149,40 150,460 151,2692
152,861 153,190 154,40 164,80
166,8167 167,9999 168,1702 169,621
170,50
##END=
