##TITLE=1,4-Benzenedithiol, S,S'-diacetyl-
##JCAMP-DX=4.24
##DATA TYPE=MASS SPECTRUM
##ORIGIN=NIST Mass Spectrometry Data Center
##OWNER=NIST Mass Spectrometry Data Center
Collection (C) 2014 copyright by the U.S. Secretary of Commerce
on behalf of the United States of America. All rights reserved.
##$NIST MASS SPEC NO=353071
##MOLFORM=C10 H10 O2 S2
##MW=226
##$NIST SOURCE=MSDC
##XUNITS=M/Z
##YUNITS=RELATIVE INTENSITY
##XFACTOR=1
##YFACTOR=1
##FIRSTX=14
##LASTX=229
##FIRSTY=60
##MAXX=229
##MINX=14
##MAXY=9999
##MINY=10
##NPOINTS=112
##PEAK TABLE=(XY..XY)
14,60 15,470 16,10 26,10
27,10 28,40 29,10 32,10
37,20 38,60 39,140 40,10
41,40 42,240 43,9999 44,240
45,360 46,10 47,20 49,10
50,80 51,90 52,30 53,90
57,80 58,110 59,90 60,20
61,40 62,110 63,330 64,160
65,130 66,30 68,20 69,831
70,370 71,290 72,30 73,20
74,50 75,30 76,30 77,170
78,971 79,70 80,10 81,100
82,270 83,50 84,50 85,10
88,60 89,20 90,20 91,40
92,10 93,80 94,30 95,390
96,701 97,771 98,110 99,40
100,30 101,40 102,10 103,10
105,30 106,50 107,40 108,891
109,370 110,120 111,30 112,20
113,10 114,190 115,20 116,30
121,30 122,10 123,20 124,10
125,10 126,20 127,10 134,10
136,10 139,80 140,440 141,1762
142,9709 143,1001 144,961 145,70
146,30 150,10 151,10 153,20
155,100 156,40 157,10 184,6085
185,661 186,611 187,60 188,20
226,1021 227,130 228,100 229,10
##END=
