##TITLE=4-Methylbenzenethiol, TMS derivative
##JCAMP-DX=4.24
##DATA TYPE=MASS SPECTRUM
##ORIGIN=NIST Mass Spectrometry Data Center
##OWNER=NIST Mass Spectrometry Data Center
Collection (C) 2014 copyright by the U.S. Secretary of Commerce
on behalf of the United States of America. All rights reserved.
##$NIST MASS SPEC NO=353089
##MOLFORM=C10 H16 S Si
##MW=196
##$NIST SOURCE=MSDC
##XUNITS=M/Z
##YUNITS=RELATIVE INTENSITY
##XFACTOR=1
##YFACTOR=1
##FIRSTX=15
##LASTX=200
##FIRSTY=30
##MAXX=200
##MINX=15
##MAXY=9999
##MINY=10
##NPOINTS=134
##PEAK TABLE=(XY..XY)
15,30 26,10 27,90 28,50
29,150 30,10 31,50 37,10
38,40 39,430 40,30 41,110
42,70 43,641 44,280 45,1812
46,100 47,70 50,90 51,250
52,70 53,200 54,30 55,110
56,20 57,120 58,150 59,240
60,40 61,90 62,90 63,340
64,80 65,901 66,80 67,40
68,10 69,180 70,80 71,110
72,150 73,9999 74,931 75,941
76,100 77,851 78,230 79,550
80,40 81,30 82,60 83,60
84,20 85,20 86,20 87,30
88,10 89,370 90,290 91,2392
92,220 93,150 94,20 95,80
96,20 97,90 98,10 99,10
101,10 102,20 103,210 104,80
105,731 106,80 107,40 108,110
109,30 110,10 111,10 115,30
116,10 117,50 118,20 119,200
120,30 121,350 122,80 123,571
124,80 125,40 126,10 130,10
131,70 132,20 133,40 134,20
135,70 136,20 137,130 138,20
139,20 143,20 144,10 145,170
146,30 147,170 148,30 149,200
150,90 151,510 152,80 153,60
154,10 163,50 164,70 165,3393
166,561 167,320 168,40 169,10
177,10 178,10 179,170 181,5785
182,941 183,530 184,60 185,10
194,10 196,5805 197,1011 198,540
199,70 200,10
##END=
