##TITLE=3-Methylbenzenethiol, TMS derivative
##JCAMP-DX=4.24
##DATA TYPE=MASS SPECTRUM
##ORIGIN=NIST Mass Spectrometry Data Center
##OWNER=NIST Mass Spectrometry Data Center
Collection (C) 2014 copyright by the U.S. Secretary of Commerce
on behalf of the United States of America. All rights reserved.
##$NIST MASS SPEC NO=353006
##MOLFORM=C10 H16 S Si
##MW=196
##$NIST SOURCE=MSDC
##XUNITS=M/Z
##YUNITS=RELATIVE INTENSITY
##XFACTOR=1
##YFACTOR=1
##FIRSTX=15
##LASTX=200
##FIRSTY=40
##MAXX=200
##MINX=15
##MAXY=9999
##MINY=10
##NPOINTS=135
##PEAK TABLE=(XY..XY)
15,40 26,10 27,100 28,60
29,160 30,10 31,60 37,10
38,50 39,550 40,40 41,130
42,80 43,701 44,300 45,1912
46,110 47,80 50,90 51,270
52,80 53,210 54,30 55,120
56,20 57,130 58,170 59,300
60,50 61,110 62,90 63,410
64,90 65,1101 66,90 67,50
68,10 69,170 70,70 71,110
72,170 73,9999 74,911 75,1031
76,120 77,921 78,250 79,540
80,40 81,40 82,70 83,80
84,30 85,30 86,20 87,30
88,10 89,430 90,330 91,2752
92,250 93,170 94,20 95,70
96,20 97,100 98,10 99,10
101,20 102,30 103,260 104,90
105,891 106,90 107,50 108,120
109,30 110,10 111,10 115,40
116,10 117,60 118,20 119,210
120,30 121,360 122,80 123,540
124,90 125,40 126,10 127,10
130,20 131,100 132,30 133,50
134,20 135,80 136,20 137,170
138,20 139,30 143,20 144,10
145,210 146,40 147,200 148,30
149,200 150,100 151,540 152,80
153,60 154,10 159,10 163,50
165,4134 166,691 167,390 168,50
169,10 177,10 178,10 179,200
181,7327 182,1191 183,671 184,80
185,20 194,10 196,6246 197,1101
198,581 199,70 200,20
##END=
