##TITLE=2-Aminothiophenol, N,S-diacetyl-
##JCAMP-DX=4.24
##DATA TYPE=MASS SPECTRUM
##ORIGIN=NIST Mass Spectrometry Data Center
##OWNER=NIST Mass Spectrometry Data Center
Collection (C) 2014 copyright by the U.S. Secretary of Commerce
on behalf of the United States of America. All rights reserved.
##$NIST MASS SPEC NO=353082
##MOLFORM=C10 H11 N O2 S
##MW=209
##$NIST SOURCE=MSDC
##XUNITS=M/Z
##YUNITS=RELATIVE INTENSITY
##XFACTOR=1
##YFACTOR=1
##FIRSTX=14
##LASTX=211
##FIRSTY=40
##MAXX=211
##MINX=14
##MAXY=9999
##MINY=10
##NPOINTS=112
##PEAK TABLE=(XY..XY)
14,40 15,320 16,10 26,20
27,40 28,70 29,20 37,30
38,70 39,220 40,30 41,50
42,180 43,4554 44,110 45,310
46,10 47,20 49,10 50,80
51,150 52,180 53,260 54,50
57,30 58,70 59,30 60,40
61,30 62,60 63,240 64,130
65,200 66,50 67,40 68,10
69,360 70,240 71,90 72,20
73,10 74,30 75,30 76,40
77,60 78,110 79,40 80,1521
81,330 82,120 83,20 84,30
85,10 87,10 88,10 89,10
90,80 91,140 92,80 93,450
94,80 95,200 96,460 97,530
98,180 99,60 100,10 103,10
104,50 105,20 106,30 107,20
108,200 109,130 110,30 111,10
116,10 117,40 118,10 119,10
120,10 121,40 122,140 123,100
124,2292 125,9999 126,931 127,510
128,30 132,10 133,30 134,300
135,30 136,40 137,10 138,40
139,10 148,160 149,4794 150,1021
151,300 152,140 153,10 154,10
166,70 167,1411 168,150 169,70
170,10 209,120 210,20 211,10
##END=
