##TITLE=1,4-Benzenedimethanethiol, 2TMS derivative
##JCAMP-DX=4.24
##DATA TYPE=MASS SPECTRUM
##ORIGIN=NIST Mass Spectrometry Data Center
##OWNER=NIST Mass Spectrometry Data Center
Collection (C) 2014 copyright by the U.S. Secretary of Commerce
on behalf of the United States of America. All rights reserved.
##$NIST MASS SPEC NO=353038
##MOLFORM=C14 H26 S2 Si2
##MW=314
##$NIST SOURCE=MSDC
##XUNITS=M/Z
##YUNITS=RELATIVE INTENSITY
##XFACTOR=1
##YFACTOR=1
##FIRSTX=14
##LASTX=319
##FIRSTY=10
##MAXX=319
##MINX=14
##MAXY=9999
##MINY=10
##NPOINTS=144
##PEAK TABLE=(XY..XY)
14,10 15,30 26,10 27,40
28,40 29,90 30,10 31,50
32,10 38,10 39,90 40,10
41,20 42,30 43,350 44,130
45,1021 46,70 47,50 50,40
51,120 52,80 53,50 54,10
55,40 56,10 57,50 58,110
59,410 60,50 61,90 62,20
63,100 64,20 65,130 66,10
67,10 69,20 70,20 71,30
73,9999 74,861 75,921 76,130
77,621 78,941 79,100 83,10
84,10 85,10 87,10 89,160
90,290 91,1371 92,150 93,120
94,10 95,40 97,20 101,20
102,160 103,1221 104,3513 105,781
106,80 107,40 108,20 109,10
110,10 115,70 116,20 117,80
118,30 119,170 120,20 121,80
122,130 123,30 124,20 129,10
131,20 132,10 133,20 134,120
135,1231 136,480 137,160 138,30
139,10 142,30 143,20 144,10
145,30 146,10 147,50 148,10
149,30 150,10 151,20 152,10
157,10 159,30 160,10 161,10
162,10 163,110 164,20 165,60
166,10 167,10 177,240 178,80
179,60 180,10 181,10 191,10
192,10 193,771 194,140 195,240
196,40 197,30 198,10 207,10
209,8758 210,1932 211,841 212,160
213,30 214,10 223,10 224,10
225,10 241,20 242,10 253,10
299,30 300,10 314,1862 315,510
316,360 317,80 318,30 319,10
##END=
