##TITLE=2,4-Dimethylbenzenethiol, S-acetyl-
##JCAMP-DX=4.24
##DATA TYPE=MASS SPECTRUM
##ORIGIN=NIST Mass Spectrometry Data Center
##OWNER=NIST Mass Spectrometry Data Center
Collection (C) 2014 copyright by the U.S. Secretary of Commerce
on behalf of the United States of America. All rights reserved.
##$NIST MASS SPEC NO=353011
##MOLFORM=C10 H12 O S
##MW=180
##$NIST SOURCE=MSDC
##XUNITS=M/Z
##YUNITS=RELATIVE INTENSITY
##XFACTOR=1
##YFACTOR=1
##FIRSTX=14
##LASTX=183
##FIRSTY=30
##MAXX=183
##MINX=14
##MAXY=9999
##MINY=10
##NPOINTS=102
##PEAK TABLE=(XY..XY)
14,30 15,190 26,10 27,110
28,20 29,10 37,10 38,40
39,350 40,30 41,100 42,100
43,2843 44,70 45,901 46,20
47,50 49,10 50,110 51,340
52,100 53,220 54,20 55,10
57,20 58,60 59,150 60,10
61,30 62,80 63,250 64,50
65,410 66,60 67,30 69,260
70,80 71,120 72,10 73,10
74,60 75,70 76,70 77,1141
78,470 79,290 80,20 81,30
82,60 83,40 84,30 85,30
86,20 87,20 88,10 89,120
90,50 91,1181 92,140 93,330
94,60 95,90 96,30 97,250
98,60 99,20 101,20 102,150
103,530 104,290 105,5935 106,571
107,40 108,30 109,80 110,40
111,30 112,10 115,10 117,10
119,10 121,490 122,200 123,300
124,30 125,10 133,20 134,210
135,390 136,110 137,1101 138,9999
139,1161 140,561 141,50 147,10
149,10 151,10 180,1181 181,140
182,60 183,10
##END=
