##TITLE=2,5-Dimethylbenzenethiol, S-acetyl-
##JCAMP-DX=4.24
##DATA TYPE=MASS SPECTRUM
##ORIGIN=NIST Mass Spectrometry Data Center
##OWNER=NIST Mass Spectrometry Data Center
Collection (C) 2014 copyright by the U.S. Secretary of Commerce
on behalf of the United States of America. All rights reserved.
##$NIST MASS SPEC NO=353016
##MOLFORM=C10 H12 O S
##MW=180
##$NIST SOURCE=MSDC
##XUNITS=M/Z
##YUNITS=RELATIVE INTENSITY
##XFACTOR=1
##YFACTOR=1
##FIRSTX=14
##LASTX=183
##FIRSTY=30
##MAXX=183
##MINX=14
##MAXY=9999
##MINY=10
##NPOINTS=103
##PEAK TABLE=(XY..XY)
14,30 15,190 26,10 27,120
28,20 29,10 37,10 38,40
39,360 40,30 41,90 42,100
43,3393 44,80 45,871 46,20
47,60 49,10 50,140 51,410
52,120 53,240 54,10 55,10
57,20 58,60 59,150 60,20
61,30 62,70 63,240 64,40
65,400 66,50 67,30 69,200
70,60 71,100 72,10 73,10
74,60 75,70 76,70 77,1201
78,540 79,290 80,20 81,40
82,70 83,60 84,20 85,40
86,20 87,20 88,10 89,120
90,50 91,1191 92,170 93,330
94,50 95,60 96,30 97,240
98,60 99,20 101,20 102,150
103,601 104,510 105,5625 106,530
107,40 108,30 109,80 110,30
111,30 112,10 115,10 117,10
119,10 121,520 122,210 123,280
124,30 125,10 133,10 134,210
135,350 136,80 137,931 138,9999
139,1121 140,550 141,40 147,10
149,10 151,10 152,10 180,1481
181,180 182,80 183,10
##END=
