##TITLE=4-(Methylmercapto)phenol, acetate
##JCAMP-DX=4.24
##DATA TYPE=MASS SPECTRUM
##ORIGIN=NIST Mass Spectrometry Data Center
##OWNER=NIST Mass Spectrometry Data Center
Collection (C) 2014 copyright by the U.S. Secretary of Commerce
on behalf of the United States of America. All rights reserved.
##$NIST MASS SPEC NO=353052
##MOLFORM=C9 H10 O2 S
##MW=182
##$NIST SOURCE=MSDC
##XUNITS=M/Z
##YUNITS=RELATIVE INTENSITY
##XFACTOR=1
##YFACTOR=1
##FIRSTX=14
##LASTX=185
##FIRSTY=50
##MAXX=185
##MINX=14
##MAXY=9999
##MINY=10
##NPOINTS=93
##PEAK TABLE=(XY..XY)
14,50 15,280 26,20 27,40
28,20 29,20 37,30 38,120
39,300 40,20 41,50 42,110
43,1491 44,40 45,530 46,50
47,60 48,10 49,10 50,110
51,120 52,50 53,210 54,10
55,30 57,20 58,50 59,30
60,10 61,60 62,150 63,430
64,130 65,310 66,80 67,180
68,30 69,450 70,470 71,120
72,40 73,20 74,50 75,30
76,20 77,300 78,140 79,70
80,10 81,270 82,70 83,10
84,30 85,130 86,10 87,10
91,10 92,40 93,80 94,190
95,240 96,440 97,420 98,130
99,20 100,10 105,10 106,10
107,160 108,90 109,50 110,30
111,230 112,20 113,10 121,20
122,10 123,40 124,80 125,5895
126,460 127,290 128,20 137,30
139,480 140,9999 141,921 142,500
143,40 182,1411 183,150 184,80
185,10
##END=
