##TITLE=2-Isopropylbenzenethiol, S-methyl-
##JCAMP-DX=4.24
##DATA TYPE=MASS SPECTRUM
##ORIGIN=NIST Mass Spectrometry Data Center
##OWNER=NIST Mass Spectrometry Data Center
Collection (C) 2014 copyright by the U.S. Secretary of Commerce
on behalf of the United States of America. All rights reserved.
##$NIST MASS SPEC NO=353043
##MOLFORM=C10 H14 S
##MW=166
##$NIST SOURCE=MSDC
##XUNITS=M/Z
##YUNITS=RELATIVE INTENSITY
##XFACTOR=1
##YFACTOR=1
##FIRSTX=14
##LASTX=169
##FIRSTY=10
##MAXX=169
##MINX=14
##MAXY=9999
##MINY=10
##NPOINTS=117
##PEAK TABLE=(XY..XY)
14,10 15,110 26,10 27,150
28,10 29,20 37,10 38,50
39,480 40,40 41,340 42,20
43,20 45,420 46,60 47,100
48,40 49,10 50,210 51,540
52,120 53,100 54,10 55,10
57,20 58,70 59,70 60,10
61,40 62,110 63,380 64,60
65,440 66,70 67,150 69,320
70,50 71,70 72,20 73,200
74,190 75,270 76,260 77,1341
78,771 79,230 80,20 81,50
82,180 83,70 84,50 85,30
86,30 87,50 88,20 89,380
90,170 91,2392 92,220 93,90
94,20 95,50 96,20 97,50
98,20 99,10 101,60 102,400
103,1321 104,811 105,340 106,40
107,30 108,170 109,390 110,100
111,180 112,20 113,20 115,1091
116,310 117,1782 118,731 119,470
120,50 121,250 122,50 123,1161
124,180 125,110 126,10 127,10
128,20 129,10 132,10 133,70
134,1271 135,2873 136,7257 137,1031
138,410 139,50 145,10 146,10
147,200 148,40 149,941 150,370
151,9999 152,1171 153,540 154,50
165,220 166,7487 167,941 168,400
169,40
##END=
