##TITLE=2,6-Dimethylbenzenethiol, S-methyl-
##JCAMP-DX=4.24
##DATA TYPE=MASS SPECTRUM
##ORIGIN=NIST Mass Spectrometry Data Center
##OWNER=NIST Mass Spectrometry Data Center
Collection (C) 2014 copyright by the U.S. Secretary of Commerce
on behalf of the United States of America. All rights reserved.
##$NIST MASS SPEC NO=353022
##MOLFORM=C9 H12 S
##MW=152
##$NIST SOURCE=MSDC
##XUNITS=M/Z
##YUNITS=RELATIVE INTENSITY
##XFACTOR=1
##YFACTOR=1
##FIRSTX=14
##LASTX=155
##FIRSTY=10
##MAXX=155
##MINX=14
##MAXY=9999
##MINY=10
##NPOINTS=104
##PEAK TABLE=(XY..XY)
14,10 15,110 26,20 27,200
28,10 29,10 34,10 35,10
37,20 38,80 39,601 40,50
41,90 45,1862 46,100 47,160
48,40 49,20 50,220 51,621
52,200 53,270 54,30 55,10
57,10 58,70 59,240 60,20
61,80 62,160 63,490 64,90
65,510 66,80 67,130 68,60
69,280 70,90 71,120 72,20
73,50 74,170 75,190 76,330
77,1822 78,991 79,550 80,40
81,40 82,70 83,40 84,30
85,50 86,50 87,50 88,10
89,230 90,90 91,2082 92,260
93,1031 94,100 95,70 96,30
97,280 98,40 99,20 101,40
102,330 103,1381 104,581 105,2232
106,320 107,150 108,60 109,140
110,40 111,40 112,10 115,80
116,20 117,90 118,40 119,210
120,30 121,591 122,280 123,60
124,20 133,30 134,440 135,981
136,290 137,8107 138,841 139,420
140,30 147,30 148,10 149,30
152,9999 153,1161 154,550 155,50
##END=
