##TITLE=1,2-Benzenedimethanethiol, S,S'-diacetyl-
##JCAMP-DX=4.24
##DATA TYPE=MASS SPECTRUM
##ORIGIN=NIST Mass Spectrometry Data Center
##OWNER=NIST Mass Spectrometry Data Center
Collection (C) 2014 copyright by the U.S. Secretary of Commerce
on behalf of the United States of America. All rights reserved.
##$NIST MASS SPEC NO=353026
##MOLFORM=C12 H14 O2 S2
##MW=254
##$NIST SOURCE=MSDC
##XUNITS=M/Z
##YUNITS=RELATIVE INTENSITY
##XFACTOR=1
##YFACTOR=1
##FIRSTX=14
##LASTX=254
##FIRSTY=50
##MAXX=254
##MINX=14
##MAXY=9999
##MINY=10
##NPOINTS=114
##PEAK TABLE=(XY..XY)
14,50 15,360 16,10 26,10
27,40 28,40 29,10 32,20
33,10 38,30 39,220 40,20
41,40 42,130 43,6085 44,140
45,350 46,20 47,40 50,100
51,260 52,90 53,40 57,10
58,40 59,70 60,30 61,20
62,50 63,230 64,50 65,220
66,20 67,20 69,90 70,20
71,20 74,40 75,60 76,100
77,510 78,601 79,80 81,10
82,30 83,10 84,20 85,10
86,10 87,20 88,10 89,290
90,160 91,2162 92,180 93,50
94,10 95,20 96,10 97,20
98,10 101,20 102,190 103,621
104,1031 105,601 106,50 107,10
108,80 109,30 110,10 115,10
116,10 117,10 119,10 120,20
121,190 122,30 123,480 124,50
125,30 131,10 132,10 133,70
134,1491 135,9999 136,1501 137,1301
138,140 139,40 145,100 146,10
147,20 149,10 153,40 161,10
163,10 165,20 167,60 168,60
169,561 170,60 171,50 172,10
178,4334 179,520 180,230 181,20
194,10 211,50 212,10 213,10
236,10 254,20
##END=
