##TITLE=1,4-Benzenedithiol, S,S'-dimethyl-
##JCAMP-DX=4.24
##DATA TYPE=MASS SPECTRUM
##ORIGIN=NIST Mass Spectrometry Data Center
##OWNER=NIST Mass Spectrometry Data Center
Collection (C) 2014 copyright by the U.S. Secretary of Commerce
on behalf of the United States of America. All rights reserved.
##$NIST MASS SPEC NO=353072
##MOLFORM=C8 H10 S2
##MW=170
##$NIST SOURCE=MSDC
##XUNITS=M/Z
##YUNITS=RELATIVE INTENSITY
##XFACTOR=1
##YFACTOR=1
##FIRSTX=14
##LASTX=174
##FIRSTY=10
##MAXX=174
##MINX=14
##MAXY=9999
##MINY=10
##NPOINTS=116
##PEAK TABLE=(XY..XY)
14,10 15,120 26,10 27,20
37,20 38,70 39,170 40,10
41,10 44,20 45,771 46,140
47,150 48,20 49,20 50,280
51,210 52,30 53,30 54,10
57,100 58,160 59,30 60,10
61,60 62,150 63,470 64,120
65,150 66,30 67,50 68,30
69,871 70,290 71,250 72,80
73,40 74,180 75,120 76,90
77,440 78,200 79,120 80,20
81,140 82,450 83,70 84,70
85,420 86,50 87,10 88,30
89,50 90,20 91,400 92,40
93,100 94,30 95,400 96,821
97,170 98,50 99,10 100,20
101,30 102,10 103,10 104,10
105,50 106,70 107,80 108,1581
109,721 110,220 111,721 112,70
113,50 114,130 115,20 116,10
117,10 119,10 120,10 121,561
122,490 123,170 124,100 125,260
126,30 127,30 128,10 134,10
135,10 137,50 138,10 139,300
140,1862 141,200 142,170 143,20
151,10 152,30 153,260 154,260
155,9999 156,1031 157,1011 158,80
159,30 167,20 168,10 170,9729
171,1091 172,1001 173,90 174,30
##END=
