##TITLE=Dihydrocapsaicin, N-methyl-, methyl ether
##JCAMP-DX=4.24
##DATA TYPE=MASS SPECTRUM
##ORIGIN=NIST Mass Spectrometry Data Center
##OWNER=NIST Mass Spectrometry Data Center
Collection (C) 2014 copyright by the U.S. Secretary of Commerce
on behalf of the United States of America. All rights reserved.
##$NIST MASS SPEC NO=353102
##MOLFORM=C20 H33 N O3
##MW=335
##$NIST SOURCE=MSDC
##XUNITS=M/Z
##YUNITS=RELATIVE INTENSITY
##XFACTOR=1
##YFACTOR=1
##FIRSTX=15
##LASTX=337
##FIRSTY=20
##MAXX=337
##MINX=15
##MAXY=9999
##MINY=10
##NPOINTS=160
##PEAK TABLE=(XY..XY)
15,20 26,10 27,130 28,70
29,250 30,30 31,10 32,30
38,10 39,140 40,30 41,701
42,440 43,1191 44,250 45,30
50,20 51,70 52,30 53,60
54,30 55,380 56,120 57,300
58,140 59,10 63,30 64,20
65,170 66,40 67,70 68,50
69,140 70,40 71,130 72,30
73,70 74,10 76,20 77,160
78,170 79,150 80,80 81,70
82,20 83,30 84,20 85,80
86,40 87,30 89,100 90,190
91,210 92,60 93,50 94,50
95,80 96,20 97,40 98,120
99,20 100,20 103,10 104,30
105,190 106,330 107,601 108,200
109,50 110,10 111,30 114,10
117,10 118,100 119,80 120,60
121,120 122,70 123,40 124,120
125,20 126,20 128,10 131,20
132,20 133,50 134,70 135,260
136,130 137,130 138,120 139,120
140,20 146,10 147,20 148,90
149,50 150,510 151,9999 152,1361
153,120 154,30 155,30 160,10
161,10 162,30 163,20 164,250
165,1071 166,1591 167,180 168,60
169,10 174,10 175,10 176,20
177,50 178,250 179,70 180,581
181,80 182,20 184,40 185,10
190,30 191,20 192,270 193,40
194,10 204,20 205,10 206,10
207,10 208,130 209,10 220,10
221,10 222,130 223,1001 224,140
225,10 234,10 236,120 237,40
248,10 250,10 251,10 262,20
263,20 264,10 265,10 278,10
279,10 292,20 320,20 321,10
334,10 335,1031 336,230 337,30
##END=
