##TITLE=3-Aminothiophenol, N,S-diacetyl-
##JCAMP-DX=4.24
##DATA TYPE=MASS SPECTRUM
##ORIGIN=NIST Mass Spectrometry Data Center
##OWNER=NIST Mass Spectrometry Data Center
Collection (C) 2014 copyright by the U.S. Secretary of Commerce
on behalf of the United States of America. All rights reserved.
##$NIST MASS SPEC NO=353078
##MOLFORM=C10 H11 N O2 S
##MW=209
##$NIST SOURCE=MSDC
##XUNITS=M/Z
##YUNITS=RELATIVE INTENSITY
##XFACTOR=1
##YFACTOR=1
##FIRSTX=14
##LASTX=212
##FIRSTY=50
##MAXX=212
##MINX=14
##MAXY=9999
##MINY=10
##NPOINTS=114
##PEAK TABLE=(XY..XY)
14,50 15,370 26,10 27,40
28,90 29,20 30,10 37,20
38,90 39,260 40,30 41,80
42,240 43,6186 44,150 45,280
46,10 47,20 49,10 50,70
51,140 52,180 53,290 54,60
55,10 56,10 57,60 58,70
59,50 60,30 61,30 62,80
63,290 64,150 65,270 66,80
67,50 68,20 69,350 70,220
71,80 72,20 73,10 74,20
75,20 76,30 77,60 78,90
79,50 80,1802 81,851 82,150
83,40 84,80 85,10 86,10
87,10 88,10 89,10 90,90
91,160 92,130 93,450 94,100
95,190 96,340 97,761 98,220
99,70 100,10 104,40 105,30
106,90 107,30 108,140 109,90
110,40 111,10 117,20 120,10
121,20 122,110 123,110 124,931
125,9999 126,891 127,510 128,30
132,10 133,80 134,30 135,10
136,50 137,20 138,290 139,40
140,20 148,10 149,30 150,10
151,30 152,20 165,10 166,350
167,9418 168,1011 169,510 170,40
181,10 194,10 209,991 210,130
211,50 212,10
##END=
