##TITLE=1,4,7,-Cycloundecatriene, 1,5,9,9-tetramethyl-, Z,Z,Z-
##JCAMP-DX=4.24
##DATA TYPE=MASS SPECTRUM
##ORIGIN=D.HENNEBERG, MAX-PLANCK INSTITUTE, MULHEIM, WEST GERMANY
##OWNER=NIST Mass Spectrometry Data Center
Collection (C) 2014 copyright by the U.S. Secretary of Commerce
on behalf of the United States of America. All rights reserved.
##$NIST MASS SPEC NO=62619
##MOLFORM=C15 H24
##MW=204
##$NIST SOURCE=MSDC
##XUNITS=M/Z
##YUNITS=RELATIVE INTENSITY
##XFACTOR=1
##YFACTOR=1
##FIRSTX=27
##LASTX=206
##FIRSTY=146
##MAXX=206
##MINX=27
##MAXY=9999
##MINY=3
##NPOINTS=114
##PEAK TABLE=(XY..XY)
27,146 28,125 29,474 30,7
32,11 38,10 39,169 40,81
41,1152 42,169 43,968 44,25
45,3 47,3 50,15 51,22
52,23 53,446 54,71 55,838
56,150 57,115 58,6 63,10
65,150 66,86 67,1002 68,342
69,420 70,44 71,19 72,14
73,6 74,4 75,12 76,6
77,784 78,136 79,1380 80,3584
81,725 82,700 83,97 84,27
85,8 86,7 90,10 91,1196
92,1706 93,9999 94,1406 95,824
96,92 97,23 98,6 102,5
103,51 104,28 105,1043 106,359
107,1516 108,444 109,1140 110,161
111,54 112,5 115,27 116,7
117,55 118,22 119,712 120,221
121,2865 122,978 123,283 124,37
125,4 128,11 129,12 130,8
131,47 132,15 133,217 134,266
135,270 136,504 137,55 138,7
143,8 144,7 145,28 146,106
147,1960 148,443 149,82 150,10
157,3 159,12 160,10 161,341
162,104 163,16 173,3 174,3
175,59 176,22 187,4 189,276
190,46 191,4 203,4 204,805
205,137 206,8
##END=
