##TITLE=5.alpha.-Pregnan-3.alpha.-ol-20-one, O-methyloxime, TMS derivative
##JCAMP-DX=4.24
##DATA TYPE=MASS SPECTRUM
##ORIGIN=H. ADLERCREUTZ, UNIV. OF HELSINKI, FINLAND
##OWNER=NIST Mass Spectrometry Data Center
Collection (C) 2014 copyright by the U.S. Secretary of Commerce
on behalf of the United States of America. All rights reserved.
##$NIST MASS SPEC NO=69444
##MOLFORM=C25 H45 N O2 Si
##MW=419
##$NIST SOURCE=MSDC
##XUNITS=M/Z
##YUNITS=RELATIVE INTENSITY
##XFACTOR=1
##YFACTOR=1
##FIRSTX=57
##LASTX=421
##FIRSTY=186
##MAXX=421
##MINX=57
##MAXY=9999
##MINY=30
##NPOINTS=209
##PEAK TABLE=(XY..XY)
57,186 58,117 61,39 67,105
68,88 69,97 70,2661 71,206
73,152 74,578 75,401 76,41
77,31 79,119 80,33 81,410
82,127 83,273 84,160 85,34
86,85 87,5537 88,802 89,89
91,195 92,61 93,267 94,155
95,424 96,165 97,92 98,85
99,135 100,9999 101,860 102,51
103,31 105,244 106,206 107,606
108,178 109,316 110,73 111,31
112,78 113,919 114,406 115,144
116,36 117,303 118,83 119,266
120,141 121,385 122,195 123,146
124,75 126,272 127,124 128,50
129,132 130,61 131,262 132,77
133,391 134,414 135,348 136,128
137,66 138,35 140,36 142,52
143,117 144,45 145,255 146,130
147,611 148,272 149,271 150,68
152,37 154,88 155,122 156,39
157,110 158,42 159,310 160,160
161,275 162,118 163,75 166,67
167,37 169,53 171,122 172,45
173,606 174,176 175,155 176,86
177,41 180,42 183,75 184,33
185,199 186,68 187,177 188,96
189,57 190,85 191,45 196,58
197,91 198,35 199,269 200,95
201,200 202,80 203,46 204,62
206,41 211,152 212,52 213,140
214,68 215,782 216,189 217,90
218,35 220,34 223,37 225,233
226,73 227,124 228,56 229,122
230,300 231,58 237,41 239,78
240,42 241,1369 242,413 243,723
244,198 245,30 255,92 256,177
257,121 258,51 263,36 265,45
266,39 267,56 268,36 270,31
274,73 281,415 282,223 283,207
284,62 290,39 296,48 297,42
298,1095 299,264 300,51 305,83
314,381 315,140 316,36 320,395
321,96 328,425 329,158 330,70
331,81 332,158 333,127 334,48
346,68 358,66 359,52 360,53
361,51 362,39 363,37 364,56
365,31 372,166 373,90 375,100
376,36 384,31 385,37 386,48
388,7044 389,2445 390,626 391,139
392,34 403,37 404,589 405,177
406,50 418,70 419,520 420,200
421,53
##END=
