##TITLE=Anisuric acid, bis(O_trimethylsilyl)-
##JCAMP-DX=4.24
##DATA TYPE=MASS SPECTRUM
##ORIGIN=G.S. KING, CHEM. PATHOL. DEP., QUEEN CHARLOTTE'S HOSP., LONDON
##OWNER=NIST Mass Spectrometry Data Center
Collection (C) 2014 copyright by the U.S. Secretary of Commerce
on behalf of the United States of America. All rights reserved.
##$NIST MASS SPEC NO=71678
##MOLFORM=C16 H27 N O4 Si2
##MW=353
##$NIST SOURCE=MSDC
##XUNITS=M/Z
##YUNITS=RELATIVE INTENSITY
##XFACTOR=1
##YFACTOR=1
##FIRSTX=41
##LASTX=264
##FIRSTY=320
##MAXX=264
##MINX=41
##MAXY=9999
##MINY=240
##NPOINTS=51
##PEAK TABLE=(XY..XY)
41,320 43,920 44,520 45,1520
47,1120 49,320 51,240 55,520
59,440 61,320 63,440 64,240
65,440 72,240 73,6640 74,520
75,9999 76,920 77,4040 78,440
79,240 90,240 92,440 93,3040
94,240 95,1040 105,240 107,320
117,720 119,240 129,320 132,240
133,520 134,520 135,6120 136,440
145,240 146,240 147,1840 148,240
149,240 165,320 177,520 191,640
207,720 208,520 209,320 236,1040
237,240 263,1320 264,240
##END=
