##TITLE=4-Hydroxymandelic acid, 3TBDMS derivative
##JCAMP-DX=4.24
##DATA TYPE=MASS SPECTRUM
##ORIGIN=G.S. KING, CHEM. PATHOL. DEP., QUEEN CHARLOTTE'S HOSP., LONDON
##OWNER=NIST Mass Spectrometry Data Center
Collection (C) 2014 copyright by the U.S. Secretary of Commerce
on behalf of the United States of America. All rights reserved.
##$NIST MASS SPEC NO=71882
##MOLFORM=C26 H50 O4 Si3
##MW=510
##$NIST SOURCE=MSDC
##XUNITS=M/Z
##YUNITS=RELATIVE INTENSITY
##XFACTOR=1
##YFACTOR=1
##FIRSTX=73
##LASTX=455
##FIRSTY=9999
##MAXX=455
##MINX=73
##MAXY=9999
##MINY=177
##NPOINTS=23
##PEAK TABLE=(XY..XY)
73,9999 74,619 75,1416 77,442
93,531 133,354 147,2035 149,265
163,177 191,177 207,1947 208,442
281,708 323,177 351,9203 352,2743
353,885 425,2655 426,885 427,354
453,2920 454,973 455,442
##END=
