##TITLE=N-Trifluoroacetyl-O,O'-bis(trimethylsilyl)-l-dopa, trimethylsilyl ester
##JCAMP-DX=4.24
##DATA TYPE=MASS SPECTRUM
##ORIGIN=F.A.J.MUSKIET, LAB. CLIN. CHEM., UNIV. HOSP., GRONINGEN, NET
##OWNER=NIST Mass Spectrometry Data Center
Collection (C) 2014 copyright by the U.S. Secretary of Commerce
on behalf of the United States of America. All rights reserved.
##$NIST MASS SPEC NO=72266
##MOLFORM=C20 H34 F3 N O5 Si3
##MW=509
##$NIST SOURCE=MSDC
##XUNITS=M/Z
##YUNITS=RELATIVE INTENSITY
##XFACTOR=1
##YFACTOR=1
##FIRSTX=40
##LASTX=512
##FIRSTY=110
##MAXX=512
##MINX=40
##MAXY=9999
##MINY=40
##NPOINTS=62
##PEAK TABLE=(XY..XY)
40,110 43,160 44,220 45,1230
46,90 47,110 59,100 61,60
69,50 72,100 73,9890 74,850
75,1040 76,90 77,720 78,70
91,50 103,40 104,110 105,50
117,70 120,120 131,100 133,130
147,190 149,190 151,80 166,70
177,90 179,2740 180,420 181,160
191,150 192,80 193,200 205,50
207,60 219,140 236,60 237,60
251,90 265,150 266,50 267,9999
268,2380 269,1010 270,180 293,80
295,50 308,40 381,60 396,510
397,200 398,100 404,50 494,500
495,210 496,100 509,1330 510,500
511,250 512,70
##END=
