##TITLE=Disulfide, ethyl hexyl
##JCAMP-DX=4.24
##DATA TYPE=MASS SPECTRUM
##ORIGIN=H.J. MOECKEL & J. WEISS, HAHN-MEITNER-INST. BERLIN, W. G
##OWNER=NIST Mass Spectrometry Data Center
Collection (C) 2014 copyright by the U.S. Secretary of Commerce
on behalf of the United States of America. All rights reserved.
##$NIST MASS SPEC NO=75512
##MOLFORM=C8 H18 S2
##MW=178
##$NIST SOURCE=MSDC
##XUNITS=M/Z
##YUNITS=RELATIVE INTENSITY
##XFACTOR=1
##YFACTOR=1
##FIRSTX=15
##LASTX=182
##FIRSTY=154
##MAXX=182
##MINX=15
##MAXY=9999
##MINY=1
##NPOINTS=102
##PEAK TABLE=(XY..XY)
15,154 19,4 24,3 25,18
26,330 27,4407 29,6029 30,633
34,34 35,377 36,16 37,23
38,48 39,1130 40,147 41,3087
42,2275 43,9999 44,7545 45,995
46,397 47,469 48,52 49,20
50,17 51,44 52,29 53,231
54,98 55,1169 56,322 57,1125
58,382 59,475 60,279 61,273
62,55 63,27 64,231 65,143
66,752 67,168 68,82 69,140
70,19 71,1 72,10 73,106
74,75 75,46 76,10 77,18
78,61 79,551 80,32 81,135
82,91 83,162 84,62 85,667
86,65 87,204 88,53 89,21
90,3 91,7 92,44 93,554
94,4361 95,251 96,385 97,16
98,10 99,2 100,2 101,57
102,2 105,4 106,8 107,83
108,4 109,7 113,1 114,1
115,52 116,23 117,80 118,8
119,4 120,1 121,10 135,1
145,2 149,4 150,3 176,5
177,110 178,2054 179,271 180,192
181,23 182,6
##END=
