##TITLE=3-Hexenedioic acid, (E)-, 2TMS derivative
##JCAMP-DX=4.24
##DATA TYPE=MASS SPECTRUM
##ORIGIN=O A MAMER, MCGILL UNIVERSITY, MONTRE
##OWNER=NIST Mass Spectrometry Data Center
Collection (C) 2014 copyright by the U.S. Secretary of Commerce
on behalf of the United States of America. All rights reserved.
##$NIST MASS SPEC NO=78954
##MOLFORM=C12 H24 O4 Si2
##MW=288
##$NIST SOURCE=MSDC
##XUNITS=M/Z
##YUNITS=RELATIVE INTENSITY
##XFACTOR=1
##YFACTOR=1
##FIRSTX=14
##LASTX=288
##FIRSTY=47
##MAXX=288
##MINX=14
##MAXY=9999
##MINY=21
##NPOINTS=76
##PEAK TABLE=(XY..XY)
14,47 15,182 16,47 26,82
27,204 28,434 29,150 31,61
32,39 39,203 41,61 42,61
43,453 44,347 45,1421 46,107
47,464 48,31 51,54 52,82
53,394 54,1194 55,277 57,102
58,158 59,257 60,80 61,357
71,52 72,283 73,9999 74,897
75,2438 76,177 77,111 79,58
81,461 82,1433 83,114 85,37
89,41 95,37 97,192 98,46
99,46 101,35 111,107 112,252
113,65 116,53 117,179 119,30
129,84 131,60 133,164 139,43
142,21 147,2713 148,428 149,272
150,36 155,57 156,90 157,32
175,39 190,90 198,33 215,37
229,52 244,447 245,109 246,46
273,586 274,140 275,63 288,38
##END=
