##TITLE=3-Methyl-4-trimethylsiloxy(trimethylsilyl)butyrate
##JCAMP-DX=4.24
##DATA TYPE=MASS SPECTRUM
##ORIGIN=O A MAMER, MCGILL UNIVERSITY, MONTRE
##OWNER=NIST Mass Spectrometry Data Center
Collection (C) 2014 copyright by the U.S. Secretary of Commerce
on behalf of the United States of America. All rights reserved.
##$NIST MASS SPEC NO=78916
##MOLFORM=C11 H26 O3 Si2
##MW=262
##$NIST SOURCE=MSDC
##XUNITS=M/Z
##YUNITS=RELATIVE INTENSITY
##XFACTOR=1
##YFACTOR=1
##FIRSTX=15
##LASTX=249
##FIRSTY=154
##MAXX=249
##MINX=15
##MAXY=9999
##MINY=21
##NPOINTS=92
##PEAK TABLE=(XY..XY)
15,154 26,52 27,184 28,279
29,402 31,99 39,223 40,52
41,460 42,138 43,659 44,383
45,1676 46,127 47,624 52,55
53,112 55,1128 56,105 57,124
58,443 59,707 60,127 61,518
66,210 69,209 70,145 71,100
72,390 73,9023 74,864 75,3591
76,261 77,171 79,46 81,68
82,49 83,762 84,55 85,147
87,68 88,229 89,110 95,54
99,253 101,125 103,1674 104,177
105,99 113,198 115,527 116,504
117,2028 118,223 119,144 128,196
129,235 130,1128 131,1610 132,517
133,606 134,101 135,58 143,223
144,72 147,9999 148,1572 149,876
150,102 151,35 157,782 158,112
159,116 163,61 172,169 173,108
182,40 183,29 193,29 194,39
197,21 204,570 205,157 206,67
217,245 218,59 220,24 225,23
232,80 247,1916 248,410 249,189
##END=
