##TITLE=3-Vanilpropanol, bis(trimethylsilyl)-
##JCAMP-DX=4.24
##DATA TYPE=MASS SPECTRUM
##ORIGIN=O A MAMER, MCGILL UNIVERSITY, MONTRE
##OWNER=NIST Mass Spectrometry Data Center
Collection (C) 2014 copyright by the U.S. Secretary of Commerce
on behalf of the United States of America. All rights reserved.
##$NIST MASS SPEC NO=79076
##MOLFORM=C16 H30 O3 Si2
##MW=326
##$NIST SOURCE=MSDC
##XUNITS=M/Z
##YUNITS=RELATIVE INTENSITY
##XFACTOR=1
##YFACTOR=1
##FIRSTX=14
##LASTX=329
##FIRSTY=64
##MAXX=329
##MINX=14
##MAXY=9999
##MINY=46
##NPOINTS=98
##PEAK TABLE=(XY..XY)
14,64 15,198 18,116 26,69
27,86 28,243 29,101 31,86
39,104 41,149 43,384 44,329
45,1579 46,113 47,377 51,99
52,65 53,58 55,97 57,93
58,276 59,2289 60,214 61,304
65,114 72,187 73,7776 74,718
75,1787 76,148 77,328 78,140
79,150 83,68 85,61 87,90
89,1412 90,188 91,406 92,57
95,58 101,114 102,75 103,378
104,188 105,257 106,96 107,96
109,118 115,284 116,97 117,140
119,140 121,98 129,94 131,169
133,215 135,212 141,922 147,178
148,721 149,696 150,142 151,199
156,171 161,223 162,230 163,319
164,151 165,242 166,322 179,2863
180,1976 181,547 192,814 195,686
205,4616 206,9999 207,2407 209,2320
210,1914 211,411 221,1550 222,515
223,390 236,3543 237,864 238,243
253,46 296,250 297,98 311,1867
312,519 313,215 326,4717 327,1345
328,528 329,111
##END=
