##TITLE=2-Trimethylsilyloxysebacic acid, bis(trimethylsilyl)- ester
##JCAMP-DX=4.24
##DATA TYPE=MASS SPECTRUM
##ORIGIN=O A MAMER, MCGILL UNIVERSITY, MONTRED
##OWNER=NIST Mass Spectrometry Data Center
Collection (C) 2014 copyright by the U.S. Secretary of Commerce
on behalf of the United States of America. All rights reserved.
##$NIST MASS SPEC NO=79059
##MOLFORM=C19 H42 O5 Si3
##MW=434
##$NIST SOURCE=MSDC
##XUNITS=M/Z
##YUNITS=RELATIVE INTENSITY
##XFACTOR=1
##YFACTOR=1
##FIRSTX=14
##LASTX=420
##FIRSTY=96
##MAXX=420
##MINX=14
##MAXY=9999
##MINY=38
##NPOINTS=132
##PEAK TABLE=(XY..XY)
14,96 15,238 16,72 18,49
26,115 27,168 28,500 29,181
31,44 32,63 39,106 41,535
42,91 43,553 44,264 45,950
46,74 47,237 52,47 53,73
54,69 55,1187 56,128 57,312
58,134 59,498 60,74 61,219
67,977 68,119 69,397 70,68
71,187 72,301 73,9999 74,912
75,3506 76,253 77,217 79,187
81,321 82,71 83,295 84,54
85,128 87,57 89,80 91,185
93,319 94,85 95,721 96,103
97,103 99,96 101,275 102,71
103,281 105,115 107,91 109,1484
110,160 111,96 115,109 116,238
117,441 119,675 120,86 121,90
123,78 129,1469 130,238 131,389
132,143 133,602 134,105 135,108
136,92 137,861 138,105 143,154
145,116 147,3307 148,530 149,594
150,86 151,65 155,438 156,64
157,90 159,47 161,62 165,409
166,62 171,53 175,63 177,51
183,55 185,105 190,109 191,81
199,84 203,96 204,103 207,257
208,63 209,52 211,167 212,40
217,158 220,104 221,124 222,39
227,418 228,88 229,68 239,44
255,93 281,67 287,43 301,299
302,87 303,81 317,4746 318,1302
319,523 320,105 329,107 330,38
391,396 392,139 419,223 420,86
##END=
