##TITLE=trans-4-Trimethylsilyloxy-cyclohexyl(trimethylsilyl)carboxylate
##JCAMP-DX=4.24
##DATA TYPE=MASS SPECTRUM
##ORIGIN=O A MAMER, MCGILL UNIVERSITY, MONTRE@
##OWNER=NIST Mass Spectrometry Data Center
Collection (C) 2014 copyright by the U.S. Secretary of Commerce
on behalf of the United States of America. All rights reserved.
##$NIST MASS SPEC NO=79299
##MOLFORM=C13 H28 O3 Si2
##MW=288
##$NIST SOURCE=MSDC
##XUNITS=M/Z
##YUNITS=RELATIVE INTENSITY
##XFACTOR=1
##YFACTOR=1
##FIRSTX=15
##LASTX=290
##FIRSTY=85
##MAXX=290
##MINX=15
##MAXY=9999
##MINY=51
##NPOINTS=123
##PEAK TABLE=(XY..XY)
15,85 26,52 27,220 28,167
29,291 31,85 39,237 40,57
41,707 42,61 43,496 44,317
45,1522 46,116 47,817 53,431
54,271 55,662 56,56 57,133
58,199 59,921 60,163 61,762
62,61 65,74 66,81 67,300
68,59 69,111 70,89 71,96
72,343 73,9999 74,964 75,5981
76,464 77,442 78,90 79,660
80,607 81,8321 82,596 83,64
85,140 87,114 89,105 91,70
97,64 99,156 101,1411 102,231
103,180 107,67 108,404 109,519
110,53 111,65 113,175 114,64
115,114 116,2529 117,416 118,129
119,69 127,133 128,51 129,6273
130,783 131,451 132,59 133,611
134,95 135,80 139,224 141,111
142,150 143,163 144,210 145,61
147,5405 148,881 149,774 150,101
151,63 154,100 155,354 156,152
157,65 169,461 170,2852 171,587
172,166 182,94 183,2998 184,508
185,185 198,784 199,397 200,85
203,242 204,136 217,1258 218,263
219,125 232,873 233,185 234,119
243,82 245,125 257,197 258,51
259,74 260,665 261,157 262,77
273,6412 274,1556 275,659 276,109
288,478 289,133 290,55
##END=
