##TITLE=2-Methylglutaconic acid, bis(trimethylsilyl) ester
##JCAMP-DX=4.24
##DATA TYPE=MASS SPECTRUM
##ORIGIN=O A MAMER, MCGILL UNIVERSITY, MONTRE
##OWNER=NIST Mass Spectrometry Data Center
Collection (C) 2014 copyright by the U.S. Secretary of Commerce
on behalf of the United States of America. All rights reserved.
##$NIST MASS SPEC NO=79689
##MOLFORM=C12 H24 O4 Si2
##MW=288
##$NIST SOURCE=MSDC
##XUNITS=M/Z
##YUNITS=RELATIVE INTENSITY
##XFACTOR=1
##YFACTOR=1
##FIRSTX=13
##LASTX=291
##FIRSTY=23
##MAXX=291
##MINX=13
##MAXY=9999
##MINY=15
##NPOINTS=181
##PEAK TABLE=(XY..XY)
13,23 14,91 15,20 16,167
17,650 19,51 26,48 27,191
28,311 29,117 30,27 31,58
32,56 38,26 39,331 40,72
41,131 42,117 43,549 44,350
45,1454 46,106 47,568 48,35
49,37 50,33 51,71 52,92
53,824 54,592 55,143 56,47
57,153 58,171 59,471 60,318
62,32 63,29 64,21 65,25
66,65 67,56 68,391 69,95
70,59 71,56 72,283 73,9999
74,957 75,2765 76,213 77,144
78,27 79,53 80,47 81,159
82,2444 83,233 84,35 85,66
86,19 87,36 88,39 89,48
90,16 91,18 93,20 95,158
96,96 97,135 98,144 99,88
100,29 101,74 102,21 103,51
105,29 108,78 109,370 110,52
111,189 112,161 113,61 114,24
115,48 116,110 117,228 118,35
119,43 122,31 123,19 125,34
126,26 127,109 128,32 129,192
130,88 131,126 132,49 134,363
135,67 136,45 137,16 139,41
141,25 142,39 143,81 144,21
145,26 147,3832 148,654 149,399
150,52 151,27 154,28 155,190
156,330 157,163 158,42 159,31
161,35 162,15 168,15 169,87
170,107 171,78 172,27 173,37
174,16 177,28 182,90 183,175
184,43 185,59 186,17 187,47
188,17 190,17 191,27 192,16
197,32 198,240 199,59 200,25
201,165 202,38 203,22 204,15
207,37 208,16 213,18 215,122
217,270 218,73 219,31 221,29
223,19 229,506 230,247 231,1145
232,251 233,116 234,27 244,1269
245,307 246,141 247,38 248,19
258,40 259,247 260,60 261,31
273,1415 274,315 275,144 276,25
281,20 287,26 288,75 289,19
291,16
##END=
