##TITLE=2-n-Propyl-3-ketovalerate, bis(O-trimethylsilyl)- .
##JCAMP-DX=4.24
##DATA TYPE=MASS SPECTRUM
##ORIGIN=O A MAMER, MCGILL UNIVERSITY, MONTRE
##OWNER=NIST Mass Spectrometry Data Center
Collection (C) 2014 copyright by the U.S. Secretary of Commerce
on behalf of the United States of America. All rights reserved.
##$NIST MASS SPEC NO=79665
##MOLFORM=C14 H30 O3 Si2
##MW=302
##$NIST SOURCE=MSDC
##XUNITS=M/Z
##YUNITS=RELATIVE INTENSITY
##XFACTOR=1
##YFACTOR=1
##FIRSTX=15
##LASTX=304
##FIRSTY=10
##MAXX=304
##MINX=15
##MAXY=9999
##MINY=2
##NPOINTS=146
##PEAK TABLE=(XY..XY)
15,10 27,74 29,493 31,80
38,45 39,26 43,142 44,105
45,1368 46,163 47,136 49,47
50,49 51,2 53,187 54,66
55,470 56,4 57,687 58,169
59,218 60,103 61,165 63,41
65,191 66,20 67,264 69,51
71,150 72,160 73,9999 74,876
75,1667 76,148 77,74 79,53
80,53 81,68 82,66 83,340
84,72 85,53 86,51 87,61
89,51 91,115 92,47 93,1275
94,148 95,140 97,144 98,57
99,193 103,70 105,47 107,55
109,66 110,45 111,1202 112,125
113,152 114,55 115,6 118,41
119,84 121,74 122,86 123,82
125,115 126,57 127,99 128,49
129,70 130,51 131,136 132,111
133,237 134,84 135,2 137,45
139,109 140,49 141,356 142,84
143,70 147,2364 148,233 149,169
150,76 151,59 153,76 154,45
155,2100 156,332 157,160 158,76
159,55 167,237 168,70 169,156
170,160 171,115 177,49 181,53
183,2698 184,561 185,614 186,152
187,47 195,53 197,132 198,51
211,78 212,769 213,862 214,173
215,72 217,154 219,49 221,82
222,74 223,55 229,57 231,158
245,218 246,55 257,99 258,43
259,66 260,55 267,68 269,45
273,2005 274,691 275,231 276,51
283,66 287,5994 288,1572 289,619
290,132 291,41 301,74 302,718
303,187 304,148
##END=
