##TITLE=Methyl 3-hydroxycholest-5-en-26-oate, TMS derivative
##JCAMP-DX=4.24
##DATA TYPE=MASS SPECTRUM
##ORIGIN=G. JANSSEN,REGA INST. MED. RES.,KATHOLIEKE UNIV.,LEUVEN,BELG.
##OWNER=NIST Mass Spectrometry Data Center
Collection (C) 2014 copyright by the U.S. Secretary of Commerce
on behalf of the United States of America. All rights reserved.
##$NIST MASS SPEC NO=99777
##MOLFORM=C31 H54 O3 Si
##MW=502
##$NIST SOURCE=MSDC
##XUNITS=M/Z
##YUNITS=RELATIVE INTENSITY
##XFACTOR=1
##YFACTOR=1
##FIRSTX=53
##LASTX=504
##FIRSTY=260
##MAXX=504
##MINX=53
##MAXY=9999
##MINY=20
##NPOINTS=248
##PEAK TABLE=(XY..XY)
53,260 54,100 55,6120 56,360
57,820 58,50 59,1480 60,50
61,410 62,50 65,150 66,50
67,2090 68,260 69,2350 70,150
71,50 72,50 73,8520 74,710
75,4640 76,310 77,560 78,50
79,2190 80,360 81,3780 82,460
83,920 84,50 85,160 86,50
87,310 88,2040 89,360 91,2450
92,610 93,3010 94,710 95,4390
96,410 97,2550 98,150 99,310
101,1020 102,50 103,360 104,200
105,3370 106,920 107,3670 108,770
109,2040 110,260 111,310 112,50
113,100 114,50 115,610 116,310
117,1380 118,610 119,3470 120,2040
121,3110 122,610 123,1170 124,150
125,660 126,50 127,150 128,260
129,9999 130,1730 131,2190 132,820
133,2090 134,610 135,1580 136,260
137,360 138,50 139,200 141,260
142,260 143,1730 144,560 145,2910
146,870 147,2140 148,560 149,1070
150,100 151,460 152,50 153,100
154,50 155,660 156,200 157,1330
158,560 159,2450 160,1430 161,2040
162,410 163,870 164,150 165,150
167,100 168,100 169,310 170,100
171,770 172,260 173,1280 174,460
175,1020 176,150 177,410 179,100
181,260 182,100 183,310 184,50
185,660 186,200 187,460 188,150
189,510 190,50 191,100 193,50
194,50 195,100 196,200 197,260
198,100 199,610 200,260 201,510
202,100 203,510 204,50 205,100
206,50 209,150 211,100 212,100
213,1330 214,410 215,770 216,100
217,410 218,50 219,150 220,50
221,100 223,100 225,100 226,50
227,260 228,360 229,410 230,50
231,100 233,100 235,150 236,50
237,360 238,100 240,50 241,260
242,50 243,150 244,50 245,50
247,50 249,360 250,200 251,460
252,100 255,1530 256,360 257,100
259,100 261,50 263,410 264,100
265,150 267,50 269,50 271,50
277,260 281,50 283,150 284,50
285,50 287,50 289,150 290,150
291,1380 292,310 293,50 303,260
304,100 305,100 309,50 318,150
319,560 320,150 341,150 342,50
343,50 344,50 345,260 346,50
353,50 355,50 357,50 358,50
365,100 369,50 370,200 371,260
372,660 373,5150 374,1580 375,50
381,610 382,150 383,50 397,1730
398,560 399,150 412,3110 413,1020
414,150 469,20 471,30 472,20
473,20 474,30 487,490 488,190
489,50 502,820 503,330 504,100
##END=
