##TITLE=2-Methyl-3-oxovaleric acid, O,O'-bis(trimethylsilyl)-
##JCAMP-DX=4.24
##DATA TYPE=MASS SPECTRUM
##ORIGIN=B.R. PETTIT, QUEEN CHARLOTTE'S MAT. HOSP., LONDON, U.K.
##OWNER=NIST Mass Spectrometry Data Center
Collection (C) 2014 copyright by the U.S. Secretary of Commerce
on behalf of the United States of America. All rights reserved.
##$NIST MASS SPEC NO=99830
##MOLFORM=C12 H26 O3 Si2
##MW=274
##$NIST SOURCE=MSDC
##XUNITS=M/Z
##YUNITS=RELATIVE INTENSITY
##XFACTOR=1
##YFACTOR=1
##FIRSTX=44
##LASTX=274
##FIRSTY=200
##MAXX=274
##MINX=44
##MAXY=9999
##MINY=100
##NPOINTS=46
##PEAK TABLE=(XY..XY)
44,200 45,1500 46,100 51,100
53,100 55,100 59,200 65,100
67,100 68,100 72,100 73,9999
74,800 75,1500 76,100 77,200
82,100 83,1200 94,100 103,100
113,100 115,100 127,200 129,100
131,100 133,300 141,100 147,7500
148,1000 149,600 155,100 169,100
170,100 171,100 184,1000 185,1000
186,500 187,100 231,100 245,1200
246,200 247,100 259,4000 260,300
261,100 274,200
##END=
