##TITLE=2-Propylpentanoic acid, 2,3,4,6-tetra(trimethylsilyl)-1-glucopyranoside
##JCAMP-DX=4.24
##DATA TYPE=MASS SPECTRUM
##ORIGIN=B.R. PETTIT, QUEEN CHARLOTTE'S MAT. HOSP., LONDON, U.K.
##OWNER=NIST Mass Spectrometry Data Center
Collection (C) 2014 copyright by the U.S. Secretary of Commerce
on behalf of the United States of America. All rights reserved.
##$NIST MASS SPEC NO=99947
##MOLFORM=C26 H58 O7 Si4
##MW=594
##$NIST SOURCE=MSDC
##XUNITS=M/Z
##YUNITS=RELATIVE INTENSITY
##XFACTOR=1
##YFACTOR=1
##FIRSTX=41
##LASTX=593
##FIRSTY=720
##MAXX=593
##MINX=41
##MAXY=9999
##MINY=10
##NPOINTS=266
##PEAK TABLE=(XY..XY)
41,720 42,330 43,1690 44,1370
45,4040 46,270 47,2680 48,200
49,1100 50,90 51,140 52,70
53,240 54,120 55,1390 56,270
57,4230 58,380 59,1280 60,240
61,740 62,190 63,430 64,50
65,90 66,110 67,280 68,120
69,400 70,150 71,380 72,250
73,9999 74,1540 75,7730 76,880
77,7260 78,620 79,320 80,30
81,190 82,30 83,320 84,160
85,180 86,60 87,120 88,50
89,290 90,140 91,140 92,270
93,120 94,40 95,130 96,50
97,240 98,140 99,1320 100,190
101,640 102,200 103,1040 104,110
105,310 106,30 107,30 108,10
109,90 110,20 111,80 112,30
113,390 114,80 115,150 116,600
117,1420 118,280 119,210 120,20
121,30 122,20 123,20 124,70
125,240 126,110 127,1070 128,120
129,1720 130,230 131,550 132,460
133,1210 134,190 135,230 136,40
137,30 139,20 140,10 141,80
142,120 143,1170 144,160 145,1150
146,50 147,4250 148,650 149,620
150,80 151,70 152,20 153,30
154,10 155,40 156,60 157,360
158,80 159,160 160,40 161,70
162,10 163,40 164,10 169,410
170,70 171,220 172,40 173,120
174,200 175,570 176,10 177,30
178,20 179,220 180,40 181,20
183,60 184,20 185,100 186,20
187,150 188,30 189,1030 190,370
191,590 192,70 193,50 194,30
195,10 197,30 198,10 199,70
201,1100 202,30 203,1480 204,2280
205,900 206,250 207,90 208,20
209,10 213,40 215,20 217,8170
218,1420 219,1090 220,270 221,180
222,40 223,10 228,20 229,270
230,110 231,340 232,150 233,410
234,100 235,40 241,10 243,210
244,70 245,440 246,320 247,100
248,60 249,10 257,240 258,150
259,350 260,80 261,160 262,30
263,10 265,30 273,120 274,30
275,50 276,10 277,90 278,30
279,10 285,90 286,20 287,210
288,40 289,120 290,20 291,320
292,100 293,60 294,10 301,10
302,60 303,10 305,1290 306,1880
307,640 308,80 309,50 317,10
318,40 319,140 320,40 321,20
331,200 332,10 333,130 334,360
335,70 336,70 337,20 345,80
346,80 347,40 348,250 349,40
350,50 351,10 359,90 360,20
361,20 363,50 364,10 365,10
375,210 376,180 377,110 378,40
379,20 391,380 392,1390 393,360
394,20 395,10 404,50 405,20
413,10 449,40 450,10 464,70
465,40 466,20 481,20 503,70
504,20 593,20
##END=
