##TITLE=3-Hydroxy-3-(4'-hydroxy-3'-methoxyphenyl)propionic acid, tri-TMS
##JCAMP-DX=4.24
##DATA TYPE=MASS SPECTRUM
##ORIGIN=B.R. PETTIT, QUEEN CHARLOTTE'S MAT. HOSP., LONDON, U.K.
##OWNER=NIST Mass Spectrometry Data Center
Collection (C) 2014 copyright by the U.S. Secretary of Commerce
on behalf of the United States of America. All rights reserved.
##$NIST MASS SPEC NO=99942
##MOLFORM=C19 H36 O5 Si3
##MW=428
##$NIST SOURCE=MSDC
##XUNITS=M/Z
##YUNITS=RELATIVE INTENSITY
##XFACTOR=1
##YFACTOR=1
##FIRSTX=42
##LASTX=430
##FIRSTY=60
##MAXX=430
##MINX=42
##MAXY=9999
##MINY=60
##NPOINTS=51
##PEAK TABLE=(XY..XY)
42,60 43,60 44,190 45,820
47,250 59,310 66,120 72,120
73,7100 74,690 75,1450 76,120
77,190 89,120 103,60 116,190
117,190 131,120 133,190 147,1130
148,190 149,250 177,60 179,60
191,120 192,500 193,310 194,380
195,60 205,60 207,190 209,250
221,60 222,60 223,250 224,60
265,190 266,60 267,190 279,60
281,60 295,60 297,9999 298,2510
299,1000 300,120 310,120 413,120
428,560 429,120 430,60
##END=
